Species order:  N B                     
   2.51242800000000     
     5.9449720136058266    0.0000000000000000    0.0000000000000000
    -2.9724860068029120    5.1484967885702053   -0.0000000000000001
     0.0000000000000000    0.0000000000000009    5.3101128803662583
   N    B 
   144   143
Direct
<<<<<<< HEAD
  0.1110993596645267  0.0555638036703969  0.1249191097077927
  0.6111079230649840  0.5555720577113467  0.1254654209737688
  0.4444644440058776  0.0555638036703969  0.1249191097077927
  0.9444314083737568  0.5555422443307515  0.1248717364413634
  0.7777777777777786  0.0555555555555571  0.1248333597949653
  0.1111111111111143  0.7222222222222214  0.6251353708553732
  0.4444644440058776  0.7222339736688111  0.6250808902922083
  0.2777612756219884  0.2222254102683516  0.6245345790262299
  0.7777695296629391  0.7222339736688111  0.6250808902922083
  0.6111253784612677  0.2222079548720688  0.6250251643113978
  0.9444275705040763  0.2222082624885547  0.6251707952626439
  0.2777910890025838  0.7222224973763405  0.1248717364413634
  0.1110825764108100  0.2222079548720688  0.1249748356886009
  0.4444641346463629  0.2222254102683516  0.1254654209737688
  0.6111253784612677  0.7222507569225252  0.1249748356886009
  0.9444314083737568  0.7222224973763405  0.1248717364413634
  0.7777806919844787  0.2222082624885547  0.1248292047373564
  0.1111108359569952  0.8889019249595718  0.6251282635586368
  0.4444619450759878  0.8888976392046556  0.6251683750423093
  0.2777612756219884  0.3888691986869657  0.6245345790262299
  0.6111079230649840  0.3888691986869657  0.6245345790262299
  0.7777806919844787  0.8889057628292523  0.6251707952626439
  0.9444356941286730  0.3888713882573408  0.6251683750423093
  0.1110993596645267  0.3888688893274510  0.1249191097077927
  0.2777910890025838  0.8889019249595718  0.1248717364413634
  0.6111250708447808  0.8889057628292523  0.1248292047373564
  0.4444444444444429  0.3888888888888857  0.1251843831325248
  0.9444356941286730  0.8888976392046556  0.1248316249576920
  0.7777695296629391  0.3888688893274510  0.1249191097077927
  0.2777875785705122  0.5555457547628236  0.6249231120475256
  0.1110993596645267  0.0555638036703969  0.6250808902922083
  0.6111079230649840  0.5555720577113467  0.6245345790262299
  0.4444644440058776  0.0555638036703969  0.6250808902922083
  0.9444314083737568  0.5555422443307515  0.6251282635586368
  0.1111108359569952  0.5555422443307515  0.1248717364413634
  0.7777777777777786  0.0555555555555571  0.6251666402050335
  0.2777875785705122  0.0555751571410306  0.1250768879524743
  0.4444641346463629  0.5555720577113467  0.1254654209737688
  0.7777581761923043  0.5555457547628236  0.1250768879524743
  0.6111250708447808  0.0555526413488560  0.1248292047373564
  0.4444641346463629  0.5555720577113467  0.6245345790262299
  0.9444275705040763  0.0555526413488560  0.1248292047373564
  0.2777910890025838  0.7222224973763405  0.6251282635586368
  0.1110825764108100  0.2222079548720688  0.6250251643113978
  0.4444641346463629  0.2222254102683516  0.6245345790262299
  0.6111253784612677  0.7222507569225252  0.6250251643113978
  0.9444314083737568  0.7222224973763405  0.6251282635586368
  0.7777806919844787  0.2222082624885547  0.6251707952626439
  0.1111111111111143  0.7222222222222214  0.1248646291446275
  0.4444644440058776  0.7222339736688111  0.1249191097077927
  0.2777612756219884  0.2222254102683516  0.1254654209737688
  0.7777695296629391  0.7222339736688111  0.1249191097077927
  0.6111253784612677  0.2222079548720688  0.1249748356886009
  0.9444275705040763  0.2222082624885547  0.1248292047373564
  0.1110993596645267  0.3888688893274510  0.6250808902922083
  0.2777910890025838  0.8889019249595718  0.6251282635586368
  0.6111250708447808  0.8889057628292523  0.6251707952626439
  0.4444444444444429  0.3888888888888857  0.6248156168674754
  0.9444356941286730  0.8888976392046556  0.6251683750423093
  0.1111108359569952  0.8889019249595718  0.1248717364413634
  0.7777695296629391  0.3888688893274510  0.6250808902922083
  0.4444619450759878  0.8888976392046556  0.1248316249576920
  0.2777612756219884  0.3888691986869657  0.1254654209737688
  0.2777875785705122  0.5555457547628236  0.1250768879524743
  0.6111079230649840  0.3888691986869657  0.1254654209737688
  0.7777806919844787  0.8889057628292523  0.1248292047373564
  0.9444356941286730  0.3888713882573408  0.1248316249576920
  0.1111108359569952  0.5555422443307515  0.6251282635586368
  0.2777875785705122  0.0555751571410306  0.6249231120475256
  0.7777581761923043  0.5555457547628236  0.6249231120475256
  0.6111250708447808  0.0555526413488560  0.6251707952626439
  0.9444275705040763  0.0555526413488560  0.6251707952626439
  0.0551284301129837  0.1107947843497062  0.3750000000000000
  0.5560043375432570  0.6120086750865152  0.3750000000000000
  0.3887906598704176  0.1097677729996028  0.3750000000000000
  0.8893260485516130  0.6113296909424812  0.3750000000000000
  0.7222825356816638  0.1110507976516731  0.3750000000000000
  0.0555565593377235  0.7777767739956115  0.8750000000000000
  0.3888849067243981  0.7777777918802945  0.8750000000000000
  0.2222241851332659  0.2777787592332971  0.8750000000000000
  0.7222240829737698  0.7777763390626257  0.8750000000000000
  0.5555545741000379  0.2777787592332971  0.8750000000000000
  0.8888918441135237  0.2777836882270535  0.8750000000000000
  0.2220975530425687  0.7777154431879481  0.3750000000000000
  0.0551284301129837  0.2776669790966135  0.3750000000000000
  0.3858783942233608  0.2717567884467285  0.3750000000000000
  0.5556663542367242  0.7782049032203520  0.3750000000000000
  0.8893366795464051  0.7780935857171761  0.3750000000000000
  0.7225385489836303  0.2776669790966135  0.3750000000000000
  0.0555555414530403  0.9444404481774457  0.8750000000000000
  0.3888849067243981  0.9444404481774457  0.8750000000000000
  0.2222218548457923  0.4444473039161598  0.8750000000000000
  0.5555588032963905  0.4444460683148560  0.8750000000000000
  0.7222213003019184  0.9444426006038427  0.8750000000000000
  0.8888928851558829  0.4444484266089305  0.8750000000000000
  0.0552397476161591  0.4445764271625640  0.3750000000000000
  0.2220036423908547  0.9440072847817156  0.3750000000000000
  0.5555788136090677  0.9444560734711958  0.3750000000000000
  0.3858783942233608  0.4474549391099678  0.3750000000000000
  0.8888772598621328  0.9444560734711958  0.3750000000000000
  0.7235655603337339  0.4445426734629110  0.3750000000000000
  0.2222192191423026  0.6111141141910313  0.8750000000000000
  0.0555569942707101  0.1111092503595644  0.8750000000000000
  0.5555545741000379  0.6111091482000700  0.8750000000000000
  0.3888860294171688  0.1111078842629687  0.8750000000000000
  0.8888948950487154  0.6111141141910313  0.8750000000000000
  0.0556178901453869  0.6112357802907663  0.3750000000000000
  0.7222213003019184  0.1111120330314169  0.8750000000000000
  0.2209771131291857  0.1097677729996028  0.3750000000000000
  0.3887906598704176  0.6123562202041490  0.3750000000000000
  0.7235655603337339  0.6123562202041490  0.3750000000000000
  0.5556663542367242  0.1107947843497062  0.3750000000000000
  0.3888860294171688  0.6111114784875428  0.8750000000000000
  0.8887682619700028  0.1110507976516731  0.3750000000000000
  0.2222202146578816  0.7777767739956115  0.8750000000000000
  0.0555569942707101  0.2777810772444814  0.8750000000000000
  0.3888872650184726  0.2777745300369436  0.8750000000000000
  0.5555522560888546  0.7777763390626257  0.8750000000000000
  0.8888928851558829  0.7777777918802945  0.8750000000000000
  0.7222240829737698  0.2777810772444814  0.8750000000000000
  0.0556178901453869  0.7777154431879481  0.3750000000000000
  0.3887569061707646  0.7780935857171761  0.3750000000000000
  0.2213246582468196  0.2773289957900781  0.3750000000000000
  0.7225385489836303  0.7782049032203520  0.3750000000000000
  0.5560043375432570  0.2773289957900781  0.3750000000000000
  0.8888772598621328  0.2777545197242671  0.3750000000000000
  0.0555555414530403  0.4444484266089305  0.8750000000000000
  0.2222192191423026  0.9444384382846132  0.8750000000000000
  0.5555496451062816  0.9444414892198049  0.8750000000000000
  0.3888872650184726  0.4444460683148560  0.8750000000000000
  0.8888918441135237  0.9444414892198049  0.8750000000000000
  0.0552397476161591  0.9439966537869235  0.3750000000000000
  0.7222254490703665  0.4444473039161598  0.8750000000000000
  0.3887569061707646  0.9439966537869235  0.3750000000000000
  0.2209771131291857  0.4445426734629110  0.3750000000000000
  0.2220036423908547  0.6113296909424812  0.3750000000000000
  0.5615765448866069  0.4474549391099678  0.3750000000000000
  0.7222825356816638  0.9445650713633258  0.3750000000000000
  0.8893366795464051  0.4445764271625640  0.3750000000000000
  0.0555565593377235  0.6111131186754518  0.8750000000000000
  0.2222218548457923  0.1111078842629687  0.8750000000000000
  0.7222254490703665  0.6111114784875428  0.8750000000000000
  0.5555522560888546  0.1111092503595644  0.8750000000000000
  0.8888907327294859  0.1111120330314169  0.8750000000000000
  0.1108089621817208  0.0551763896713530  0.3750000000000000
  0.6108733316343697  0.5550179891573338  0.3750000000000000
  0.4443674274896322  0.0551763896713530  0.3750000000000000
  0.9445455365174589  0.5556306551543029  0.3750000000000000
  0.7777777777777786  0.0555555555555571  0.3750000000000000
  0.1111111111111143  0.7222222222222214  0.8750000000000000
  0.4444310002456646  0.7221787449757479  0.8750000000000000
  0.2778331804339846  0.2222682634519728  0.8750000000000000
  0.7777477447300823  0.7221787449757479  0.8750000000000000
  0.6110792030594910  0.2222541302738452  0.8750000000000000
  0.9444733599821235  0.2222423024521437  0.8750000000000000
  0.2777026781790342  0.7222482146964913  0.3750000000000000
  0.1112707096704925  0.2223020215019068  0.3750000000000000
  0.4441446575229707  0.2224600016989654  0.3750000000000000
  0.6110313118314301  0.7220626236628442  0.3750000000000000
  0.9445455365174589  0.7222482146964913  0.3750000000000000
  0.7777867105909999  0.2222342771532241  0.3750000000000000
  0.1111229427920946  0.8889015473948234  0.8750000000000000
  0.4444290630603775  0.8888811981968506  0.8750000000000000
  0.2778331804339846  0.3888982503153397  0.8750000000000000
  0.6110650698813611  0.3888982503153397  0.8750000000000000
  0.7777689424700194  0.8888599733512051  0.8750000000000000
  0.9444521351364780  0.3889042702729510  0.8750000000000000
  0.1108089621817208  0.3889659058436964  0.3750000000000000
  0.2777026781790342  0.8887877968158697  0.3750000000000000
  0.6110990561801128  0.8888857667711050  0.3750000000000000
  0.9444696669396712  0.8888636663936574  0.3750000000000000
  0.7781569436619815  0.3889659058436964  0.3750000000000000
  0.2777975513103119  0.5555357820230232  0.8750000000000000
  0.1111545883575889  0.0555855886032533  0.8750000000000000
  0.6110650698813611  0.5555001528993528  0.8750000000000000
  0.4444310002456646  0.0555855886032533  0.8750000000000000
  0.9444317859385052  0.5555547287306077  0.8750000000000000
  0.1110851186368437  0.5556306551543029  0.3750000000000000
  0.7777777777777786  0.0555555555555571  0.8750000000000000
  0.2777439205714004  0.0554878411428015  0.3750000000000000
  0.4441446575229707  0.5550179891573338  0.3750000000000000
  0.7778454921905349  0.5555894127619342  0.3750000000000000
  0.6110990561801128  0.0555466227423355  0.3750000000000000
  0.4444350830179889  0.5555001528993528  0.8750000000000000
  0.9444475665622236  0.0555466227423355  0.3750000000000000
  0.2777786046027276  0.7222103905412410  0.8750000000000000
  0.1111749272143619  0.2222541302738452  0.8750000000000000
  0.4444350830179889  0.2222682634519728  0.8750000000000000
  0.6110792030594910  0.7221584061189742  0.8750000000000000
  0.9444317859385052  0.7222103905412410  0.8750000000000000
  0.7777689424700194  0.2222423024521437  0.8750000000000000
  0.1111111111111143  0.7222222222222214  0.3750000000000000
  0.4443674274896322  0.7225243711516142  0.3750000000000000
  0.2783153441760029  0.2224600016989654  0.3750000000000000
  0.7781569436619815  0.7225243711516142  0.3750000000000000
  0.6110313118314301  0.2223020215019068  0.3750000000000000
  0.9444475665622236  0.2222342771532241  0.3750000000000000
  0.1111545883575889  0.3889023330876640  0.8750000000000000
  0.2777786046027276  0.8889015473948234  0.8750000000000000
  0.6110910308811914  0.8888599733512051  0.8750000000000000
  0.4444444444444429  0.3888888888888857  0.8750000000000000
  0.9444521351364780  0.8888811981968506  0.8750000000000000
  0.1110851186368437  0.8887877968158697  0.3750000000000000
  0.7777477447300823  0.3889023330876640  0.8750000000000000
  0.4443939994539903  0.8888636663936574  0.3750000000000000
  0.2783153441760029  0.3891886758103579  0.3750000000000000
  0.2777439205714004  0.5555894127619342  0.3750000000000000
  0.6108733316343697  0.3891886758103579  0.3750000000000000
  0.7777867105909999  0.8888857667711050  0.3750000000000000
  0.9444696669396712  0.3889393338793383  0.3750000000000000
  0.1111229427920946  0.5555547287306077  0.8750000000000000
  0.2777975513103119  0.0555951026206246  0.8750000000000000
  0.7777382307127120  0.5555357820230232  0.8750000000000000
  0.6110910308811914  0.0555643908633159  0.8750000000000000
  0.9444733599821235  0.0555643908633159  0.8750000000000000
  0.0556277328753393  0.1111855048861047  0.1251340486683899
  0.5554743820782964  0.6109487641565945  0.1258217365515455
  0.3889704126755740  0.1113235180595407  0.1255381722631446
  0.8887535311595700  0.6110434322464519  0.1251305761585698
  0.7222131206905333  0.1111202126428016  0.1249980507870904
  0.0555360221746713  0.7777973111586653  0.6249784606031584
  0.3889410917641584  0.7777450858752654  0.6249458942344458
  0.2223845691767387  0.2778589512550420  0.6241782634484523
  0.7221478284472331  0.7777056004579951  0.6248659513316102
  0.5554743820782964  0.2778589512550420  0.6241782634484523
  0.8888803593734891  0.2777607187469764  0.6250011209955719
  0.2222612889839927  0.7777973111586653  0.1250215393968412
  0.0556277328753393  0.2777755613225698  0.1251340486683899
  0.3890227562884212  0.2780455125768560  0.1267463176290969
  0.5555577720107652  0.7777056004579951  0.1251340486683899
  0.8888039941110998  0.7777450858752654  0.1250541057655547
  0.7221478284472331  0.2777755613225698  0.1251340486683899
  0.0555882474580700  0.9445293392222288  0.6249458942344458
  0.3889410917641584  0.9445293392222288  0.6249458942344458
  0.2223531053839596  0.4443629206577546  0.6244618277368569
  0.5552878207564791  0.4443105770449074  0.6232536823709020
  0.7222131206905333  0.9444262413810699  0.6250019492129089
  0.8888039941110998  0.4443922415691702  0.6249458942344458
  0.0555882474580700  0.4443922415691702  0.1250541057655547
  0.2222899010868828  0.9445798021737586  0.1251305761585698
  0.5555726145863590  0.9444529739598395  0.1249988790044298
  0.3890227562884212  0.4443105770449074  0.1267463176290969
  0.8888803593734891  0.9444529739598395  0.1249988790044298
  0.7220098152737949  0.4443629206577546  0.1255381722631446
  0.2222899010868828  0.6110434322464519  0.6248694238414368
  0.0556277328753393  0.1111855048861047  0.6248659513316102
  0.5554743820782964  0.6109487641565945  0.6241782634484523
  0.3889704126755740  0.1113235180595407  0.6244618277368569
  0.8887535311595700  0.6110434322464519  0.6248694238414368
  0.0555360221746713  0.6110720443493436  0.1250215393968412
  0.7222131206905333  0.1111202126428016  0.6250019492129089
  0.2223531053839596  0.1113235180595407  0.1255381722631446
  0.3889704126755740  0.6109802279493758  0.1255381722631446
  0.7220098152737949  0.6109802279493758  0.1255381722631446
  0.5555577720107652  0.1111855048861047  0.1251340486683899
  0.3889704126755740  0.6109802279493758  0.6244618277368569
  0.8889070919522587  0.1111202126428016  0.1249980507870904
  0.2222612889839927  0.7777973111586653  0.6249784606031584
  0.0556277328753393  0.2777755613225698  0.6248659513316102
  0.3890227562884212  0.2780455125768560  0.6232536823709020
  0.5555577720107652  0.7777056004579951  0.6248659513316102
  0.8888039941110998  0.7777450858752654  0.6249458942344458
  0.7221478284472331  0.2777755613225698  0.6248659513316102
  0.0555360221746713  0.7777973111586653  0.1250215393968412
  0.3889410917641584  0.7777450858752654  0.1250541057655547
  0.2223845691767387  0.2778589512550420  0.1258217365515455
  0.7221478284472331  0.7777056004579951  0.1251340486683899
  0.5554743820782964  0.2778589512550420  0.1258217365515455
  0.8888803593734891  0.2777607187469764  0.1249988790044298
  0.0555882474580700  0.4443922415691702  0.6249458942344458
  0.2222899010868828  0.9445798021737586  0.6248694238414368
  0.5555726145863590  0.9444529739598395  0.6250011209955719
  0.3890227562884212  0.4443105770449074  0.6232536823709020
  0.8888803593734891  0.9444529739598395  0.6250011209955719
  0.0555882474580700  0.9445293392222288  0.1250541057655547
  0.7220098152737949  0.4443629206577546  0.6244618277368569
  0.3889410917641584  0.9445293392222288  0.1250541057655547
  0.2223531053839596  0.4443629206577546  0.1255381722631446
  0.2222899010868828  0.6110434322464519  0.1251305761585698
  0.5552878207564791  0.4443105770449074  0.1267463176290969
  0.7222131206905333  0.9444262413810699  0.1249980507870904
  0.8888039941110998  0.4443922415691702  0.1250541057655547
  0.0555360221746713  0.6110720443493436  0.6249784606031584
  0.2223531053839596  0.1113235180595407  0.6244618277368569
  0.7220098152737949  0.6109802279493758  0.6244618277368569
  0.5555577720107652  0.1111855048861047  0.6248659513316102
  0.8889070919522587  0.1111202126428016  0.6250019492129089
=======
  0.1110998075918529  0.0555628924209183  0.1249314757109827
  0.6111100663059544  0.5555713111336241  0.1255697160906371
  0.4444630848290796  0.0555628924209183  0.1249314757109827
  0.9444322372072509  0.5555430155206854  0.1248633806141641
  0.7777777777777786  0.0555555555555571  0.1248214841851909
  0.1111111111111143  0.7222222222222214  0.6251480471867241
  0.4444630848290796  0.7222335257414898  0.6250685242890170
  0.2777620221997114  0.2222232670273812  0.6244302839093631
  0.7777704409124171  0.7222335257414898  0.6250685242890170
  0.6111232794270364  0.2222100539062994  0.6249912645271073
  0.9444302733164982  0.2222101261721471  0.6251793307213968
  0.2777903178126501  0.7222225550199013  0.1248633806141641
  0.1110867744792701  0.2222100539062994  0.1250087354728926
  0.4444612448276698  0.2222232670273812  0.1255697160906371
  0.6111232794270364  0.7222465588540655  0.1250087354728926
  0.9444322372072509  0.7222225550199013  0.1248633806141641
  0.7777798528556490  0.2222101261721471  0.1248206692786032
  0.1111107783134345  0.8889010961260777  0.6251366193858355
  0.4444603305098414  0.8888968319215852  0.6251848904718107
  0.2777620221997114  0.3888720885056588  0.6244302839093631
  0.6111100663059544  0.3888720885056588  0.6244302839093631
  0.7777798528556490  0.8889030600168304  0.6251793307213968
  0.9444365014117434  0.3888730028234872  0.6251848904718107
  0.1110998075918529  0.3888702485042490  0.1249314757109827
  0.2777903178126501  0.8889010961260777  0.1248633806141641
  0.6111232071611884  0.8889030600168304  0.1248206692786032
  0.4444444444444429  0.3888888888888857  0.1252403794953825
  0.9444365014117434  0.8888968319215852  0.1248151095281892
  0.7777704409124171  0.3888702485042490  0.1249314757109827
  0.2777864433461703  0.5555468899871654  0.6248902112686187
  0.1110998075918529  0.0555628924209183  0.6250685242890170
  0.6111100663059544  0.5555713111336241  0.6244302839093631
  0.4444630848290796  0.0555628924209183  0.6250685242890170
  0.9444322372072509  0.5555430155206854  0.6251366193858355
  0.1111107783134345  0.5555430155206854  0.1248633806141641
  0.7777777777777786  0.0555555555555571  0.6251785158148020
  0.2777864433461703  0.0555728866923477  0.1251097887313815
  0.4444612448276698  0.5555713111336241  0.1255697160906371
  0.7777604466409881  0.5555468899871654  0.1251097887313815
  0.6111232071611884  0.0555534804776867  0.1248206692786032
  0.4444612448276698  0.5555713111336241  0.6244302839093631
  0.9444302733164982  0.0555534804776867  0.1248206692786032
  0.2777903178126501  0.7222225550199013  0.6251366193858355
  0.1110867744792701  0.2222100539062994  0.6249912645271073
  0.4444612448276698  0.2222232670273812  0.6244302839093631
  0.6111232794270364  0.7222465588540655  0.6249912645271073
  0.9444322372072509  0.7222225550199013  0.6251366193858355
  0.7777798528556490  0.2222101261721471  0.6251793307213968
  0.1111111111111143  0.7222222222222214  0.1248519528132759
  0.4444630848290796  0.7222335257414898  0.1249314757109827
  0.2777620221997114  0.2222232670273812  0.1255697160906371
  0.7777704409124171  0.7222335257414898  0.1249314757109827
  0.6111232794270364  0.2222100539062994  0.1250087354728926
  0.9444302733164982  0.2222101261721471  0.1248206692786032
  0.1110998075918529  0.3888702485042490  0.6250685242890170
  0.2777903178126501  0.8889010961260777  0.6251366193858355
  0.6111232071611884  0.8889030600168304  0.6251793307213968
  0.4444444444444429  0.3888888888888857  0.6247596205046173
  0.9444365014117434  0.8888968319215852  0.6251848904718107
  0.1111107783134345  0.8889010961260777  0.1248633806141641
  0.7777704409124171  0.3888702485042490  0.6250685242890170
  0.4444603305098414  0.8888968319215852  0.1248151095281892
  0.2777620221997114  0.3888720885056588  0.1255697160906371
  0.2777864433461703  0.5555468899871654  0.1251097887313815
  0.6111100663059544  0.3888720885056588  0.1255697160906371
  0.7777798528556490  0.8889030600168304  0.1248206692786032
  0.9444365014117434  0.3888730028234872  0.1248151095281892
  0.1111107783134345  0.5555430155206854  0.6251366193858355
  0.2777864433461703  0.0555728866923477  0.6248902112686187
  0.7777604466409881  0.5555468899871654  0.6248902112686187
  0.6111232071611884  0.0555534804776867  0.6251793307213968
  0.9444302733164982  0.0555534804776867  0.6251793307213968
  0.0551338265786985  0.1108118535043601  0.3750000000000000
  0.5559510840278894  0.6119021680557792  0.3750000000000000
  0.3888367668741362  0.1097875782498523  0.3750000000000000
  0.8893152168264242  0.6113242750798905  0.3750000000000000
  0.7222818472736935  0.1110514860596421  0.3750000000000000
  0.0555565540333113  0.7777767793000244  0.8750000000000000
  0.3888846054195813  0.7777771427955809  0.8750000000000000
  0.2222246319604992  0.2777789826469174  0.8750000000000000
  0.7222237483791245  0.7777759026167597  0.8750000000000000
  0.5555543506864183  0.2777789826469174  0.8750000000000000
  0.8888918953906048  0.2777837907812162  0.8750000000000000
  0.2220928667741270  0.7777131000537312  0.3750000000000000
  0.0551338265786985  0.2776553064076740  0.3750000000000000
  0.3863228635286098  0.2726457270572264  0.3750000000000000
  0.5556780269256689  0.7781995067546372  0.3750000000000000
  0.8893515176143252  0.7781134274395337  0.3750000000000000
  0.7225214798289755  0.2776553064076740  0.3750000000000000
  0.0555561905377550  0.9444407959573433  0.8750000000000000
  0.3888846054195813  0.9444407959573433  0.8750000000000000
  0.2222220296776026  0.4444474569417753  0.8750000000000000
  0.5555576177617305  0.4444454755475225  0.8750000000000000
  0.7222211330239071  0.9444422660478214  0.8750000000000000
  0.8888925373759853  0.4444487279137473  0.8750000000000000
  0.0552199058937950  0.4445714235081273  0.3750000000000000
  0.2220090582534452  0.9440181165069044  0.3750000000000000
  0.5555845412360702  0.9444589372846960  0.3750000000000000
  0.3863228635286098  0.4470104698047188  0.3750000000000000
  0.8888743960486326  0.9444589372846960  0.3750000000000000
  0.7235457550834834  0.4444965664591924  0.3750000000000000
  0.2222198107859193  0.6111135225474164  0.8750000000000000
  0.0555574307165761  0.1111095849542039  0.8750000000000000
  0.5555543506864183  0.6111087013728366  0.8750000000000000
  0.3888858763915533  0.1111079060691630  0.8750000000000000
  0.8888937117614828  0.6111135225474164  0.8750000000000000
  0.0556202332796044  0.6112404665592085  0.3750000000000000
  0.7222211330239071  0.1111122003094284  0.8750000000000000
  0.2209508113757161  0.1097875782498523  0.3750000000000000
  0.3888367668741362  0.6123825219576198  0.3750000000000000
  0.7235457550834834  0.6123825219576198  0.3750000000000000
  0.5556780269256689  0.1108118535043601  0.3750000000000000
  0.3888858763915533  0.6111113036557332  0.8750000000000000
  0.8887696387859414  0.1110514860596421  0.3750000000000000
  0.2222202252667060  0.7777767793000244  0.8750000000000000
  0.0555574307165761  0.2777811790957080  0.8750000000000000
  0.3888878577858061  0.2777757155716053  0.8750000000000000
  0.5555521542376276  0.7777759026167597  0.8750000000000000
  0.8888925373759853  0.7777771427955809  0.8750000000000000
  0.7222237483791245  0.2777811790957080  0.8750000000000000
  0.0556202332796044  0.7777131000537312  0.3750000000000000
  0.3887619098252013  0.7781134274395337  0.3750000000000000
  0.2214311652775564  0.2773822493054461  0.3750000000000000
  0.7225214798289755  0.7781995067546372  0.3750000000000000
  0.5559510840278894  0.2773822493054461  0.3750000000000000
  0.8888743960486326  0.2777487920972655  0.3750000000000000
  0.0555561905377550  0.4444487279137473  0.8750000000000000
  0.2222198107859193  0.9444396215718458  0.8750000000000000
  0.5555495425521196  0.9444414379427238  0.8750000000000000
  0.3888878577858061  0.4444454755475225  0.8750000000000000
  0.8888918953906048  0.9444414379427238  0.8750000000000000
  0.0552199058937950  0.9439818157190034  0.3750000000000000
  0.7222254272641726  0.4444474569417753  0.8750000000000000
  0.3887619098252013  0.9439818157190034  0.3750000000000000
  0.2209508113757161  0.4444965664591924  0.3750000000000000
  0.2220090582534452  0.6113242750798905  0.3750000000000000
  0.5606876062761090  0.4470104698047188  0.3750000000000000
  0.7222818472736935  0.9445636945473872  0.3750000000000000
  0.8893515176143252  0.4445714235081273  0.3750000000000000
  0.0555565540333113  0.6111131080666297  0.8750000000000000
  0.2222220296776026  0.1111079060691630  0.8750000000000000
  0.7222254272641726  0.6111113036557332  0.8750000000000000
  0.5555521542376276  0.1111095849542039  0.8750000000000000
  0.8888910672855072  0.1111122003094284  0.8750000000000000
  0.1107951272607196  0.0551635008899729  0.3750000000000000
  0.6108962994454493  0.5548909151585627  0.3750000000000000
  0.4443683736292532  0.0551635008899729  0.3750000000000000
  0.9445423508900196  0.5556286870694753  0.3750000000000000
  0.7777777777777786  0.0555555555555571  0.3750000000000000
  0.1111111111111143  0.7222222222222214  0.8750000000000000
  0.4444318477590413  0.7221791568869365  0.8750000000000000
  0.2778338024788350  0.2222690064782470  0.8750000000000000
  0.7777473091278949  0.7221791568869365  0.8750000000000000
  0.6110792795457096  0.2222540537876259  0.8750000000000000
  0.9444730300706549  0.2222417253129075  0.8750000000000000
  0.2777046462638604  0.7222469971538799  0.3750000000000000
  0.1113040038487812  0.2223186685910477  0.3750000000000000
  0.4439946157131204  0.2224370338878863  0.3750000000000000
  0.6110146647422878  0.7220293294845548  0.3750000000000000
  0.9445423508900196  0.7222469971538799  0.3750000000000000
  0.7777791286473006  0.2222285820090600  0.3750000000000000
  0.1111232578902182  0.8889024080870112  0.8750000000000000
  0.4444298743699486  0.8888816038516354  0.8750000000000000
  0.2778338024788350  0.3888981293339166  0.8750000000000000
  0.6110643268550886  0.3888981293339166  0.8750000000000000
  0.7777686952422527  0.8888603032626737  0.8750000000000000
  0.9444517294816932  0.3889034589633800  0.8750000000000000
  0.1107951272607196  0.3889649597040754  0.3750000000000000
  0.2777046462638604  0.8887909824433090  0.3750000000000000
  0.6111047513242825  0.8888838799715691  0.3750000000000000
  0.9444657438407801  0.8888675894925485  0.3750000000000000
  0.7781698324433627  0.3889649597040754  0.3750000000000000
  0.2777980272348965  0.5555353060984392  0.8750000000000000
  0.1111541764463993  0.0555860242054406  0.8750000000000000
  0.6110643268550886  0.5554995308545080  0.8750000000000000
  0.4444318477590413  0.0555860242054406  0.8750000000000000
  0.9444309252463174  0.5555541831365430  0.8750000000000000
  0.1110863361794558  0.5556286870694753  0.3750000000000000
  0.7777777777777786  0.0555555555555571  0.8750000000000000
  0.2777548671069876  0.0555097342139680  0.3750000000000000
  0.4439946157131204  0.5548909151585627  0.3750000000000000
  0.7778235991193676  0.5555784662263480  0.3750000000000000
  0.6111047513242825  0.0555542046860353  0.3750000000000000
  0.4444352039994120  0.5554995308545080  0.8750000000000000
  0.9444494533617595  0.0555542046860353  0.3750000000000000
  0.2777791501967929  0.7222100754431178  0.8750000000000000
  0.1111747742419233  0.2222540537876259  0.8750000000000000
  0.4444352039994120  0.2222690064782470  0.8750000000000000
  0.6110792795457096  0.7221585590914125  0.8750000000000000
  0.9444309252463174  0.7222100754431178  0.8750000000000000
  0.7777686952422527  0.2222417253129075  0.8750000000000000
  0.1111111111111143  0.7222222222222214  0.3750000000000000
  0.4443683736292532  0.7225382060726163  0.3750000000000000
  0.2784424181747729  0.2224370338878863  0.3750000000000000
  0.7781698324433627  0.7225382060726163  0.3750000000000000
  0.6110146647422878  0.2223186685910477  0.3750000000000000
  0.9444494533617595  0.2222285820090600  0.3750000000000000
  0.1111541764463993  0.3889014855742873  0.8750000000000000
  0.2777791501967929  0.8889024080870112  0.8750000000000000
  0.6110916080204284  0.8888603032626737  0.8750000000000000
  0.4444444444444429  0.3888888888888857  0.8750000000000000
  0.9444517294816932  0.8888816038516354  0.8750000000000000
  0.1110863361794558  0.8887909824433090  0.3750000000000000
  0.7777473091278949  0.3889014855742873  0.8750000000000000
  0.4444018456517688  0.8888675894925485  0.3750000000000000
  0.2784424181747729  0.3893387176202082  0.3750000000000000
  0.2777548671069876  0.5555784662263480  0.3750000000000000
  0.6108962994454493  0.3893387176202082  0.3750000000000000
  0.7777791286473006  0.8888838799715691  0.3750000000000000
  0.9444657438407801  0.3889314876815598  0.3750000000000000
  0.1111232578902182  0.5555541831365430  0.8750000000000000
  0.2777980272348965  0.0555960544697861  0.8750000000000000
  0.7777372788635497  0.5555353060984392  0.8750000000000000
  0.6110916080204284  0.0555646380910830  0.8750000000000000
  0.9444730300706549  0.0555646380910830  0.8750000000000000
  0.0556293536716747  0.1111861256418343  0.1251495339989147
  0.5554742492348285  0.6109484984696639  0.1259176857817714
  0.3889680916550482  0.1113192010453811  0.1255889860954154
  0.8887556171247122  0.6110444752290242  0.1251392037274589
  0.7222127948847428  0.1111205384485930  0.1249979703301854
  0.0555364975997093  0.7777968357336262  0.6249838712561864
  0.3889404917519595  0.7777455222017632  0.6249480120962424
  0.2223848348636719  0.2778590840985073  0.6240823142182212
  0.7221472076915013  0.7777039796616537  0.6248504660010854
  0.5554742492348285  0.2778590840985073  0.6240823142182212
  0.8888807858011417  0.2777615716022828  0.6250019025838085
  0.2222603381339171  0.7777968357336262  0.1250161287438136
  0.0556293536716747  0.2777765613631761  0.1251495339989147
  0.3890268481667409  0.2780536963334960  0.1268387968361687
  0.5555567719701597  0.7777039796616537  0.1251495339989147
  0.8888050304497965  0.7777455222017632  0.1250519879037576
  0.7221472076915013  0.2777765613631761  0.1251495339989147
  0.0555878111315727  0.9445283028835321  0.6249480120962424
  0.3889404917519595  0.9445283028835321  0.6249480120962424
  0.2223511093903258  0.4443652416782804  0.6244110139045845
  0.5552796369998326  0.4443064851665877  0.6231612031638313
  0.7222127948847428  0.9444255897694925  0.6250020296698143
  0.8888050304497965  0.4443928415813690  0.6249480120962424
  0.0555878111315727  0.4443928415813690  0.1250519879037576
  0.2222888581043118  0.9445777162086164  0.1251392037274589
  0.5555717617310528  0.9444525475321869  0.1249980974161917
  0.3890268481667409  0.4443064851665877  0.1268387968361687
  0.8888807858011417  0.9444525475321869  0.1249980974161917
  0.7220141322879550  0.4443652416782804  0.1255889860954154
  0.2222888581043118  0.6110444752290242  0.6248607962725482
  0.0556293536716747  0.1111861256418343  0.6248504660010854
  0.5554742492348285  0.6109484984696639  0.6240823142182212
  0.3889680916550482  0.1113192010453811  0.6244110139045845
  0.8887556171247122  0.6110444752290242  0.6248607962725482
  0.0555364975997093  0.6110729951994185  0.1250161287438136
  0.7222127948847428  0.1111205384485930  0.6250020296698143
  0.2223511093903258  0.1113192010453811  0.1255889860954154
  0.3889680916550482  0.6109822239430100  0.1255889860954154
  0.7220141322879550  0.6109822239430100  0.1255889860954154
  0.5555567719701597  0.1111861256418343  0.1251495339989147
  0.3889680916550482  0.6109822239430100  0.6244110139045845
  0.8889077435638361  0.1111205384485930  0.1249979703301854
  0.2222603381339171  0.7777968357336262  0.6249838712561864
  0.0556293536716747  0.2777765613631761  0.6248504660010854
  0.3890268481667409  0.2780536963334960  0.6231612031638313
  0.5555567719701597  0.7777039796616537  0.6248504660010854
  0.8888050304497965  0.7777455222017632  0.6249480120962424
  0.7221472076915013  0.2777765613631761  0.6248504660010854
  0.0555364975997093  0.7777968357336262  0.1250161287438136
  0.3889404917519595  0.7777455222017632  0.1250519879037576
  0.2223848348636719  0.2778590840985073  0.1259176857817714
  0.7221472076915013  0.7777039796616537  0.1251495339989147
  0.5554742492348285  0.2778590840985073  0.1259176857817714
  0.8888807858011417  0.2777615716022828  0.1249980974161917
  0.0555878111315727  0.4443928415813690  0.6249480120962424
  0.2222888581043118  0.9445777162086164  0.6248607962725482
  0.5555717617310528  0.9444525475321869  0.6250019025838085
  0.3890268481667409  0.4443064851665877  0.6231612031638313
  0.8888807858011417  0.9444525475321869  0.6250019025838085
  0.0555878111315727  0.9445283028835321  0.1250519879037576
  0.7220141322879550  0.4443652416782804  0.6244110139045845
  0.3889404917519595  0.9445283028835321  0.1250519879037576
  0.2223511093903258  0.4443652416782804  0.1255889860954154
  0.2222888581043118  0.6110444752290242  0.1251392037274589
  0.5552796369998326  0.4443064851665877  0.1268387968361687
  0.7222127948847428  0.9444255897694925  0.1249979703301854
  0.8888050304497965  0.4443928415813690  0.1250519879037576
  0.0555364975997093  0.6110729951994185  0.6249838712561864
  0.2223511093903258  0.1113192010453811  0.6244110139045845
  0.7220141322879550  0.6109822239430100  0.6244110139045845
  0.5555567719701597  0.1111861256418343  0.6248504660010854
  0.8889077435638361  0.1111205384485930  0.6250020296698143
>>>>>>> cbf1fbc04ec25b207980f441260079819b4adc8e
 
  0.00000000E+00  0.00000000E+00  0.00000000E+00
  0.00000000E+00  0.00000000E+00  0.00000000E+00
  0.00000000E+00  0.00000000E+00  0.00000000E+00
  0.00000000E+00  0.00000000E+00  0.00000000E+00
  0.00000000E+00  0.00000000E+00  0.00000000E+00
  0.00000000E+00  0.00000000E+00  0.00000000E+00
  0.00000000E+00  0.00000000E+00  0.00000000E+00
  0.00000000E+00  0.00000000E+00  0.00000000E+00
  0.00000000E+00  0.00000000E+00  0.00000000E+00
  0.00000000E+00  0.00000000E+00  0.00000000E+00
  0.00000000E+00  0.00000000E+00  0.00000000E+00
  0.00000000E+00  0.00000000E+00  0.00000000E+00
  0.00000000E+00  0.00000000E+00  0.00000000E+00
  0.00000000E+00  0.00000000E+00  0.00000000E+00
  0.00000000E+00  0.00000000E+00  0.00000000E+00
  0.00000000E+00  0.00000000E+00  0.00000000E+00
  0.00000000E+00  0.00000000E+00  0.00000000E+00
  0.00000000E+00  0.00000000E+00  0.00000000E+00
  0.00000000E+00  0.00000000E+00  0.00000000E+00
  0.00000000E+00  0.00000000E+00  0.00000000E+00
  0.00000000E+00  0.00000000E+00  0.00000000E+00
  0.00000000E+00  0.00000000E+00  0.00000000E+00
  0.00000000E+00  0.00000000E+00  0.00000000E+00
  0.00000000E+00  0.00000000E+00  0.00000000E+00
  0.00000000E+00  0.00000000E+00  0.00000000E+00
  0.00000000E+00  0.00000000E+00  0.00000000E+00
  0.00000000E+00  0.00000000E+00  0.00000000E+00
  0.00000000E+00  0.00000000E+00  0.00000000E+00
  0.00000000E+00  0.00000000E+00  0.00000000E+00
  0.00000000E+00  0.00000000E+00  0.00000000E+00
  0.00000000E+00  0.00000000E+00  0.00000000E+00
  0.00000000E+00  0.00000000E+00  0.00000000E+00
  0.00000000E+00  0.00000000E+00  0.00000000E+00
  0.00000000E+00  0.00000000E+00  0.00000000E+00
  0.00000000E+00  0.00000000E+00  0.00000000E+00
  0.00000000E+00  0.00000000E+00  0.00000000E+00
  0.00000000E+00  0.00000000E+00  0.00000000E+00
  0.00000000E+00  0.00000000E+00  0.00000000E+00
  0.00000000E+00  0.00000000E+00  0.00000000E+00
  0.00000000E+00  0.00000000E+00  0.00000000E+00
  0.00000000E+00  0.00000000E+00  0.00000000E+00
  0.00000000E+00  0.00000000E+00  0.00000000E+00
  0.00000000E+00  0.00000000E+00  0.00000000E+00
  0.00000000E+00  0.00000000E+00  0.00000000E+00
  0.00000000E+00  0.00000000E+00  0.00000000E+00
  0.00000000E+00  0.00000000E+00  0.00000000E+00
  0.00000000E+00  0.00000000E+00  0.00000000E+00
  0.00000000E+00  0.00000000E+00  0.00000000E+00
  0.00000000E+00  0.00000000E+00  0.00000000E+00
  0.00000000E+00  0.00000000E+00  0.00000000E+00
  0.00000000E+00  0.00000000E+00  0.00000000E+00
  0.00000000E+00  0.00000000E+00  0.00000000E+00
  0.00000000E+00  0.00000000E+00  0.00000000E+00
  0.00000000E+00  0.00000000E+00  0.00000000E+00
  0.00000000E+00  0.00000000E+00  0.00000000E+00
  0.00000000E+00  0.00000000E+00  0.00000000E+00
  0.00000000E+00  0.00000000E+00  0.00000000E+00
  0.00000000E+00  0.00000000E+00  0.00000000E+00
  0.00000000E+00  0.00000000E+00  0.00000000E+00
  0.00000000E+00  0.00000000E+00  0.00000000E+00
  0.00000000E+00  0.00000000E+00  0.00000000E+00
  0.00000000E+00  0.00000000E+00  0.00000000E+00
  0.00000000E+00  0.00000000E+00  0.00000000E+00
  0.00000000E+00  0.00000000E+00  0.00000000E+00
  0.00000000E+00  0.00000000E+00  0.00000000E+00
  0.00000000E+00  0.00000000E+00  0.00000000E+00
  0.00000000E+00  0.00000000E+00  0.00000000E+00
  0.00000000E+00  0.00000000E+00  0.00000000E+00
  0.00000000E+00  0.00000000E+00  0.00000000E+00
  0.00000000E+00  0.00000000E+00  0.00000000E+00
  0.00000000E+00  0.00000000E+00  0.00000000E+00
  0.00000000E+00  0.00000000E+00  0.00000000E+00
  0.00000000E+00  0.00000000E+00  0.00000000E+00
  0.00000000E+00  0.00000000E+00  0.00000000E+00
  0.00000000E+00  0.00000000E+00  0.00000000E+00
  0.00000000E+00  0.00000000E+00  0.00000000E+00
  0.00000000E+00  0.00000000E+00  0.00000000E+00
  0.00000000E+00  0.00000000E+00  0.00000000E+00
  0.00000000E+00  0.00000000E+00  0.00000000E+00
  0.00000000E+00  0.00000000E+00  0.00000000E+00
  0.00000000E+00  0.00000000E+00  0.00000000E+00
  0.00000000E+00  0.00000000E+00  0.00000000E+00
  0.00000000E+00  0.00000000E+00  0.00000000E+00
  0.00000000E+00  0.00000000E+00  0.00000000E+00
  0.00000000E+00  0.00000000E+00  0.00000000E+00
  0.00000000E+00  0.00000000E+00  0.00000000E+00
  0.00000000E+00  0.00000000E+00  0.00000000E+00
  0.00000000E+00  0.00000000E+00  0.00000000E+00
  0.00000000E+00  0.00000000E+00  0.00000000E+00
  0.00000000E+00  0.00000000E+00  0.00000000E+00
  0.00000000E+00  0.00000000E+00  0.00000000E+00
  0.00000000E+00  0.00000000E+00  0.00000000E+00
  0.00000000E+00  0.00000000E+00  0.00000000E+00
  0.00000000E+00  0.00000000E+00  0.00000000E+00
  0.00000000E+00  0.00000000E+00  0.00000000E+00
  0.00000000E+00  0.00000000E+00  0.00000000E+00
  0.00000000E+00  0.00000000E+00  0.00000000E+00
  0.00000000E+00  0.00000000E+00  0.00000000E+00
  0.00000000E+00  0.00000000E+00  0.00000000E+00
  0.00000000E+00  0.00000000E+00  0.00000000E+00
  0.00000000E+00  0.00000000E+00  0.00000000E+00
  0.00000000E+00  0.00000000E+00  0.00000000E+00
  0.00000000E+00  0.00000000E+00  0.00000000E+00
  0.00000000E+00  0.00000000E+00  0.00000000E+00
  0.00000000E+00  0.00000000E+00  0.00000000E+00
  0.00000000E+00  0.00000000E+00  0.00000000E+00
  0.00000000E+00  0.00000000E+00  0.00000000E+00
  0.00000000E+00  0.00000000E+00  0.00000000E+00
  0.00000000E+00  0.00000000E+00  0.00000000E+00
  0.00000000E+00  0.00000000E+00  0.00000000E+00
  0.00000000E+00  0.00000000E+00  0.00000000E+00
  0.00000000E+00  0.00000000E+00  0.00000000E+00
  0.00000000E+00  0.00000000E+00  0.00000000E+00
  0.00000000E+00  0.00000000E+00  0.00000000E+00
  0.00000000E+00  0.00000000E+00  0.00000000E+00
  0.00000000E+00  0.00000000E+00  0.00000000E+00
  0.00000000E+00  0.00000000E+00  0.00000000E+00
  0.00000000E+00  0.00000000E+00  0.00000000E+00
  0.00000000E+00  0.00000000E+00  0.00000000E+00
  0.00000000E+00  0.00000000E+00  0.00000000E+00
  0.00000000E+00  0.00000000E+00  0.00000000E+00
  0.00000000E+00  0.00000000E+00  0.00000000E+00
  0.00000000E+00  0.00000000E+00  0.00000000E+00
  0.00000000E+00  0.00000000E+00  0.00000000E+00
  0.00000000E+00  0.00000000E+00  0.00000000E+00
  0.00000000E+00  0.00000000E+00  0.00000000E+00
  0.00000000E+00  0.00000000E+00  0.00000000E+00
  0.00000000E+00  0.00000000E+00  0.00000000E+00
  0.00000000E+00  0.00000000E+00  0.00000000E+00
  0.00000000E+00  0.00000000E+00  0.00000000E+00
  0.00000000E+00  0.00000000E+00  0.00000000E+00
  0.00000000E+00  0.00000000E+00  0.00000000E+00
  0.00000000E+00  0.00000000E+00  0.00000000E+00
  0.00000000E+00  0.00000000E+00  0.00000000E+00
  0.00000000E+00  0.00000000E+00  0.00000000E+00
  0.00000000E+00  0.00000000E+00  0.00000000E+00
  0.00000000E+00  0.00000000E+00  0.00000000E+00
  0.00000000E+00  0.00000000E+00  0.00000000E+00
  0.00000000E+00  0.00000000E+00  0.00000000E+00
  0.00000000E+00  0.00000000E+00  0.00000000E+00
  0.00000000E+00  0.00000000E+00  0.00000000E+00
  0.00000000E+00  0.00000000E+00  0.00000000E+00
  0.00000000E+00  0.00000000E+00  0.00000000E+00
  0.00000000E+00  0.00000000E+00  0.00000000E+00
  0.00000000E+00  0.00000000E+00  0.00000000E+00
  0.00000000E+00  0.00000000E+00  0.00000000E+00
  0.00000000E+00  0.00000000E+00  0.00000000E+00
  0.00000000E+00  0.00000000E+00  0.00000000E+00
  0.00000000E+00  0.00000000E+00  0.00000000E+00
  0.00000000E+00  0.00000000E+00  0.00000000E+00
  0.00000000E+00  0.00000000E+00  0.00000000E+00
  0.00000000E+00  0.00000000E+00  0.00000000E+00
  0.00000000E+00  0.00000000E+00  0.00000000E+00
  0.00000000E+00  0.00000000E+00  0.00000000E+00
  0.00000000E+00  0.00000000E+00  0.00000000E+00
  0.00000000E+00  0.00000000E+00  0.00000000E+00
  0.00000000E+00  0.00000000E+00  0.00000000E+00
  0.00000000E+00  0.00000000E+00  0.00000000E+00
  0.00000000E+00  0.00000000E+00  0.00000000E+00
  0.00000000E+00  0.00000000E+00  0.00000000E+00
  0.00000000E+00  0.00000000E+00  0.00000000E+00
  0.00000000E+00  0.00000000E+00  0.00000000E+00
  0.00000000E+00  0.00000000E+00  0.00000000E+00
  0.00000000E+00  0.00000000E+00  0.00000000E+00
  0.00000000E+00  0.00000000E+00  0.00000000E+00
  0.00000000E+00  0.00000000E+00  0.00000000E+00
  0.00000000E+00  0.00000000E+00  0.00000000E+00
  0.00000000E+00  0.00000000E+00  0.00000000E+00
  0.00000000E+00  0.00000000E+00  0.00000000E+00
  0.00000000E+00  0.00000000E+00  0.00000000E+00
  0.00000000E+00  0.00000000E+00  0.00000000E+00
  0.00000000E+00  0.00000000E+00  0.00000000E+00
  0.00000000E+00  0.00000000E+00  0.00000000E+00
  0.00000000E+00  0.00000000E+00  0.00000000E+00
  0.00000000E+00  0.00000000E+00  0.00000000E+00
  0.00000000E+00  0.00000000E+00  0.00000000E+00
  0.00000000E+00  0.00000000E+00  0.00000000E+00
  0.00000000E+00  0.00000000E+00  0.00000000E+00
  0.00000000E+00  0.00000000E+00  0.00000000E+00
  0.00000000E+00  0.00000000E+00  0.00000000E+00
  0.00000000E+00  0.00000000E+00  0.00000000E+00
  0.00000000E+00  0.00000000E+00  0.00000000E+00
  0.00000000E+00  0.00000000E+00  0.00000000E+00
  0.00000000E+00  0.00000000E+00  0.00000000E+00
  0.00000000E+00  0.00000000E+00  0.00000000E+00
  0.00000000E+00  0.00000000E+00  0.00000000E+00
  0.00000000E+00  0.00000000E+00  0.00000000E+00
  0.00000000E+00  0.00000000E+00  0.00000000E+00
  0.00000000E+00  0.00000000E+00  0.00000000E+00
  0.00000000E+00  0.00000000E+00  0.00000000E+00
  0.00000000E+00  0.00000000E+00  0.00000000E+00
  0.00000000E+00  0.00000000E+00  0.00000000E+00
  0.00000000E+00  0.00000000E+00  0.00000000E+00
  0.00000000E+00  0.00000000E+00  0.00000000E+00
  0.00000000E+00  0.00000000E+00  0.00000000E+00
  0.00000000E+00  0.00000000E+00  0.00000000E+00
  0.00000000E+00  0.00000000E+00  0.00000000E+00
  0.00000000E+00  0.00000000E+00  0.00000000E+00
  0.00000000E+00  0.00000000E+00  0.00000000E+00
  0.00000000E+00  0.00000000E+00  0.00000000E+00
  0.00000000E+00  0.00000000E+00  0.00000000E+00
  0.00000000E+00  0.00000000E+00  0.00000000E+00
  0.00000000E+00  0.00000000E+00  0.00000000E+00
  0.00000000E+00  0.00000000E+00  0.00000000E+00
  0.00000000E+00  0.00000000E+00  0.00000000E+00
  0.00000000E+00  0.00000000E+00  0.00000000E+00
  0.00000000E+00  0.00000000E+00  0.00000000E+00
  0.00000000E+00  0.00000000E+00  0.00000000E+00
  0.00000000E+00  0.00000000E+00  0.00000000E+00
  0.00000000E+00  0.00000000E+00  0.00000000E+00
  0.00000000E+00  0.00000000E+00  0.00000000E+00
  0.00000000E+00  0.00000000E+00  0.00000000E+00
  0.00000000E+00  0.00000000E+00  0.00000000E+00
  0.00000000E+00  0.00000000E+00  0.00000000E+00
  0.00000000E+00  0.00000000E+00  0.00000000E+00
  0.00000000E+00  0.00000000E+00  0.00000000E+00
  0.00000000E+00  0.00000000E+00  0.00000000E+00
  0.00000000E+00  0.00000000E+00  0.00000000E+00
  0.00000000E+00  0.00000000E+00  0.00000000E+00
  0.00000000E+00  0.00000000E+00  0.00000000E+00
  0.00000000E+00  0.00000000E+00  0.00000000E+00
  0.00000000E+00  0.00000000E+00  0.00000000E+00
  0.00000000E+00  0.00000000E+00  0.00000000E+00
  0.00000000E+00  0.00000000E+00  0.00000000E+00
  0.00000000E+00  0.00000000E+00  0.00000000E+00
  0.00000000E+00  0.00000000E+00  0.00000000E+00
  0.00000000E+00  0.00000000E+00  0.00000000E+00
  0.00000000E+00  0.00000000E+00  0.00000000E+00
  0.00000000E+00  0.00000000E+00  0.00000000E+00
  0.00000000E+00  0.00000000E+00  0.00000000E+00
  0.00000000E+00  0.00000000E+00  0.00000000E+00
  0.00000000E+00  0.00000000E+00  0.00000000E+00
  0.00000000E+00  0.00000000E+00  0.00000000E+00
  0.00000000E+00  0.00000000E+00  0.00000000E+00
  0.00000000E+00  0.00000000E+00  0.00000000E+00
  0.00000000E+00  0.00000000E+00  0.00000000E+00
  0.00000000E+00  0.00000000E+00  0.00000000E+00
  0.00000000E+00  0.00000000E+00  0.00000000E+00
  0.00000000E+00  0.00000000E+00  0.00000000E+00
  0.00000000E+00  0.00000000E+00  0.00000000E+00
  0.00000000E+00  0.00000000E+00  0.00000000E+00
  0.00000000E+00  0.00000000E+00  0.00000000E+00
  0.00000000E+00  0.00000000E+00  0.00000000E+00
  0.00000000E+00  0.00000000E+00  0.00000000E+00
  0.00000000E+00  0.00000000E+00  0.00000000E+00
  0.00000000E+00  0.00000000E+00  0.00000000E+00
  0.00000000E+00  0.00000000E+00  0.00000000E+00
  0.00000000E+00  0.00000000E+00  0.00000000E+00
  0.00000000E+00  0.00000000E+00  0.00000000E+00
  0.00000000E+00  0.00000000E+00  0.00000000E+00
  0.00000000E+00  0.00000000E+00  0.00000000E+00
  0.00000000E+00  0.00000000E+00  0.00000000E+00
  0.00000000E+00  0.00000000E+00  0.00000000E+00
  0.00000000E+00  0.00000000E+00  0.00000000E+00
  0.00000000E+00  0.00000000E+00  0.00000000E+00
  0.00000000E+00  0.00000000E+00  0.00000000E+00
  0.00000000E+00  0.00000000E+00  0.00000000E+00
  0.00000000E+00  0.00000000E+00  0.00000000E+00
  0.00000000E+00  0.00000000E+00  0.00000000E+00
  0.00000000E+00  0.00000000E+00  0.00000000E+00
  0.00000000E+00  0.00000000E+00  0.00000000E+00
  0.00000000E+00  0.00000000E+00  0.00000000E+00
  0.00000000E+00  0.00000000E+00  0.00000000E+00
  0.00000000E+00  0.00000000E+00  0.00000000E+00
  0.00000000E+00  0.00000000E+00  0.00000000E+00
  0.00000000E+00  0.00000000E+00  0.00000000E+00
  0.00000000E+00  0.00000000E+00  0.00000000E+00
  0.00000000E+00  0.00000000E+00  0.00000000E+00
  0.00000000E+00  0.00000000E+00  0.00000000E+00
  0.00000000E+00  0.00000000E+00  0.00000000E+00
  0.00000000E+00  0.00000000E+00  0.00000000E+00
  0.00000000E+00  0.00000000E+00  0.00000000E+00
  0.00000000E+00  0.00000000E+00  0.00000000E+00
  0.00000000E+00  0.00000000E+00  0.00000000E+00
  0.00000000E+00  0.00000000E+00  0.00000000E+00
  0.00000000E+00  0.00000000E+00  0.00000000E+00
  0.00000000E+00  0.00000000E+00  0.00000000E+00
  0.00000000E+00  0.00000000E+00  0.00000000E+00
  0.00000000E+00  0.00000000E+00  0.00000000E+00
  0.00000000E+00  0.00000000E+00  0.00000000E+00
  0.00000000E+00  0.00000000E+00  0.00000000E+00
  0.00000000E+00  0.00000000E+00  0.00000000E+00
  0.00000000E+00  0.00000000E+00  0.00000000E+00
  0.00000000E+00  0.00000000E+00  0.00000000E+00
  0.00000000E+00  0.00000000E+00  0.00000000E+00
  0.00000000E+00  0.00000000E+00  0.00000000E+00
  0.00000000E+00  0.00000000E+00  0.00000000E+00
