<?xml version="1.0" encoding="ISO-8859-1"?>
<modeling>
 <generator>
  <i name="program" type="string">vasp </i>
  <i name="version" type="string">6.4.2  </i>
  <i name="subversion" type="string">20Jul23 (build Nov 06 2023 14:01:30) complex                          parallel </i>
  <i name="platform" type="string">LinuxIFC </i>
  <i name="date" type="string">2024 11 16 </i>
  <i name="time" type="string">05:04:27 </i>
 </generator>
 <incar>
  <i type="int" name="IALGO">    38</i>
  <i type="string" name="ALGO">Fast</i>
  <i type="logical" name="ADDGRID"> T  </i>
  <i type="int" name="ISPIN">     2</i>
  <i type="int" name="NELM">   100</i>
  <i type="int" name="NELMIN">     4</i>
  <i type="int" name="IBRION">    -1</i>
  <i name="EDIFF">      0.00000100</i>
  <i name="ENCUT">    500.00000000</i>
  <i name="NUPDOWN">      1.00000000</i>
  <i name="NELECT">   1153.00000000</i>
  <i type="logical" name="LREAL"> F  </i>
  <i type="int" name="ISMEAR">     0</i>
  <i name="SIGMA">      0.05000000</i>
  <i type="logical" name="LWAVE"> F  </i>
  <i type="logical" name="LCHARG"> F  </i>
  <i type="string" name="GGA">PE</i>
  <i type="int" name="IVDW">    11</i>
 </incar>
 <primitive_cell>
  <structure name="primitive_cell" >
   <crystal>
    <varray name="basis" >
     <v>      14.93631415       0.00000000       0.00000000 </v>
     <v>      -7.46815707      12.93522749      -0.00000000 </v>
     <v>       0.00000000       0.00000000      13.34127628 </v>
    </varray>
    <i name="volume">   2577.59623255 </i>
    <varray name="rec_basis" >
     <v>       0.06695092       0.03865413      -0.00000000 </v>
     <v>       0.00000000       0.07730827      -0.00000000 </v>
     <v>       0.00000000       0.00000000       0.07495535 </v>
    </varray>
   </crystal>
   <varray name="positions" >
    <v>       0.44444444       0.38888889       0.37500000 </v>
    <v>       0.11110578       0.05553988       0.12514209 </v>
    <v>       0.61111893       0.55556454       0.12533815 </v>
    <v>       0.44443410       0.05553988       0.12514209 </v>
    <v>       0.94445577       0.55556472       0.12511237 </v>
    <v>       0.77777778       0.05555556       0.12508750 </v>
    <v>       0.11111111       0.72222222       0.62490204 </v>
    <v>       0.44443410       0.72222755       0.62485791 </v>
    <v>       0.27776879       0.22221440       0.62466185 </v>
    <v>       0.77779345       0.72222755       0.62485791 </v>
    <v>       0.61111409       0.22221925       0.62484996 </v>
    <v>       0.94444599       0.22222938       0.62490241 </v>
    <v>       0.27776861       0.72222439       0.12511237 </v>
    <v>       0.11110516       0.22221925       0.12515004 </v>
    <v>       0.44444561       0.22221440       0.12533815 </v>
    <v>       0.61111409       0.72222817       0.12515004 </v>
    <v>       0.94445577       0.72222439       0.12511237 </v>
    <v>       0.77778339       0.22222938       0.12509759 </v>
    <v>       0.11110895       0.88887756       0.62488763 </v>
    <v>       0.44443273       0.88888303       0.62489877 </v>
    <v>       0.27776879       0.38888773       0.62466185 </v>
    <v>       0.61111893       0.38888773       0.62466185 </v>
    <v>       0.77778339       0.88888734       0.62490241 </v>
    <v>       0.94445030       0.38890061       0.62489877 </v>
    <v>       0.11110578       0.38889924       0.12514209 </v>
    <v>       0.27776861       0.88887756       0.12511237 </v>
    <v>       0.61110395       0.88888734       0.12509759 </v>
    <v>       0.44444444       0.38888889       0.12572567 </v>
    <v>       0.94445030       0.88888303       0.12510123 </v>
    <v>       0.77779345       0.38889924       0.12514209 </v>
    <v>       0.27776995       0.55556338       0.62481384 </v>
    <v>       0.11110578       0.05553988       0.62485791 </v>
    <v>       0.61111893       0.55556454       0.62466185 </v>
    <v>       0.44443410       0.05553988       0.62485791 </v>
    <v>       0.94445577       0.55556472       0.62488763 </v>
    <v>       0.11110895       0.55556472       0.12511237 </v>
    <v>       0.77777778       0.05555556       0.62491250 </v>
    <v>       0.27776995       0.05553990       0.12518616 </v>
    <v>       0.44444561       0.55556454       0.12533815 </v>
    <v>       0.77779343       0.55556338       0.12518616 </v>
    <v>       0.61110395       0.05554994       0.12509759 </v>
    <v>       0.44444561       0.55556454       0.62466185 </v>
    <v>       0.94444599       0.05554994       0.12509759 </v>
    <v>       0.27776861       0.72222439       0.62488763 </v>
    <v>       0.11110516       0.22221925       0.62484996 </v>
    <v>       0.44444561       0.22221440       0.62466185 </v>
    <v>       0.61111409       0.72222817       0.62484996 </v>
    <v>       0.94445577       0.72222439       0.62488763 </v>
    <v>       0.77778339       0.22222938       0.62490241 </v>
    <v>       0.11111111       0.72222222       0.12509796 </v>
    <v>       0.44443410       0.72222755       0.12514209 </v>
    <v>       0.27776879       0.22221440       0.12533815 </v>
    <v>       0.77779345       0.72222755       0.12514209 </v>
    <v>       0.61111409       0.22221925       0.12515004 </v>
    <v>       0.94444599       0.22222938       0.12509759 </v>
    <v>       0.11110578       0.38889924       0.62485791 </v>
    <v>       0.27776861       0.88887756       0.62488763 </v>
    <v>       0.61110395       0.88888734       0.62490241 </v>
    <v>       0.44444444       0.38888889       0.62427433 </v>
    <v>       0.94445030       0.88888303       0.62489877 </v>
    <v>       0.11110895       0.88887756       0.12511237 </v>
    <v>       0.77779345       0.38889924       0.62485791 </v>
    <v>       0.44443273       0.88888303       0.12510123 </v>
    <v>       0.27776879       0.38888773       0.12533815 </v>
    <v>       0.27776995       0.55556338       0.12518616 </v>
    <v>       0.61111893       0.38888773       0.12533815 </v>
    <v>       0.77778339       0.88888734       0.12509759 </v>
    <v>       0.94445030       0.38890061       0.12510123 </v>
    <v>       0.11110895       0.55556472       0.62488763 </v>
    <v>       0.27776995       0.05553990       0.62481384 </v>
    <v>       0.77779343       0.55556338       0.62481384 </v>
    <v>       0.61110395       0.05554994       0.62490241 </v>
    <v>       0.94444599       0.05554994       0.62490241 </v>
    <v>       0.05492459       0.11067225       0.37500000 </v>
    <v>       0.55597948       0.61195895       0.37500000 </v>
    <v>       0.38821178       0.10798614       0.37500000 </v>
    <v>       0.88997050       0.61165191       0.37500000 </v>
    <v>       0.72233166       0.11100168       0.37500000 </v>
    <v>       0.05555347       0.77777986       0.87500000 </v>
    <v>       0.38889499       0.77778040       0.87500000 </v>
    <v>       0.22222211       0.27777772       0.87500000 </v>
    <v>       0.72222208       0.77778036       0.87500000 </v>
    <v>       0.55555561       0.27777772       0.87500000 </v>
    <v>       0.88888780       0.27777560       0.87500000 </v>
    <v>       0.22203010       0.77768172       0.37500000 </v>
    <v>       0.05492459       0.27758567       0.37500000 </v>
    <v>       0.38321436       0.26642872       0.37500000 </v>
    <v>       0.55574766       0.77840874       0.37500000 </v>
    <v>       0.88973042       0.77847773       0.37500000 </v>
    <v>       0.72266108       0.27758567       0.37500000 </v>
    <v>       0.05555294       0.94444793       0.87500000 </v>
    <v>       0.38889499       0.94444793       0.87500000 </v>
    <v>       0.22222295       0.44443974       0.87500000 </v>
    <v>       0.55555250       0.44444291       0.87500000 </v>
    <v>       0.72222259       0.94444517       0.87500000 </v>
    <v>       0.88888540       0.44443834       0.87500000 </v>
    <v>       0.05485561       0.44458602       0.37500000 </v>
    <v>       0.22168142       0.94336284       0.37500000 </v>
    <v>       0.55571596       0.94452465       0.37500000 </v>
    <v>       0.38321436       0.45011897       0.37500000 </v>
    <v>       0.88880868       0.94452465       0.37500000 </v>
    <v>       0.72534720       0.44512155       0.37500000 </v>
    <v>       0.22222502       0.61110832       0.87500000 </v>
    <v>       0.05555297       0.11111126       0.87500000 </v>
    <v>       0.55555561       0.61111123       0.87500000 </v>
    <v>       0.38889360       0.11111654       0.87500000 </v>
    <v>       0.88888330       0.61110832       0.87500000 </v>
    <v>       0.05565162       0.61130323       0.37500000 </v>
    <v>       0.72222259       0.11111075       0.87500000 </v>
    <v>       0.21977436       0.10798614       0.37500000 </v>
    <v>       0.38821178       0.61355898       0.37500000 </v>
    <v>       0.72534720       0.61355898       0.37500000 </v>
    <v>       0.55574766       0.11067225       0.37500000 </v>
    <v>       0.38889360       0.61111039       0.87500000 </v>
    <v>       0.88867002       0.11100168       0.37500000 </v>
    <v>       0.22222639       0.77777986       0.87500000 </v>
    <v>       0.05555297       0.27777505       0.87500000 </v>
    <v>       0.38889042       0.27778084       0.87500000 </v>
    <v>       0.55555829       0.77778036       0.87500000 </v>
    <v>       0.88888540       0.77778040       0.87500000 </v>
    <v>       0.72222208       0.27777505       0.87500000 </v>
    <v>       0.05565162       0.77768172       0.37500000 </v>
    <v>       0.38874731       0.77847773       0.37500000 </v>
    <v>       0.22137438       0.27735386       0.37500000 </v>
    <v>       0.72266108       0.77840874       0.37500000 </v>
    <v>       0.55597948       0.27735386       0.37500000 </v>
    <v>       0.88880868       0.27761737       0.37500000 </v>
    <v>       0.05555294       0.44443834       0.87500000 </v>
    <v>       0.22222502       0.94445003       0.87500000 </v>
    <v>       0.55555773       0.94444553       0.87500000 </v>
    <v>       0.38889042       0.44444291       0.87500000 </v>
    <v>       0.88888780       0.94444553       0.87500000 </v>
    <v>       0.05485561       0.94360291       0.37500000 </v>
    <v>       0.72221679       0.44443974       0.87500000 </v>
    <v>       0.38874731       0.94360291       0.37500000 </v>
    <v>       0.21977436       0.44512155       0.37500000 </v>
    <v>       0.22168142       0.61165191       0.37500000 </v>
    <v>       0.56690462       0.45011897       0.37500000 </v>
    <v>       0.72233166       0.94466331       0.37500000 </v>
    <v>       0.88973042       0.44458602       0.37500000 </v>
    <v>       0.05555347       0.61110694       0.87500000 </v>
    <v>       0.22222295       0.11111654       0.87500000 </v>
    <v>       0.72221679       0.61111039       0.87500000 </v>
    <v>       0.55555829       0.11111126       0.87500000 </v>
    <v>       0.88888816       0.11111075       0.87500000 </v>
    <v>       0.10888702       0.05363429       0.37500000 </v>
    <v>       0.61662821       0.56151023       0.37500000 </v>
    <v>       0.44474727       0.05363429       0.37500000 </v>
    <v>       0.94505350       0.55569452       0.37500000 </v>
    <v>       0.77777778       0.05555556       0.37500000 </v>
    <v>       0.11111111       0.72222222       0.87500000 </v>
    <v>       0.44445789       0.72225917       0.87500000 </v>
    <v>       0.27773656       0.22218886       0.87500000 </v>
    <v>       0.77780129       0.72225917       0.87500000 </v>
    <v>       0.61113701       0.22219632       0.87500000 </v>
    <v>       0.94441891       0.22220602       0.87500000 </v>
    <v>       0.27763881       0.72269232       0.37500000 </v>
    <v>       0.10939752       0.22136543       0.37500000 </v>
    <v>       0.44488202       0.21670513       0.37500000 </v>
    <v>       0.61196791       0.72393582       0.37500000 </v>
    <v>       0.94505350       0.72269232       0.37500000 </v>
    <v>       0.77798832       0.22181380       0.37500000 </v>
    <v>       0.11109976       0.88887925       0.87500000 </v>
    <v>       0.44445802       0.88889568       0.87500000 </v>
    <v>       0.27773656       0.38888103       0.87500000 </v>
    <v>       0.61114447       0.38888103       0.87500000 </v>
    <v>       0.77778711       0.88891442       0.87500000 </v>
    <v>       0.94443766       0.38887531       0.87500000 </v>
    <v>       0.10888702       0.38858606       0.37500000 </v>
    <v>       0.27763881       0.88827983       0.37500000 </v>
    <v>       0.61151953       0.88950785       0.37500000 </v>
    <v>       0.94428960       0.88904373       0.37500000 </v>
    <v>       0.77969904       0.38858606       0.37500000 </v>
    <v>       0.27776270       0.55557063       0.87500000 </v>
    <v>       0.11107416       0.05553205       0.87500000 </v>
    <v>       0.61114447       0.55559678       0.87500000 </v>
    <v>       0.44445789       0.05553205       0.87500000 </v>
    <v>       0.94445408       0.55555385       0.87500000 </v>
    <v>       0.11064101       0.55569452       0.37500000 </v>
    <v>       0.77777778       0.05555556       0.87500000 </v>
    <v>       0.27665444       0.05330889       0.37500000 </v>
    <v>       0.44488202       0.56151023       0.37500000 </v>
    <v>       0.78002445       0.55667889       0.37500000 </v>
    <v>       0.61151953       0.05534502       0.37500000 </v>
    <v>       0.44445231       0.55559678       0.87500000 </v>
    <v>       0.94382548       0.05534502       0.37500000 </v>
    <v>       0.27777949       0.72223357       0.87500000 </v>
    <v>       0.11105932       0.22219632       0.87500000 </v>
    <v>       0.44445231       0.22218886       0.87500000 </v>
    <v>       0.61113701       0.72227402       0.87500000 </v>
    <v>       0.94445408       0.72223357       0.87500000 </v>
    <v>       0.77778711       0.22220602       0.87500000 </v>
    <v>       0.11111111       0.72222222       0.37500000 </v>
    <v>       0.44474727       0.72444631       0.37500000 </v>
    <v>       0.27182310       0.21670513       0.37500000 </v>
    <v>       0.77969904       0.72444631       0.37500000 </v>
    <v>       0.61196791       0.22136543       0.37500000 </v>
    <v>       0.94382548       0.22181380       0.37500000 </v>
    <v>       0.11107416       0.38887545       0.87500000 </v>
    <v>       0.27777949       0.88887925       0.87500000 </v>
    <v>       0.61112731       0.88891442       0.87500000 </v>
    <v>       0.44444444       0.38888889       0.87500000 </v>
    <v>       0.94443766       0.88889568       0.87500000 </v>
    <v>       0.11064101       0.88827983       0.37500000 </v>
    <v>       0.77780129       0.38887545       0.87500000 </v>
    <v>       0.44475413       0.88904373       0.37500000 </v>
    <v>       0.27182310       0.38845131       0.37500000 </v>
    <v>       0.27665444       0.55667889       0.37500000 </v>
    <v>       0.61662821       0.38845131       0.37500000 </v>
    <v>       0.77798832       0.88950785       0.37500000 </v>
    <v>       0.94428960       0.38857921       0.37500000 </v>
    <v>       0.11109976       0.55555385       0.87500000 </v>
    <v>       0.27776270       0.05552540       0.87500000 </v>
    <v>       0.77780793       0.55557063       0.87500000 </v>
    <v>       0.61112731       0.05554622       0.87500000 </v>
    <v>       0.94441891       0.05554622       0.87500000 </v>
    <v>       0.05546928       0.11103632       0.12487403 </v>
    <v>       0.55563492       0.61126984       0.12476730 </v>
    <v>       0.38882801       0.11159570       0.12483104 </v>
    <v>       0.88900701       0.61117017       0.12488859 </v>
    <v>       0.72223458       0.11109875       0.12491481 </v>
    <v>       0.05557215       0.77776118       0.62509033 </v>
    <v>       0.38885004       0.77781495       0.62510653 </v>
    <v>       0.22206349       0.27769841       0.62523270 </v>
    <v>       0.72229702       0.77786405       0.62512597 </v>
    <v>       0.55563492       0.27769841       0.62523270 </v>
    <v>       0.88889259       0.27778519       0.62508998 </v>
    <v>       0.22218903       0.77776118       0.12490967 </v>
    <v>       0.05546928       0.27776630       0.12487403 </v>
    <v>       0.38878395       0.27756790       0.12459556 </v>
    <v>       0.55556704       0.77786405       0.12487403 </v>
    <v>       0.88896491       0.77781495       0.12489347 </v>
    <v>       0.72229702       0.27776630       0.12487403 </v>
    <v>       0.05551838       0.94436842       0.62510653 </v>
    <v>       0.38885004       0.94436842       0.62510653 </v>
    <v>       0.22209818       0.44450532       0.62516896 </v>
    <v>       0.55576543       0.44454938       0.62540444 </v>
    <v>       0.72223458       0.94446917       0.62508519 </v>
    <v>       0.88896491       0.44448330       0.62510653 </v>
    <v>       0.05551838       0.44448330       0.12489347 </v>
    <v>       0.22216316       0.94432633       0.12488859 </v>
    <v>       0.55554814       0.94444074       0.12491002 </v>
    <v>       0.38878395       0.44454938       0.12459556 </v>
    <v>       0.88889259       0.94444074       0.12491002 </v>
    <v>       0.72240714       0.44450532       0.12483104 </v>
    <v>       0.22216316       0.61117017       0.62511141 </v>
    <v>       0.05546928       0.11103632       0.62512597 </v>
    <v>       0.55563492       0.61126984       0.62523270 </v>
    <v>       0.38882801       0.11092619       0.62516896 </v>
    <v>       0.88900701       0.61117017       0.62511141 </v>
    <v>       0.05557215       0.61114430       0.12490967 </v>
    <v>       0.72223458       0.11109875       0.62508519 </v>
    <v>       0.22209818       0.11092619       0.12483104 </v>
    <v>       0.38882801       0.61123515       0.12483104 </v>
    <v>       0.72240714       0.61123515       0.12483104 </v>
    <v>       0.55556704       0.11103632       0.12487403 </v>
    <v>       0.38882801       0.61123515       0.62516896 </v>
    <v>       0.88886417       0.11109875       0.12491481 </v>
    <v>       0.22218903       0.77776118       0.62509033 </v>
    <v>       0.05546928       0.27776630       0.62512597 </v>
    <v>       0.38878395       0.27756790       0.62540444 </v>
    <v>       0.55556704       0.77786405       0.62512597 </v>
    <v>       0.88896491       0.77781495       0.62510653 </v>
    <v>       0.72229702       0.27776630       0.62512597 </v>
    <v>       0.05557215       0.77776118       0.12490967 </v>
    <v>       0.38885004       0.77781495       0.12489347 </v>
    <v>       0.22206349       0.27769841       0.12476730 </v>
    <v>       0.72229702       0.77786405       0.12487403 </v>
    <v>       0.55563492       0.27769841       0.12476730 </v>
    <v>       0.88889259       0.27778519       0.12491002 </v>
    <v>       0.05551838       0.44448330       0.62510653 </v>
    <v>       0.22216316       0.94432633       0.62511141 </v>
    <v>       0.55554814       0.94444074       0.62508998 </v>
    <v>       0.38878395       0.44454938       0.62540444 </v>
    <v>       0.88889259       0.94444074       0.62508998 </v>
    <v>       0.05551838       0.94436842       0.12489347 </v>
    <v>       0.72240714       0.44450532       0.62516896 </v>
    <v>       0.38885004       0.94436842       0.12489347 </v>
    <v>       0.22209818       0.44450532       0.12483104 </v>
    <v>       0.22216316       0.61117017       0.12488859 </v>
    <v>       0.55576543       0.44454938       0.12459556 </v>
    <v>       0.72223458       0.94446917       0.12491481 </v>
    <v>       0.88896491       0.44448330       0.12489347 </v>
    <v>       0.05557215       0.61114430       0.62509033 </v>
    <v>       0.22209818       0.11092619       0.62516896 </v>
    <v>       0.72240714       0.61123515       0.62516896 </v>
    <v>       0.55556704       0.11103632       0.62512597 </v>
    <v>       0.88886417       0.11109875       0.62508519 </v>
   </varray>
  </structure>
  <varray name="primitive_index" >
   <v type="int" >        1 </v>
   <v type="int" >        2 </v>
   <v type="int" >        3 </v>
   <v type="int" >        4 </v>
   <v type="int" >        5 </v>
   <v type="int" >        6 </v>
   <v type="int" >        7 </v>
   <v type="int" >        8 </v>
   <v type="int" >        9 </v>
   <v type="int" >       10 </v>
   <v type="int" >       11 </v>
   <v type="int" >       12 </v>
   <v type="int" >       13 </v>
   <v type="int" >       14 </v>
   <v type="int" >       15 </v>
   <v type="int" >       16 </v>
   <v type="int" >       17 </v>
   <v type="int" >       18 </v>
   <v type="int" >       19 </v>
   <v type="int" >       20 </v>
   <v type="int" >       21 </v>
   <v type="int" >       22 </v>
   <v type="int" >       23 </v>
   <v type="int" >       24 </v>
   <v type="int" >       25 </v>
   <v type="int" >       26 </v>
   <v type="int" >       27 </v>
   <v type="int" >       28 </v>
   <v type="int" >       29 </v>
   <v type="int" >       30 </v>
   <v type="int" >       31 </v>
   <v type="int" >       32 </v>
   <v type="int" >       33 </v>
   <v type="int" >       34 </v>
   <v type="int" >       35 </v>
   <v type="int" >       36 </v>
   <v type="int" >       37 </v>
   <v type="int" >       38 </v>
   <v type="int" >       39 </v>
   <v type="int" >       40 </v>
   <v type="int" >       41 </v>
   <v type="int" >       42 </v>
   <v type="int" >       43 </v>
   <v type="int" >       44 </v>
   <v type="int" >       45 </v>
   <v type="int" >       46 </v>
   <v type="int" >       47 </v>
   <v type="int" >       48 </v>
   <v type="int" >       49 </v>
   <v type="int" >       50 </v>
   <v type="int" >       51 </v>
   <v type="int" >       52 </v>
   <v type="int" >       53 </v>
   <v type="int" >       54 </v>
   <v type="int" >       55 </v>
   <v type="int" >       56 </v>
   <v type="int" >       57 </v>
   <v type="int" >       58 </v>
   <v type="int" >       59 </v>
   <v type="int" >       60 </v>
   <v type="int" >       61 </v>
   <v type="int" >       62 </v>
   <v type="int" >       63 </v>
   <v type="int" >       64 </v>
   <v type="int" >       65 </v>
   <v type="int" >       66 </v>
   <v type="int" >       67 </v>
   <v type="int" >       68 </v>
   <v type="int" >       69 </v>
   <v type="int" >       70 </v>
   <v type="int" >       71 </v>
   <v type="int" >       72 </v>
   <v type="int" >       73 </v>
   <v type="int" >       74 </v>
   <v type="int" >       75 </v>
   <v type="int" >       76 </v>
   <v type="int" >       77 </v>
   <v type="int" >       78 </v>
   <v type="int" >       79 </v>
   <v type="int" >       80 </v>
   <v type="int" >       81 </v>
   <v type="int" >       82 </v>
   <v type="int" >       83 </v>
   <v type="int" >       84 </v>
   <v type="int" >       85 </v>
   <v type="int" >       86 </v>
   <v type="int" >       87 </v>
   <v type="int" >       88 </v>
   <v type="int" >       89 </v>
   <v type="int" >       90 </v>
   <v type="int" >       91 </v>
   <v type="int" >       92 </v>
   <v type="int" >       93 </v>
   <v type="int" >       94 </v>
   <v type="int" >       95 </v>
   <v type="int" >       96 </v>
   <v type="int" >       97 </v>
   <v type="int" >       98 </v>
   <v type="int" >       99 </v>
   <v type="int" >      100 </v>
   <v type="int" >      101 </v>
   <v type="int" >      102 </v>
   <v type="int" >      103 </v>
   <v type="int" >      104 </v>
   <v type="int" >      105 </v>
   <v type="int" >      106 </v>
   <v type="int" >      107 </v>
   <v type="int" >      108 </v>
   <v type="int" >      109 </v>
   <v type="int" >      110 </v>
   <v type="int" >      111 </v>
   <v type="int" >      112 </v>
   <v type="int" >      113 </v>
   <v type="int" >      114 </v>
   <v type="int" >      115 </v>
   <v type="int" >      116 </v>
   <v type="int" >      117 </v>
   <v type="int" >      118 </v>
   <v type="int" >      119 </v>
   <v type="int" >      120 </v>
   <v type="int" >      121 </v>
   <v type="int" >      122 </v>
   <v type="int" >      123 </v>
   <v type="int" >      124 </v>
   <v type="int" >      125 </v>
   <v type="int" >      126 </v>
   <v type="int" >      127 </v>
   <v type="int" >      128 </v>
   <v type="int" >      129 </v>
   <v type="int" >      130 </v>
   <v type="int" >      131 </v>
   <v type="int" >      132 </v>
   <v type="int" >      133 </v>
   <v type="int" >      134 </v>
   <v type="int" >      135 </v>
   <v type="int" >      136 </v>
   <v type="int" >      137 </v>
   <v type="int" >      138 </v>
   <v type="int" >      139 </v>
   <v type="int" >      140 </v>
   <v type="int" >      141 </v>
   <v type="int" >      142 </v>
   <v type="int" >      143 </v>
   <v type="int" >      144 </v>
   <v type="int" >      145 </v>
   <v type="int" >      146 </v>
   <v type="int" >      147 </v>
   <v type="int" >      148 </v>
   <v type="int" >      149 </v>
   <v type="int" >      150 </v>
   <v type="int" >      151 </v>
   <v type="int" >      152 </v>
   <v type="int" >      153 </v>
   <v type="int" >      154 </v>
   <v type="int" >      155 </v>
   <v type="int" >      156 </v>
   <v type="int" >      157 </v>
   <v type="int" >      158 </v>
   <v type="int" >      159 </v>
   <v type="int" >      160 </v>
   <v type="int" >      161 </v>
   <v type="int" >      162 </v>
   <v type="int" >      163 </v>
   <v type="int" >      164 </v>
   <v type="int" >      165 </v>
   <v type="int" >      166 </v>
   <v type="int" >      167 </v>
   <v type="int" >      168 </v>
   <v type="int" >      169 </v>
   <v type="int" >      170 </v>
   <v type="int" >      171 </v>
   <v type="int" >      172 </v>
   <v type="int" >      173 </v>
   <v type="int" >      174 </v>
   <v type="int" >      175 </v>
   <v type="int" >      176 </v>
   <v type="int" >      177 </v>
   <v type="int" >      178 </v>
   <v type="int" >      179 </v>
   <v type="int" >      180 </v>
   <v type="int" >      181 </v>
   <v type="int" >      182 </v>
   <v type="int" >      183 </v>
   <v type="int" >      184 </v>
   <v type="int" >      185 </v>
   <v type="int" >      186 </v>
   <v type="int" >      187 </v>
   <v type="int" >      188 </v>
   <v type="int" >      189 </v>
   <v type="int" >      190 </v>
   <v type="int" >      191 </v>
   <v type="int" >      192 </v>
   <v type="int" >      193 </v>
   <v type="int" >      194 </v>
   <v type="int" >      195 </v>
   <v type="int" >      196 </v>
   <v type="int" >      197 </v>
   <v type="int" >      198 </v>
   <v type="int" >      199 </v>
   <v type="int" >      200 </v>
   <v type="int" >      201 </v>
   <v type="int" >      202 </v>
   <v type="int" >      203 </v>
   <v type="int" >      204 </v>
   <v type="int" >      205 </v>
   <v type="int" >      206 </v>
   <v type="int" >      207 </v>
   <v type="int" >      208 </v>
   <v type="int" >      209 </v>
   <v type="int" >      210 </v>
   <v type="int" >      211 </v>
   <v type="int" >      212 </v>
   <v type="int" >      213 </v>
   <v type="int" >      214 </v>
   <v type="int" >      215 </v>
   <v type="int" >      216 </v>
   <v type="int" >      217 </v>
   <v type="int" >      218 </v>
   <v type="int" >      219 </v>
   <v type="int" >      220 </v>
   <v type="int" >      221 </v>
   <v type="int" >      222 </v>
   <v type="int" >      223 </v>
   <v type="int" >      224 </v>
   <v type="int" >      225 </v>
   <v type="int" >      226 </v>
   <v type="int" >      227 </v>
   <v type="int" >      228 </v>
   <v type="int" >      229 </v>
   <v type="int" >      230 </v>
   <v type="int" >      231 </v>
   <v type="int" >      232 </v>
   <v type="int" >      233 </v>
   <v type="int" >      234 </v>
   <v type="int" >      235 </v>
   <v type="int" >      236 </v>
   <v type="int" >      237 </v>
   <v type="int" >      238 </v>
   <v type="int" >      239 </v>
   <v type="int" >      240 </v>
   <v type="int" >      241 </v>
   <v type="int" >      242 </v>
   <v type="int" >      243 </v>
   <v type="int" >      244 </v>
   <v type="int" >      245 </v>
   <v type="int" >      246 </v>
   <v type="int" >      247 </v>
   <v type="int" >      248 </v>
   <v type="int" >      249 </v>
   <v type="int" >      250 </v>
   <v type="int" >      251 </v>
   <v type="int" >      252 </v>
   <v type="int" >      253 </v>
   <v type="int" >      254 </v>
   <v type="int" >      255 </v>
   <v type="int" >      256 </v>
   <v type="int" >      257 </v>
   <v type="int" >      258 </v>
   <v type="int" >      259 </v>
   <v type="int" >      260 </v>
   <v type="int" >      261 </v>
   <v type="int" >      262 </v>
   <v type="int" >      263 </v>
   <v type="int" >      264 </v>
   <v type="int" >      265 </v>
   <v type="int" >      266 </v>
   <v type="int" >      267 </v>
   <v type="int" >      268 </v>
   <v type="int" >      269 </v>
   <v type="int" >      270 </v>
   <v type="int" >      271 </v>
   <v type="int" >      272 </v>
   <v type="int" >      273 </v>
   <v type="int" >      274 </v>
   <v type="int" >      275 </v>
   <v type="int" >      276 </v>
   <v type="int" >      277 </v>
   <v type="int" >      278 </v>
   <v type="int" >      279 </v>
   <v type="int" >      280 </v>
   <v type="int" >      281 </v>
   <v type="int" >      282 </v>
   <v type="int" >      283 </v>
   <v type="int" >      284 </v>
   <v type="int" >      285 </v>
   <v type="int" >      286 </v>
   <v type="int" >      287 </v>
   <v type="int" >      288 </v>
  </varray>
 </primitive_cell>
 <kpoints>
  <generation param="Gamma">
   <v type="int" name="divisions">       2        2        2 </v>
   <v name="usershift">      0.00000000       0.00000000       0.00000000 </v>
   <v name="genvec1">      0.50000000       0.00000000       0.00000000 </v>
   <v name="genvec2">      0.00000000       0.50000000      -0.00000000 </v>
   <v name="genvec3">      0.00000000      -0.00000000       0.50000000 </v>
   <v name="shift">      0.00000000       0.00000000       0.00000000 </v>
  </generation>
  <varray name="kpointlist" >
   <v>       0.00000000       0.00000000       0.00000000 </v>
   <v>       0.50000000       0.00000000       0.00000000 </v>
   <v>       0.00000000       0.50000000       0.00000000 </v>
   <v>       0.50000000       0.50000000       0.00000000 </v>
   <v>       0.00000000      -0.00000000       0.50000000 </v>
   <v>       0.50000000      -0.00000000       0.50000000 </v>
   <v>       0.00000000       0.50000000       0.50000000 </v>
   <v>       0.50000000       0.50000000       0.50000000 </v>
  </varray>
  <varray name="weights" >
   <v>       0.12500000 </v>
   <v>       0.12500000 </v>
   <v>       0.12500000 </v>
   <v>       0.12500000 </v>
   <v>       0.12500000 </v>
   <v>       0.12500000 </v>
   <v>       0.12500000 </v>
   <v>       0.12500000 </v>
  </varray>
 </kpoints>
 <parameters>
  <separator name="general" >
   <i type="string" name="SYSTEM">unknown system</i>
   <i type="logical" name="LCOMPAT"> F  </i>
  </separator>
  <separator name="electronic" >
   <i type="string" name="PREC">normal</i>
   <i name="ENMAX">    500.00000000</i>
   <i name="ENAUG">    627.11200000</i>
   <i name="EDIFF">      0.00000100</i>
   <i type="int" name="IALGO">    68</i>
   <i type="int" name="IWAVPR">    10</i>
   <i type="int" name="NBANDS">   728</i>
   <i type="int" name="NBANDSLOW">    -1</i>
   <i type="int" name="NBANDSHIGH">    -1</i>
   <i name="NELECT">   1153.00000000</i>
   <i type="int" name="TURBO">     0</i>
   <i type="int" name="IRESTART">     0</i>
   <i type="int" name="NREBOOT">     0</i>
   <i type="int" name="NMIN">     0</i>
   <i name="EREF">      0.00000000</i>
   <separator name="electronic smearing" >
    <i type="int" name="ISMEAR">     0</i>
    <i name="SIGMA">      0.05000000</i>
    <i name="KSPACING">      0.50000000</i>
    <i type="logical" name="KGAMMA"> T  </i>
    <i type="logical" name="KBLOWUP"> T  </i>
   </separator>
   <separator name="electronic projectors" >
    <i type="logical" name="LREAL"> F  </i>
    <v name="ROPT">      0.00000000      0.00000000      0.00000000</v>
    <i type="int" name="LMAXPAW">  -100</i>
    <i type="int" name="LMAXMIX">     2</i>
    <i type="logical" name="NLSPLINE"> F  </i>
   </separator>
   <separator name="electronic startup" >
    <i type="int" name="ISTART">     0</i>
    <i type="int" name="ICHARG">     2</i>
    <i type="int" name="INIWAV">     1</i>
   </separator>
   <separator name="electronic spin" >
    <i type="int" name="ISPIN">     2</i>
    <i type="logical" name="LNONCOLLINEAR"> F  </i>
    <v name="MAGMOM">      0.00347222      0.00347222      0.00347222      0.00347222      0.00347222      0.00347222      0.00347222      0.00347222      0.00347222      0.00347222      0.00347222      0.00347222      0.00347222      0.00347222      0.00347222      0.00347222      0.00347222      0.00347222      0.00347222      0.00347222
      0.00347222      0.00347222      0.00347222      0.00347222      0.00347222      0.00347222      0.00347222      0.00347222      0.00347222      0.00347222      0.00347222      0.00347222      0.00347222      0.00347222      0.00347222      0.00347222      0.00347222      0.00347222      0.00347222      0.00347222
      0.00347222      0.00347222      0.00347222      0.00347222      0.00347222      0.00347222      0.00347222      0.00347222      0.00347222      0.00347222      0.00347222      0.00347222      0.00347222      0.00347222      0.00347222      0.00347222      0.00347222      0.00347222      0.00347222      0.00347222
      0.00347222      0.00347222      0.00347222      0.00347222      0.00347222      0.00347222      0.00347222      0.00347222      0.00347222      0.00347222      0.00347222      0.00347222      0.00347222      0.00347222      0.00347222      0.00347222      0.00347222      0.00347222      0.00347222      0.00347222
      0.00347222      0.00347222      0.00347222      0.00347222      0.00347222      0.00347222      0.00347222      0.00347222      0.00347222      0.00347222      0.00347222      0.00347222      0.00347222      0.00347222      0.00347222      0.00347222      0.00347222      0.00347222      0.00347222      0.00347222
      0.00347222      0.00347222      0.00347222      0.00347222      0.00347222      0.00347222      0.00347222      0.00347222      0.00347222      0.00347222      0.00347222      0.00347222      0.00347222      0.00347222      0.00347222      0.00347222      0.00347222      0.00347222      0.00347222      0.00347222
      0.00347222      0.00347222      0.00347222      0.00347222      0.00347222      0.00347222      0.00347222      0.00347222      0.00347222      0.00347222      0.00347222      0.00347222      0.00347222      0.00347222      0.00347222      0.00347222      0.00347222      0.00347222      0.00347222      0.00347222
      0.00347222      0.00347222      0.00347222      0.00347222      0.00347222      0.00347222      0.00347222      0.00347222      0.00347222      0.00347222      0.00347222      0.00347222      0.00347222      0.00347222      0.00347222      0.00347222      0.00347222      0.00347222      0.00347222      0.00347222
      0.00347222      0.00347222      0.00347222      0.00347222      0.00347222      0.00347222      0.00347222      0.00347222      0.00347222      0.00347222      0.00347222      0.00347222      0.00347222      0.00347222      0.00347222      0.00347222      0.00347222      0.00347222      0.00347222      0.00347222
      0.00347222      0.00347222      0.00347222      0.00347222      0.00347222      0.00347222      0.00347222      0.00347222      0.00347222      0.00347222      0.00347222      0.00347222      0.00347222      0.00347222      0.00347222      0.00347222      0.00347222      0.00347222      0.00347222      0.00347222
      0.00347222      0.00347222      0.00347222      0.00347222      0.00347222      0.00347222      0.00347222      0.00347222      0.00347222      0.00347222      0.00347222      0.00347222      0.00347222      0.00347222      0.00347222      0.00347222      0.00347222      0.00347222      0.00347222      0.00347222
      0.00347222      0.00347222      0.00347222      0.00347222      0.00347222      0.00347222      0.00347222      0.00347222      0.00347222      0.00347222      0.00347222      0.00347222      0.00347222      0.00347222      0.00347222      0.00347222      0.00347222      0.00347222      0.00347222      0.00347222
      0.00347222      0.00347222      0.00347222      0.00347222      0.00347222      0.00347222      0.00347222      0.00347222      0.00347222      0.00347222      0.00347222      0.00347222      0.00347222      0.00347222      0.00347222      0.00347222      0.00347222      0.00347222      0.00347222      0.00347222
      0.00347222      0.00347222      0.00347222      0.00347222      0.00347222      0.00347222      0.00347222      0.00347222      0.00347222      0.00347222      0.00347222      0.00347222      0.00347222      0.00347222      0.00347222      0.00347222      0.00347222      0.00347222      0.00347222      0.00347222
      0.00347222      0.00347222      0.00347222      0.00347222      0.00347222      0.00347222      0.00347222      0.00347222</v>
    <i name="NUPDOWN">      1.00000000</i>
    <i type="logical" name="LSORBIT"> F  </i>
    <v name="SAXIS">      0.00000000      0.00000000      1.00000000</v>
    <i type="logical" name="LSPIRAL"> F  </i>
    <v name="QSPIRAL">      0.00000000      0.00000000      0.00000000</v>
    <i type="logical" name="LZEROZ"> F  </i>
   </separator>
   <separator name="electronic exchange-correlation" >
    <i type="logical" name="LASPH"> F  </i>
    <i type="logical" name="LMETAGGA"> F  </i>
   </separator>
   <separator name="electronic convergence" >
    <i type="int" name="NELM">   100</i>
    <i type="int" name="NELMDL">    -5</i>
    <i type="int" name="NELMIN">     4</i>
    <i name="ENINI">    500.00000000</i>
    <separator name="electronic convergence detail" >
     <i type="logical" name="LDIAG"> T  </i>
     <i type="logical" name="LSUBROT"> F  </i>
     <i name="WEIMIN">      0.00000000</i>
     <i name="EBREAK">      0.00000000</i>
     <i name="DEPER">      0.30000000</i>
     <i type="int" name="NRMM">     4</i>
     <i name="TIME">      0.40000000</i>
    </separator>
   </separator>
   <separator name="electronic mixer" >
    <i name="AMIX">      0.40000000</i>
    <i name="BMIX">      1.00000000</i>
    <i name="AMIN">      0.10000000</i>
    <i name="AMIX_MAG">      1.60000000</i>
    <i name="BMIX_MAG">      1.00000000</i>
    <separator name="electronic mixer details" >
     <i type="int" name="IMIX">     4</i>
     <i type="logical" name="MIXFIRST"> F  </i>
     <i type="int" name="MAXMIX">   -45</i>
     <i name="WC">    100.00000000</i>
     <i type="int" name="INIMIX">     1</i>
     <i type="int" name="MIXPRE">     1</i>
     <i type="int" name="MREMOVE">     5</i>
    </separator>
   </separator>
   <separator name="electronic dipolcorrection" >
    <i type="logical" name="LDIPOL"> F  </i>
    <i type="logical" name="LMONO"> F  </i>
    <i type="int" name="IDIPOL">     0</i>
    <i name="EPSILON">      1.00000000</i>
    <v name="DIPOL">   -100.00000000   -100.00000000   -100.00000000</v>
    <i name="EFIELD">      0.00000000</i>
   </separator>
  </separator>
  <separator name="grids" >
   <i type="int" name="NGX">    84</i>
   <i type="int" name="NGY">    84</i>
   <i type="int" name="NGZ">    80</i>
   <i type="int" name="NGXF">   168</i>
   <i type="int" name="NGYF">   168</i>
   <i type="int" name="NGZF">   160</i>
   <i type="logical" name="ADDGRID"> T  </i>
  </separator>
  <separator name="ionic" >
   <i type="int" name="NSW">     0</i>
   <i type="int" name="IBRION">    -1</i>
   <i type="int" name="MDALGO">     0</i>
   <i type="int" name="ISIF">     2</i>
   <i name="PSTRESS">      0.00000000</i>
   <i name="EDIFFG">      0.00001000</i>
   <i type="int" name="NFREE">     0</i>
   <i name="POTIM">      0.50000000</i>
   <i name="SMASS">     -3.00000000</i>
   <i name="SCALEE">      1.00000000</i>
  </separator>
  <separator name="ionic md" >
   <i name="TEBEG">      0.00010000</i>
   <i name="TEEND">      0.00010000</i>
   <i type="int" name="NBLOCK">     1</i>
   <i type="int" name="KBLOCK">     1</i>
   <i type="int" name="NPACO">   256</i>
   <i name="APACO">     10.00000000</i>
  </separator>
  <separator name="symmetry" >
   <i type="int" name="ISYM">     2</i>
   <i name="SYMPREC">      0.00001000</i>
  </separator>
  <separator name="dos" >
   <i type="int" name="LORBIT">     0</i>
   <v name="RWIGS">     -1.00000000     -1.00000000     -1.00000000</v>
   <i type="int" name="NEDOS">   301</i>
   <i name="EMIN">     10.00000000</i>
   <i name="EMAX">    -10.00000000</i>
   <i name="EFERMI">      0.00000000</i>
  </separator>
  <separator name="writing" >
   <i type="int" name="NWRITE">     2</i>
   <i type="logical" name="LWAVE"> F  </i>
   <i type="logical" name="LDOWNSAMPLE"> F  </i>
   <i type="logical" name="LCHARG"> F  </i>
   <i type="logical" name="LPARD"> F  </i>
   <i type="logical" name="LVTOT"> F  </i>
   <i type="logical" name="LVHAR"> F  </i>
   <i type="logical" name="LELF"> F  </i>
   <i type="logical" name="LOPTICS"> F  </i>
   <v name="STM">      0.00000000      0.00000000      0.00000000      0.00000000      0.00000000      0.00000000      0.00000000</v>
  </separator>
  <separator name="performance" >
   <i type="int" name="NPAR">     8</i>
   <i type="int" name="NSIM">     4</i>
   <i type="int" name="NBLK">    -1</i>
   <i type="logical" name="LPLANE"> T  </i>
   <i type="logical" name="LSCALAPACK"> T  </i>
   <i type="logical" name="LSCAAWARE"> T  </i>
   <i type="logical" name="LSCALU"> F  </i>
   <i type="logical" name="LASYNC"> F  </i>
   <i type="logical" name="LORBITALREAL"> F  </i>
  </separator>
  <separator name="miscellaneous" >
   <i type="int" name="IDIOT">     3</i>
   <i type="int" name="PHON_NSTRUCT">    -1</i>
   <i type="logical" name="LMUSIC"> F  </i>
   <v name="POMASS">     30.97400000     14.00100000     10.81100000</v>
   <v name="DARWINR">      0.00000000      0.00000000      0.00000000</v>
   <v name="DARWINV">      1.00000000      1.00000000      1.00000000</v>
   <i type="logical" name="LCORR"> T  </i>
  </separator>
  <i type="logical" name="GGA_COMPAT"> T  </i>
  <i type="logical" name="LBERRY"> F  </i>
  <i type="int" name="ICORELEVEL">     0</i>
  <i type="logical" name="LDAU"> F  </i>
  <i type="int" name="I_CONSTRAINED_M">     0</i>
  <separator name="electronic exchange-correlation" >
   <i type="string" name="GGA">PE</i>
   <i type="int" name="VOSKOWN">     0</i>
   <i type="logical" name="LHFCALC"> F  </i>
   <i type="string" name="PRECFOCK"></i>
   <i type="logical" name="LSYMGRAD"> F  </i>
   <i type="logical" name="LHFONE"> F  </i>
   <i type="logical" name="LRHFCALC"> F  </i>
   <i type="logical" name="LTHOMAS"> F  </i>
   <i type="logical" name="LMODELHF"> F  </i>
   <i type="logical" name="LFOCKACE"> F  </i>
   <i name="ENCUT4O">     -1.00000000</i>
   <i type="int" name="EXXOEP">     0</i>
   <i type="int" name="FOURORBIT">     0</i>
   <i name="AEXX">      0.00000000</i>
   <i name="HFALPHA">      0.00000000</i>
   <i name="MCALPHA">      0.00000000</i>
   <i name="ALDAX">      1.00000000</i>
   <i name="AGGAX">      1.00000000</i>
   <i name="ALDAC">      1.00000000</i>
   <i name="AGGAC">      1.00000000</i>
   <i type="int" name="NKREDX">     1</i>
   <i type="int" name="NKREDY">     1</i>
   <i type="int" name="NKREDZ">     1</i>
   <i type="logical" name="SHIFTRED"> F  </i>
   <i type="logical" name="ODDONLY"> F  </i>
   <i type="logical" name="EVENONLY"> F  </i>
   <i type="int" name="LMAXFOCK">     0</i>
   <i type="int" name="NMAXFOCKAE">     0</i>
   <i type="logical" name="LFOCKAEDFT"> F  </i>
   <i name="HFSCREEN">      0.00000000</i>
   <i name="HFSCREENC">      0.00000000</i>
   <i type="int" name="NBANDSGWLOW">     0</i>
  </separator>
  <separator name="vdW DFT" >
   <i type="logical" name="LUSE_VDW"> F  </i>
   <i type="int" name="IVDW_NL">     1</i>
   <i type="logical" name="LSPIN_VDW"> F  </i>
   <i name="Zab_VDW">     -0.84910000</i>
   <i name="PARAM1">      0.12340000</i>
   <i name="PARAM2">      1.00000000</i>
   <i name="PARAM3">      0.00000000</i>
  </separator>
  <separator name="model GW" >
   <i type="int" name="MODEL_GW">     0</i>
   <i name="MODEL_EPS0">      5.36999215</i>
   <i name="MODEL_ALPHA">      1.00000000</i>
  </separator>
  <separator name="linear response parameters" >
   <i type="logical" name="LEPSILON"> F  </i>
   <i type="logical" name="LRPA"> F  </i>
   <i type="logical" name="LNABLA"> F  </i>
   <i type="logical" name="LVEL"> F  </i>
   <i name="CSHIFT">      0.10000000</i>
   <i name="OMEGAMAX">     -1.00000000</i>
   <i name="DEG_THRESHOLD">      0.00200000</i>
   <i name="RTIME">     -0.10000000</i>
   <i name="WPLASMAI">      0.00000000</i>
   <v name="DFIELD">      0.00000000      0.00000000      0.00000000</v>
   <v name="WPLASMA">      0.00000000      0.00000000      0.00000000      0.00000000      0.00000000      0.00000000      0.00000000      0.00000000      0.00000000</v>
  </separator>
  <separator name="orbital magnetization" >
   <i type="logical" name="NUCIND"> F  </i>
   <v name="MAGPOS">      0.00000000      0.00000000      0.00000000</v>
   <i type="logical" name="LNICSALL"> T  </i>
   <i type="logical" name="ORBITALMAG"> F  </i>
   <i type="logical" name="LMAGBLOCH"> F  </i>
   <i type="logical" name="LCHIMAG"> F  </i>
   <i type="logical" name="LGAUGE"> T  </i>
   <i type="int" name="MAGATOM">     0</i>
   <v name="MAGDIPOL">      0.00000000      0.00000000      0.00000000</v>
   <v name="AVECCONST">      0.00000000      0.00000000      0.00000000</v>
  </separator>
  <separator name="response functions" >
   <i type="logical" name="LALL_IN_ONE"> F  </i>
   <i type="int" name="IALL_IN_ONE">    -1</i>
   <i type="int" name="NBANDS_WAVE">    -1</i>
   <i type="logical" name="LFINITE_TEMPERATURE"> F  </i>
   <i type="logical" name="LADDER"> F  </i>
   <i type="logical" name="LRPAFORCE"> F  </i>
   <i type="logical" name="LFXC"> F  </i>
   <i type="logical" name="LHARTREE"> T  </i>
   <i type="int" name="IBSE">     0</i>
   <v type="int" name="KPOINT">    -1     0     0     0</v>
   <i type="logical" name="LTCTC"> F  </i>
   <i type="logical" name="LTCTE"> F  </i>
   <i type="logical" name="LTETE"> F  </i>
   <i type="logical" name="LTRIPLET"> F  </i>
   <i type="logical" name="LFXCEPS"> F  </i>
   <i type="logical" name="LFXHEG"> F  </i>
   <i type="int" name="NATURALO">     2</i>
   <i type="logical" name="LHOLEGF"> F  </i>
   <i type="logical" name="L2ORDER"> F  </i>
   <i type="logical" name="LDMP1"> F  </i>
   <i type="logical" name="LMP2LT"> F  </i>
   <i type="logical" name="LSMP2LT"> F  </i>
   <i type="logical" name="LGWLF"> F  </i>
   <i name="ENCUTGW">     -1.60000002</i>
   <i name="ENCUTGWSOFT">     -1.60000002</i>
   <i name="ENCUTLF">     -1.00000000</i>
   <i type="logical" name="LESF_SPLINES"> F  </i>
   <i type="int" name="LMAXMP2">    -1</i>
   <i name="SCISSOR">      0.00000000</i>
   <i type="int" name="NOMEGA">     0</i>
   <i type="int" name="NOMEGAR">     0</i>
   <i type="int" name="NBANDSGW">    -1</i>
   <i type="int" name="NBANDSO">    -1</i>
   <i type="int" name="NBANDSV">    -1</i>
   <i type="int" name="NELMGW">     1</i>
   <i type="int" name="NELMHF">     1</i>
   <i type="int" name="DIM">     3</i>
   <i type="int" name="IESPILON">     4</i>
   <i type="int" name="ANTIRES">     0</i>
   <i name="OMEGAMAX">    -30.00000000</i>
   <i name="OMEGAMIN">    -30.00000000</i>
   <i name="OMEGATL">   -200.00000000</i>
   <i type="int" name="OMEGAGRID">     0</i>
   <i name="CSHIFT">     -0.10000000</i>
   <i type="logical" name="LSELFENERGY"> F  </i>
   <i type="logical" name="LSPECTRAL"> F  </i>
   <i type="logical" name="LSPECTRALGW"> F  </i>
   <i type="logical" name="LSINGLES"> F  </i>
   <i type="logical" name="LFERMIGW"> F  </i>
   <i type="logical" name="ODDONLYGW"> F  </i>
   <i type="logical" name="EVENONLYGW"> F  </i>
   <i type="int" name="NKREDLFX">     1</i>
   <i type="int" name="NKREDLFY">     1</i>
   <i type="int" name="NKREDLFZ">     1</i>
   <i type="int" name="MAXMEM">  2800</i>
   <i type="int" name="TELESCOPE">     0</i>
   <i type="int" name="NTAUPAR">    -1</i>
   <i type="int" name="NOMEGAPAR">    -1</i>
   <i name="DAMP_NEWTON">      0.80000001</i>
   <i name="LAMBDA">      1.00000000</i>
  </separator>
  <separator name="External order field" >
   <i name="OFIELD_KAPPA">      0.00000000</i>
   <v name="OFIELD_K">      0.00000000      0.00000000      0.00000000</v>
   <i name="OFIELD_Q6_NEAR">      0.00000000</i>
   <i name="OFIELD_Q6_FAR">      0.00000000</i>
   <i name="OFIELD_A">      0.00000000</i>
  </separator>
  <separator name="optional k-points parameters" >
   <i type="int" name="KPOINTS_OPT_MODE">     1</i>
   <i type="logical" name="LKPOINTS_OPT"> F  </i>
  </separator>
  <separator name="solvation model" >
   <i type="logical" name="LSOL"> F  </i>
  </separator>
 </parameters>
 <atominfo>
  <atoms>     288 </atoms>
  <types>       3 </types>
  <array name="atoms" >
   <dimension dim="1">ion</dimension>
   <field type="string">element</field>
   <field type="int">atomtype</field>
   <set>
    <rc><c>P </c><c>   1</c></rc>
    <rc><c>N </c><c>   2</c></rc>
    <rc><c>N </c><c>   2</c></rc>
    <rc><c>N </c><c>   2</c></rc>
    <rc><c>N </c><c>   2</c></rc>
    <rc><c>N </c><c>   2</c></rc>
    <rc><c>N </c><c>   2</c></rc>
    <rc><c>N </c><c>   2</c></rc>
    <rc><c>N </c><c>   2</c></rc>
    <rc><c>N </c><c>   2</c></rc>
    <rc><c>N </c><c>   2</c></rc>
    <rc><c>N </c><c>   2</c></rc>
    <rc><c>N </c><c>   2</c></rc>
    <rc><c>N </c><c>   2</c></rc>
    <rc><c>N </c><c>   2</c></rc>
    <rc><c>N </c><c>   2</c></rc>
    <rc><c>N </c><c>   2</c></rc>
    <rc><c>N </c><c>   2</c></rc>
    <rc><c>N </c><c>   2</c></rc>
    <rc><c>N </c><c>   2</c></rc>
    <rc><c>N </c><c>   2</c></rc>
    <rc><c>N </c><c>   2</c></rc>
    <rc><c>N </c><c>   2</c></rc>
    <rc><c>N </c><c>   2</c></rc>
    <rc><c>N </c><c>   2</c></rc>
    <rc><c>N </c><c>   2</c></rc>
    <rc><c>N </c><c>   2</c></rc>
    <rc><c>N </c><c>   2</c></rc>
    <rc><c>N </c><c>   2</c></rc>
    <rc><c>N </c><c>   2</c></rc>
    <rc><c>N </c><c>   2</c></rc>
    <rc><c>N </c><c>   2</c></rc>
    <rc><c>N </c><c>   2</c></rc>
    <rc><c>N </c><c>   2</c></rc>
    <rc><c>N </c><c>   2</c></rc>
    <rc><c>N </c><c>   2</c></rc>
    <rc><c>N </c><c>   2</c></rc>
    <rc><c>N </c><c>   2</c></rc>
    <rc><c>N </c><c>   2</c></rc>
    <rc><c>N </c><c>   2</c></rc>
    <rc><c>N </c><c>   2</c></rc>
    <rc><c>N </c><c>   2</c></rc>
    <rc><c>N </c><c>   2</c></rc>
    <rc><c>N </c><c>   2</c></rc>
    <rc><c>N </c><c>   2</c></rc>
    <rc><c>N </c><c>   2</c></rc>
    <rc><c>N </c><c>   2</c></rc>
    <rc><c>N </c><c>   2</c></rc>
    <rc><c>N </c><c>   2</c></rc>
    <rc><c>N </c><c>   2</c></rc>
    <rc><c>N </c><c>   2</c></rc>
    <rc><c>N </c><c>   2</c></rc>
    <rc><c>N </c><c>   2</c></rc>
    <rc><c>N </c><c>   2</c></rc>
    <rc><c>N </c><c>   2</c></rc>
    <rc><c>N </c><c>   2</c></rc>
    <rc><c>N </c><c>   2</c></rc>
    <rc><c>N </c><c>   2</c></rc>
    <rc><c>N </c><c>   2</c></rc>
    <rc><c>N </c><c>   2</c></rc>
    <rc><c>N </c><c>   2</c></rc>
    <rc><c>N </c><c>   2</c></rc>
    <rc><c>N </c><c>   2</c></rc>
    <rc><c>N </c><c>   2</c></rc>
    <rc><c>N </c><c>   2</c></rc>
    <rc><c>N </c><c>   2</c></rc>
    <rc><c>N </c><c>   2</c></rc>
    <rc><c>N </c><c>   2</c></rc>
    <rc><c>N </c><c>   2</c></rc>
    <rc><c>N </c><c>   2</c></rc>
    <rc><c>N </c><c>   2</c></rc>
    <rc><c>N </c><c>   2</c></rc>
    <rc><c>N </c><c>   2</c></rc>
    <rc><c>N </c><c>   2</c></rc>
    <rc><c>N </c><c>   2</c></rc>
    <rc><c>N </c><c>   2</c></rc>
    <rc><c>N </c><c>   2</c></rc>
    <rc><c>N </c><c>   2</c></rc>
    <rc><c>N </c><c>   2</c></rc>
    <rc><c>N </c><c>   2</c></rc>
    <rc><c>N </c><c>   2</c></rc>
    <rc><c>N </c><c>   2</c></rc>
    <rc><c>N </c><c>   2</c></rc>
    <rc><c>N </c><c>   2</c></rc>
    <rc><c>N </c><c>   2</c></rc>
    <rc><c>N </c><c>   2</c></rc>
    <rc><c>N </c><c>   2</c></rc>
    <rc><c>N </c><c>   2</c></rc>
    <rc><c>N </c><c>   2</c></rc>
    <rc><c>N </c><c>   2</c></rc>
    <rc><c>N </c><c>   2</c></rc>
    <rc><c>N </c><c>   2</c></rc>
    <rc><c>N </c><c>   2</c></rc>
    <rc><c>N </c><c>   2</c></rc>
    <rc><c>N </c><c>   2</c></rc>
    <rc><c>N </c><c>   2</c></rc>
    <rc><c>N </c><c>   2</c></rc>
    <rc><c>N </c><c>   2</c></rc>
    <rc><c>N </c><c>   2</c></rc>
    <rc><c>N </c><c>   2</c></rc>
    <rc><c>N </c><c>   2</c></rc>
    <rc><c>N </c><c>   2</c></rc>
    <rc><c>N </c><c>   2</c></rc>
    <rc><c>N </c><c>   2</c></rc>
    <rc><c>N </c><c>   2</c></rc>
    <rc><c>N </c><c>   2</c></rc>
    <rc><c>N </c><c>   2</c></rc>
    <rc><c>N </c><c>   2</c></rc>
    <rc><c>N </c><c>   2</c></rc>
    <rc><c>N </c><c>   2</c></rc>
    <rc><c>N </c><c>   2</c></rc>
    <rc><c>N </c><c>   2</c></rc>
    <rc><c>N </c><c>   2</c></rc>
    <rc><c>N </c><c>   2</c></rc>
    <rc><c>N </c><c>   2</c></rc>
    <rc><c>N </c><c>   2</c></rc>
    <rc><c>N </c><c>   2</c></rc>
    <rc><c>N </c><c>   2</c></rc>
    <rc><c>N </c><c>   2</c></rc>
    <rc><c>N </c><c>   2</c></rc>
    <rc><c>N </c><c>   2</c></rc>
    <rc><c>N </c><c>   2</c></rc>
    <rc><c>N </c><c>   2</c></rc>
    <rc><c>N </c><c>   2</c></rc>
    <rc><c>N </c><c>   2</c></rc>
    <rc><c>N </c><c>   2</c></rc>
    <rc><c>N </c><c>   2</c></rc>
    <rc><c>N </c><c>   2</c></rc>
    <rc><c>N </c><c>   2</c></rc>
    <rc><c>N </c><c>   2</c></rc>
    <rc><c>N </c><c>   2</c></rc>
    <rc><c>N </c><c>   2</c></rc>
    <rc><c>N </c><c>   2</c></rc>
    <rc><c>N </c><c>   2</c></rc>
    <rc><c>N </c><c>   2</c></rc>
    <rc><c>N </c><c>   2</c></rc>
    <rc><c>N </c><c>   2</c></rc>
    <rc><c>N </c><c>   2</c></rc>
    <rc><c>N </c><c>   2</c></rc>
    <rc><c>N </c><c>   2</c></rc>
    <rc><c>N </c><c>   2</c></rc>
    <rc><c>N </c><c>   2</c></rc>
    <rc><c>N </c><c>   2</c></rc>
    <rc><c>N </c><c>   2</c></rc>
    <rc><c>N </c><c>   2</c></rc>
    <rc><c>B </c><c>   3</c></rc>
    <rc><c>B </c><c>   3</c></rc>
    <rc><c>B </c><c>   3</c></rc>
    <rc><c>B </c><c>   3</c></rc>
    <rc><c>B </c><c>   3</c></rc>
    <rc><c>B </c><c>   3</c></rc>
    <rc><c>B </c><c>   3</c></rc>
    <rc><c>B </c><c>   3</c></rc>
    <rc><c>B </c><c>   3</c></rc>
    <rc><c>B </c><c>   3</c></rc>
    <rc><c>B </c><c>   3</c></rc>
    <rc><c>B </c><c>   3</c></rc>
    <rc><c>B </c><c>   3</c></rc>
    <rc><c>B </c><c>   3</c></rc>
    <rc><c>B </c><c>   3</c></rc>
    <rc><c>B </c><c>   3</c></rc>
    <rc><c>B </c><c>   3</c></rc>
    <rc><c>B </c><c>   3</c></rc>
    <rc><c>B </c><c>   3</c></rc>
    <rc><c>B </c><c>   3</c></rc>
    <rc><c>B </c><c>   3</c></rc>
    <rc><c>B </c><c>   3</c></rc>
    <rc><c>B </c><c>   3</c></rc>
    <rc><c>B </c><c>   3</c></rc>
    <rc><c>B </c><c>   3</c></rc>
    <rc><c>B </c><c>   3</c></rc>
    <rc><c>B </c><c>   3</c></rc>
    <rc><c>B </c><c>   3</c></rc>
    <rc><c>B </c><c>   3</c></rc>
    <rc><c>B </c><c>   3</c></rc>
    <rc><c>B </c><c>   3</c></rc>
    <rc><c>B </c><c>   3</c></rc>
    <rc><c>B </c><c>   3</c></rc>
    <rc><c>B </c><c>   3</c></rc>
    <rc><c>B </c><c>   3</c></rc>
    <rc><c>B </c><c>   3</c></rc>
    <rc><c>B </c><c>   3</c></rc>
    <rc><c>B </c><c>   3</c></rc>
    <rc><c>B </c><c>   3</c></rc>
    <rc><c>B </c><c>   3</c></rc>
    <rc><c>B </c><c>   3</c></rc>
    <rc><c>B </c><c>   3</c></rc>
    <rc><c>B </c><c>   3</c></rc>
    <rc><c>B </c><c>   3</c></rc>
    <rc><c>B </c><c>   3</c></rc>
    <rc><c>B </c><c>   3</c></rc>
    <rc><c>B </c><c>   3</c></rc>
    <rc><c>B </c><c>   3</c></rc>
    <rc><c>B </c><c>   3</c></rc>
    <rc><c>B </c><c>   3</c></rc>
    <rc><c>B </c><c>   3</c></rc>
    <rc><c>B </c><c>   3</c></rc>
    <rc><c>B </c><c>   3</c></rc>
    <rc><c>B </c><c>   3</c></rc>
    <rc><c>B </c><c>   3</c></rc>
    <rc><c>B </c><c>   3</c></rc>
    <rc><c>B </c><c>   3</c></rc>
    <rc><c>B </c><c>   3</c></rc>
    <rc><c>B </c><c>   3</c></rc>
    <rc><c>B </c><c>   3</c></rc>
    <rc><c>B </c><c>   3</c></rc>
    <rc><c>B </c><c>   3</c></rc>
    <rc><c>B </c><c>   3</c></rc>
    <rc><c>B </c><c>   3</c></rc>
    <rc><c>B </c><c>   3</c></rc>
    <rc><c>B </c><c>   3</c></rc>
    <rc><c>B </c><c>   3</c></rc>
    <rc><c>B </c><c>   3</c></rc>
    <rc><c>B </c><c>   3</c></rc>
    <rc><c>B </c><c>   3</c></rc>
    <rc><c>B </c><c>   3</c></rc>
    <rc><c>B </c><c>   3</c></rc>
    <rc><c>B </c><c>   3</c></rc>
    <rc><c>B </c><c>   3</c></rc>
    <rc><c>B </c><c>   3</c></rc>
    <rc><c>B </c><c>   3</c></rc>
    <rc><c>B </c><c>   3</c></rc>
    <rc><c>B </c><c>   3</c></rc>
    <rc><c>B </c><c>   3</c></rc>
    <rc><c>B </c><c>   3</c></rc>
    <rc><c>B </c><c>   3</c></rc>
    <rc><c>B </c><c>   3</c></rc>
    <rc><c>B </c><c>   3</c></rc>
    <rc><c>B </c><c>   3</c></rc>
    <rc><c>B </c><c>   3</c></rc>
    <rc><c>B </c><c>   3</c></rc>
    <rc><c>B </c><c>   3</c></rc>
    <rc><c>B </c><c>   3</c></rc>
    <rc><c>B </c><c>   3</c></rc>
    <rc><c>B </c><c>   3</c></rc>
    <rc><c>B </c><c>   3</c></rc>
    <rc><c>B </c><c>   3</c></rc>
    <rc><c>B </c><c>   3</c></rc>
    <rc><c>B </c><c>   3</c></rc>
    <rc><c>B </c><c>   3</c></rc>
    <rc><c>B </c><c>   3</c></rc>
    <rc><c>B </c><c>   3</c></rc>
    <rc><c>B </c><c>   3</c></rc>
    <rc><c>B </c><c>   3</c></rc>
    <rc><c>B </c><c>   3</c></rc>
    <rc><c>B </c><c>   3</c></rc>
    <rc><c>B </c><c>   3</c></rc>
    <rc><c>B </c><c>   3</c></rc>
    <rc><c>B </c><c>   3</c></rc>
    <rc><c>B </c><c>   3</c></rc>
    <rc><c>B </c><c>   3</c></rc>
    <rc><c>B </c><c>   3</c></rc>
    <rc><c>B </c><c>   3</c></rc>
    <rc><c>B </c><c>   3</c></rc>
    <rc><c>B </c><c>   3</c></rc>
    <rc><c>B </c><c>   3</c></rc>
    <rc><c>B </c><c>   3</c></rc>
    <rc><c>B </c><c>   3</c></rc>
    <rc><c>B </c><c>   3</c></rc>
    <rc><c>B </c><c>   3</c></rc>
    <rc><c>B </c><c>   3</c></rc>
    <rc><c>B </c><c>   3</c></rc>
    <rc><c>B </c><c>   3</c></rc>
    <rc><c>B </c><c>   3</c></rc>
    <rc><c>B </c><c>   3</c></rc>
    <rc><c>B </c><c>   3</c></rc>
    <rc><c>B </c><c>   3</c></rc>
    <rc><c>B </c><c>   3</c></rc>
    <rc><c>B </c><c>   3</c></rc>
    <rc><c>B </c><c>   3</c></rc>
    <rc><c>B </c><c>   3</c></rc>
    <rc><c>B </c><c>   3</c></rc>
    <rc><c>B </c><c>   3</c></rc>
    <rc><c>B </c><c>   3</c></rc>
    <rc><c>B </c><c>   3</c></rc>
    <rc><c>B </c><c>   3</c></rc>
    <rc><c>B </c><c>   3</c></rc>
    <rc><c>B </c><c>   3</c></rc>
    <rc><c>B </c><c>   3</c></rc>
    <rc><c>B </c><c>   3</c></rc>
    <rc><c>B </c><c>   3</c></rc>
    <rc><c>B </c><c>   3</c></rc>
    <rc><c>B </c><c>   3</c></rc>
    <rc><c>B </c><c>   3</c></rc>
    <rc><c>B </c><c>   3</c></rc>
    <rc><c>B </c><c>   3</c></rc>
    <rc><c>B </c><c>   3</c></rc>
    <rc><c>B </c><c>   3</c></rc>
   </set>
  </array>
  <array name="atomtypes" >
   <dimension dim="1">type</dimension>
   <field type="int">atomspertype</field>
   <field type="string">element</field>
   <field>mass</field>
   <field>valence</field>
   <field type="string">pseudopotential</field>
   <set>
    <rc><c>   1</c><c>P </c><c>     30.97400000</c><c>      5.00000000</c><c>  PAW_PBE P 06Sep2000                   </c></rc>
    <rc><c> 144</c><c>N </c><c>     14.00100000</c><c>      5.00000000</c><c>  PAW_PBE N 08Apr2002                   </c></rc>
    <rc><c> 143</c><c>B </c><c>     10.81100000</c><c>      3.00000000</c><c>  PAW_PBE B 06Sep2000                   </c></rc>
   </set>
  </array>
 </atominfo>
 <structure name="initialpos" >
  <crystal>
   <varray name="basis" >
    <v>      14.93631415       0.00000000       0.00000000 </v>
    <v>      -7.46815707      12.93522749      -0.00000000 </v>
    <v>       0.00000000       0.00000000      13.34127628 </v>
   </varray>
   <i name="volume">   2577.59623255 </i>
   <varray name="rec_basis" >
    <v>       0.06695092       0.03865413      -0.00000000 </v>
    <v>       0.00000000       0.07730827      -0.00000000 </v>
    <v>       0.00000000       0.00000000       0.07495535 </v>
   </varray>
  </crystal>
  <varray name="positions" >
   <v>       0.44444444       0.38888889       0.37500000 </v>
   <v>       0.11110578       0.05553988       0.12514209 </v>
   <v>       0.61111893       0.55556454       0.12533815 </v>
   <v>       0.44443410       0.05553988       0.12514209 </v>
   <v>       0.94445577       0.55556472       0.12511237 </v>
   <v>       0.77777778       0.05555556       0.12508750 </v>
   <v>       0.11111111       0.72222222       0.62490204 </v>
   <v>       0.44443410       0.72222755       0.62485791 </v>
   <v>       0.27776879       0.22221440       0.62466185 </v>
   <v>       0.77779345       0.72222755       0.62485791 </v>
   <v>       0.61111409       0.22221925       0.62484996 </v>
   <v>       0.94444599       0.22222938       0.62490241 </v>
   <v>       0.27776861       0.72222439       0.12511237 </v>
   <v>       0.11110516       0.22221925       0.12515004 </v>
   <v>       0.44444561       0.22221440       0.12533815 </v>
   <v>       0.61111409       0.72222817       0.12515004 </v>
   <v>       0.94445577       0.72222439       0.12511237 </v>
   <v>       0.77778339       0.22222938       0.12509759 </v>
   <v>       0.11110895       0.88887756       0.62488763 </v>
   <v>       0.44443273       0.88888303       0.62489877 </v>
   <v>       0.27776879       0.38888773       0.62466185 </v>
   <v>       0.61111893       0.38888773       0.62466185 </v>
   <v>       0.77778339       0.88888734       0.62490241 </v>
   <v>       0.94445030       0.38890061       0.62489877 </v>
   <v>       0.11110578       0.38889924       0.12514209 </v>
   <v>       0.27776861       0.88887756       0.12511237 </v>
   <v>       0.61110395       0.88888734       0.12509759 </v>
   <v>       0.44444444       0.38888889       0.12572567 </v>
   <v>       0.94445030       0.88888303       0.12510123 </v>
   <v>       0.77779345       0.38889924       0.12514209 </v>
   <v>       0.27776995       0.55556338       0.62481384 </v>
   <v>       0.11110578       0.05553988       0.62485791 </v>
   <v>       0.61111893       0.55556454       0.62466185 </v>
   <v>       0.44443410       0.05553988       0.62485791 </v>
   <v>       0.94445577       0.55556472       0.62488763 </v>
   <v>       0.11110895       0.55556472       0.12511237 </v>
   <v>       0.77777778       0.05555556       0.62491250 </v>
   <v>       0.27776995       0.05553990       0.12518616 </v>
   <v>       0.44444561       0.55556454       0.12533815 </v>
   <v>       0.77779343       0.55556338       0.12518616 </v>
   <v>       0.61110395       0.05554994       0.12509759 </v>
   <v>       0.44444561       0.55556454       0.62466185 </v>
   <v>       0.94444599       0.05554994       0.12509759 </v>
   <v>       0.27776861       0.72222439       0.62488763 </v>
   <v>       0.11110516       0.22221925       0.62484996 </v>
   <v>       0.44444561       0.22221440       0.62466185 </v>
   <v>       0.61111409       0.72222817       0.62484996 </v>
   <v>       0.94445577       0.72222439       0.62488763 </v>
   <v>       0.77778339       0.22222938       0.62490241 </v>
   <v>       0.11111111       0.72222222       0.12509796 </v>
   <v>       0.44443410       0.72222755       0.12514209 </v>
   <v>       0.27776879       0.22221440       0.12533815 </v>
   <v>       0.77779345       0.72222755       0.12514209 </v>
   <v>       0.61111409       0.22221925       0.12515004 </v>
   <v>       0.94444599       0.22222938       0.12509759 </v>
   <v>       0.11110578       0.38889924       0.62485791 </v>
   <v>       0.27776861       0.88887756       0.62488763 </v>
   <v>       0.61110395       0.88888734       0.62490241 </v>
   <v>       0.44444444       0.38888889       0.62427433 </v>
   <v>       0.94445030       0.88888303       0.62489877 </v>
   <v>       0.11110895       0.88887756       0.12511237 </v>
   <v>       0.77779345       0.38889924       0.62485791 </v>
   <v>       0.44443273       0.88888303       0.12510123 </v>
   <v>       0.27776879       0.38888773       0.12533815 </v>
   <v>       0.27776995       0.55556338       0.12518616 </v>
   <v>       0.61111893       0.38888773       0.12533815 </v>
   <v>       0.77778339       0.88888734       0.12509759 </v>
   <v>       0.94445030       0.38890061       0.12510123 </v>
   <v>       0.11110895       0.55556472       0.62488763 </v>
   <v>       0.27776995       0.05553990       0.62481384 </v>
   <v>       0.77779343       0.55556338       0.62481384 </v>
   <v>       0.61110395       0.05554994       0.62490241 </v>
   <v>       0.94444599       0.05554994       0.62490241 </v>
   <v>       0.05492459       0.11067225       0.37500000 </v>
   <v>       0.55597948       0.61195895       0.37500000 </v>
   <v>       0.38821178       0.10798614       0.37500000 </v>
   <v>       0.88997050       0.61165191       0.37500000 </v>
   <v>       0.72233166       0.11100168       0.37500000 </v>
   <v>       0.05555347       0.77777986       0.87500000 </v>
   <v>       0.38889499       0.77778040       0.87500000 </v>
   <v>       0.22222211       0.27777772       0.87500000 </v>
   <v>       0.72222208       0.77778036       0.87500000 </v>
   <v>       0.55555561       0.27777772       0.87500000 </v>
   <v>       0.88888780       0.27777560       0.87500000 </v>
   <v>       0.22203010       0.77768172       0.37500000 </v>
   <v>       0.05492459       0.27758567       0.37500000 </v>
   <v>       0.38321436       0.26642872       0.37500000 </v>
   <v>       0.55574766       0.77840874       0.37500000 </v>
   <v>       0.88973042       0.77847773       0.37500000 </v>
   <v>       0.72266108       0.27758567       0.37500000 </v>
   <v>       0.05555294       0.94444793       0.87500000 </v>
   <v>       0.38889499       0.94444793       0.87500000 </v>
   <v>       0.22222295       0.44443974       0.87500000 </v>
   <v>       0.55555250       0.44444291       0.87500000 </v>
   <v>       0.72222259       0.94444517       0.87500000 </v>
   <v>       0.88888540       0.44443834       0.87500000 </v>
   <v>       0.05485561       0.44458602       0.37500000 </v>
   <v>       0.22168142       0.94336284       0.37500000 </v>
   <v>       0.55571596       0.94452465       0.37500000 </v>
   <v>       0.38321436       0.45011897       0.37500000 </v>
   <v>       0.88880868       0.94452465       0.37500000 </v>
   <v>       0.72534720       0.44512155       0.37500000 </v>
   <v>       0.22222502       0.61110832       0.87500000 </v>
   <v>       0.05555297       0.11111126       0.87500000 </v>
   <v>       0.55555561       0.61111123       0.87500000 </v>
   <v>       0.38889360       0.11111654       0.87500000 </v>
   <v>       0.88888330       0.61110832       0.87500000 </v>
   <v>       0.05565162       0.61130323       0.37500000 </v>
   <v>       0.72222259       0.11111075       0.87500000 </v>
   <v>       0.21977436       0.10798614       0.37500000 </v>
   <v>       0.38821178       0.61355898       0.37500000 </v>
   <v>       0.72534720       0.61355898       0.37500000 </v>
   <v>       0.55574766       0.11067225       0.37500000 </v>
   <v>       0.38889360       0.61111039       0.87500000 </v>
   <v>       0.88867002       0.11100168       0.37500000 </v>
   <v>       0.22222639       0.77777986       0.87500000 </v>
   <v>       0.05555297       0.27777505       0.87500000 </v>
   <v>       0.38889042       0.27778084       0.87500000 </v>
   <v>       0.55555829       0.77778036       0.87500000 </v>
   <v>       0.88888540       0.77778040       0.87500000 </v>
   <v>       0.72222208       0.27777505       0.87500000 </v>
   <v>       0.05565162       0.77768172       0.37500000 </v>
   <v>       0.38874731       0.77847773       0.37500000 </v>
   <v>       0.22137438       0.27735386       0.37500000 </v>
   <v>       0.72266108       0.77840874       0.37500000 </v>
   <v>       0.55597948       0.27735386       0.37500000 </v>
   <v>       0.88880868       0.27761737       0.37500000 </v>
   <v>       0.05555294       0.44443834       0.87500000 </v>
   <v>       0.22222502       0.94445003       0.87500000 </v>
   <v>       0.55555773       0.94444553       0.87500000 </v>
   <v>       0.38889042       0.44444291       0.87500000 </v>
   <v>       0.88888780       0.94444553       0.87500000 </v>
   <v>       0.05485561       0.94360291       0.37500000 </v>
   <v>       0.72221679       0.44443974       0.87500000 </v>
   <v>       0.38874731       0.94360291       0.37500000 </v>
   <v>       0.21977436       0.44512155       0.37500000 </v>
   <v>       0.22168142       0.61165191       0.37500000 </v>
   <v>       0.56690462       0.45011897       0.37500000 </v>
   <v>       0.72233166       0.94466331       0.37500000 </v>
   <v>       0.88973042       0.44458602       0.37500000 </v>
   <v>       0.05555347       0.61110694       0.87500000 </v>
   <v>       0.22222295       0.11111654       0.87500000 </v>
   <v>       0.72221679       0.61111039       0.87500000 </v>
   <v>       0.55555829       0.11111126       0.87500000 </v>
   <v>       0.88888816       0.11111075       0.87500000 </v>
   <v>       0.10888702       0.05363429       0.37500000 </v>
   <v>       0.61662821       0.56151023       0.37500000 </v>
   <v>       0.44474727       0.05363429       0.37500000 </v>
   <v>       0.94505350       0.55569452       0.37500000 </v>
   <v>       0.77777778       0.05555556       0.37500000 </v>
   <v>       0.11111111       0.72222222       0.87500000 </v>
   <v>       0.44445789       0.72225917       0.87500000 </v>
   <v>       0.27773656       0.22218886       0.87500000 </v>
   <v>       0.77780129       0.72225917       0.87500000 </v>
   <v>       0.61113701       0.22219632       0.87500000 </v>
   <v>       0.94441891       0.22220602       0.87500000 </v>
   <v>       0.27763881       0.72269232       0.37500000 </v>
   <v>       0.10939752       0.22136543       0.37500000 </v>
   <v>       0.44488202       0.21670513       0.37500000 </v>
   <v>       0.61196791       0.72393582       0.37500000 </v>
   <v>       0.94505350       0.72269232       0.37500000 </v>
   <v>       0.77798832       0.22181380       0.37500000 </v>
   <v>       0.11109976       0.88887925       0.87500000 </v>
   <v>       0.44445802       0.88889568       0.87500000 </v>
   <v>       0.27773656       0.38888103       0.87500000 </v>
   <v>       0.61114447       0.38888103       0.87500000 </v>
   <v>       0.77778711       0.88891442       0.87500000 </v>
   <v>       0.94443766       0.38887531       0.87500000 </v>
   <v>       0.10888702       0.38858606       0.37500000 </v>
   <v>       0.27763881       0.88827983       0.37500000 </v>
   <v>       0.61151953       0.88950785       0.37500000 </v>
   <v>       0.94428960       0.88904373       0.37500000 </v>
   <v>       0.77969904       0.38858606       0.37500000 </v>
   <v>       0.27776270       0.55557063       0.87500000 </v>
   <v>       0.11107416       0.05553205       0.87500000 </v>
   <v>       0.61114447       0.55559678       0.87500000 </v>
   <v>       0.44445789       0.05553205       0.87500000 </v>
   <v>       0.94445408       0.55555385       0.87500000 </v>
   <v>       0.11064101       0.55569452       0.37500000 </v>
   <v>       0.77777778       0.05555556       0.87500000 </v>
   <v>       0.27665444       0.05330889       0.37500000 </v>
   <v>       0.44488202       0.56151023       0.37500000 </v>
   <v>       0.78002445       0.55667889       0.37500000 </v>
   <v>       0.61151953       0.05534502       0.37500000 </v>
   <v>       0.44445231       0.55559678       0.87500000 </v>
   <v>       0.94382548       0.05534502       0.37500000 </v>
   <v>       0.27777949       0.72223357       0.87500000 </v>
   <v>       0.11105932       0.22219632       0.87500000 </v>
   <v>       0.44445231       0.22218886       0.87500000 </v>
   <v>       0.61113701       0.72227402       0.87500000 </v>
   <v>       0.94445408       0.72223357       0.87500000 </v>
   <v>       0.77778711       0.22220602       0.87500000 </v>
   <v>       0.11111111       0.72222222       0.37500000 </v>
   <v>       0.44474727       0.72444631       0.37500000 </v>
   <v>       0.27182310       0.21670513       0.37500000 </v>
   <v>       0.77969904       0.72444631       0.37500000 </v>
   <v>       0.61196791       0.22136543       0.37500000 </v>
   <v>       0.94382548       0.22181380       0.37500000 </v>
   <v>       0.11107416       0.38887545       0.87500000 </v>
   <v>       0.27777949       0.88887925       0.87500000 </v>
   <v>       0.61112731       0.88891442       0.87500000 </v>
   <v>       0.44444444       0.38888889       0.87500000 </v>
   <v>       0.94443766       0.88889568       0.87500000 </v>
   <v>       0.11064101       0.88827983       0.37500000 </v>
   <v>       0.77780129       0.38887545       0.87500000 </v>
   <v>       0.44475413       0.88904373       0.37500000 </v>
   <v>       0.27182310       0.38845131       0.37500000 </v>
   <v>       0.27665444       0.55667889       0.37500000 </v>
   <v>       0.61662821       0.38845131       0.37500000 </v>
   <v>       0.77798832       0.88950785       0.37500000 </v>
   <v>       0.94428960       0.38857921       0.37500000 </v>
   <v>       0.11109976       0.55555385       0.87500000 </v>
   <v>       0.27776270       0.05552540       0.87500000 </v>
   <v>       0.77780793       0.55557063       0.87500000 </v>
   <v>       0.61112731       0.05554622       0.87500000 </v>
   <v>       0.94441891       0.05554622       0.87500000 </v>
   <v>       0.05546928       0.11103632       0.12487403 </v>
   <v>       0.55563492       0.61126984       0.12476730 </v>
   <v>       0.38882801       0.11159570       0.12483104 </v>
   <v>       0.88900701       0.61117017       0.12488859 </v>
   <v>       0.72223458       0.11109875       0.12491481 </v>
   <v>       0.05557215       0.77776118       0.62509033 </v>
   <v>       0.38885004       0.77781495       0.62510653 </v>
   <v>       0.22206349       0.27769841       0.62523270 </v>
   <v>       0.72229702       0.77786405       0.62512597 </v>
   <v>       0.55563492       0.27769841       0.62523270 </v>
   <v>       0.88889259       0.27778519       0.62508998 </v>
   <v>       0.22218903       0.77776118       0.12490967 </v>
   <v>       0.05546928       0.27776630       0.12487403 </v>
   <v>       0.38878395       0.27756790       0.12459556 </v>
   <v>       0.55556704       0.77786405       0.12487403 </v>
   <v>       0.88896491       0.77781495       0.12489347 </v>
   <v>       0.72229702       0.27776630       0.12487403 </v>
   <v>       0.05551838       0.94436842       0.62510653 </v>
   <v>       0.38885004       0.94436842       0.62510653 </v>
   <v>       0.22209818       0.44450532       0.62516896 </v>
   <v>       0.55576543       0.44454938       0.62540444 </v>
   <v>       0.72223458       0.94446917       0.62508519 </v>
   <v>       0.88896491       0.44448330       0.62510653 </v>
   <v>       0.05551838       0.44448330       0.12489347 </v>
   <v>       0.22216316       0.94432633       0.12488859 </v>
   <v>       0.55554814       0.94444074       0.12491002 </v>
   <v>       0.38878395       0.44454938       0.12459556 </v>
   <v>       0.88889259       0.94444074       0.12491002 </v>
   <v>       0.72240714       0.44450532       0.12483104 </v>
   <v>       0.22216316       0.61117017       0.62511141 </v>
   <v>       0.05546928       0.11103632       0.62512597 </v>
   <v>       0.55563492       0.61126984       0.62523270 </v>
   <v>       0.38882801       0.11092619       0.62516896 </v>
   <v>       0.88900701       0.61117017       0.62511141 </v>
   <v>       0.05557215       0.61114430       0.12490967 </v>
   <v>       0.72223458       0.11109875       0.62508519 </v>
   <v>       0.22209818       0.11092619       0.12483104 </v>
   <v>       0.38882801       0.61123515       0.12483104 </v>
   <v>       0.72240714       0.61123515       0.12483104 </v>
   <v>       0.55556704       0.11103632       0.12487403 </v>
   <v>       0.38882801       0.61123515       0.62516896 </v>
   <v>       0.88886417       0.11109875       0.12491481 </v>
   <v>       0.22218903       0.77776118       0.62509033 </v>
   <v>       0.05546928       0.27776630       0.62512597 </v>
   <v>       0.38878395       0.27756790       0.62540444 </v>
   <v>       0.55556704       0.77786405       0.62512597 </v>
   <v>       0.88896491       0.77781495       0.62510653 </v>
   <v>       0.72229702       0.27776630       0.62512597 </v>
   <v>       0.05557215       0.77776118       0.12490967 </v>
   <v>       0.38885004       0.77781495       0.12489347 </v>
   <v>       0.22206349       0.27769841       0.12476730 </v>
   <v>       0.72229702       0.77786405       0.12487403 </v>
   <v>       0.55563492       0.27769841       0.12476730 </v>
   <v>       0.88889259       0.27778519       0.12491002 </v>
   <v>       0.05551838       0.44448330       0.62510653 </v>
   <v>       0.22216316       0.94432633       0.62511141 </v>
   <v>       0.55554814       0.94444074       0.62508998 </v>
   <v>       0.38878395       0.44454938       0.62540444 </v>
   <v>       0.88889259       0.94444074       0.62508998 </v>
   <v>       0.05551838       0.94436842       0.12489347 </v>
   <v>       0.72240714       0.44450532       0.62516896 </v>
   <v>       0.38885004       0.94436842       0.12489347 </v>
   <v>       0.22209818       0.44450532       0.12483104 </v>
   <v>       0.22216316       0.61117017       0.12488859 </v>
   <v>       0.55576543       0.44454938       0.12459556 </v>
   <v>       0.72223458       0.94446917       0.12491481 </v>
   <v>       0.88896491       0.44448330       0.12489347 </v>
   <v>       0.05557215       0.61114430       0.62509033 </v>
   <v>       0.22209818       0.11092619       0.62516896 </v>
   <v>       0.72240714       0.61123515       0.62516896 </v>
   <v>       0.55556704       0.11103632       0.62512597 </v>
   <v>       0.88886417       0.11109875       0.62508519 </v>
  </varray>
 </structure>
 <calculation>
  <scstep>
   <time name="dav">    8.45    8.45</time>
   <time name="total">    8.68    8.68</time>
   <energy>
    <i name="alphaZ">   2866.36594071 </i>
    <i name="ewald"> -35860.82777718 </i>
    <i name="hartreedc"> -13235.41122709 </i>
    <i name="XCdc">   3913.00035335 </i>
    <i name="pawpsdc">  35870.55371313 </i>
    <i name="pawaedc"> -35911.58316637 </i>
    <i name="eentropy">     -0.04276149 </i>
    <i name="bandstr">     62.64467690 </i>
    <i name="atom">  48446.24376545 </i>
    <i name="e_fr_energy">   6150.94351743 </i>
    <i name="e_wo_entrp">   6150.98627891 </i>
    <i name="e_0_energy">   6150.96489817 </i>
   </energy>
  </scstep>
  <scstep>
   <time name="dav">    9.67    9.67</time>
   <time name="total">    9.68    9.68</time>
   <energy>
    <i name="e_fr_energy">  -2175.98152714 </i>
    <i name="e_wo_entrp">  -2175.96525484 </i>
    <i name="e_0_energy">  -2175.97339099 </i>
   </energy>
  </scstep>
  <scstep>
   <time name="dav">    9.12    9.11</time>
   <time name="total">    9.13    9.13</time>
   <energy>
    <i name="e_fr_energy">  -2778.35915480 </i>
    <i name="e_wo_entrp">  -2778.34680290 </i>
    <i name="e_0_energy">  -2778.35297885 </i>
   </energy>
  </scstep>
  <scstep>
   <time name="dav">    9.18    9.17</time>
   <time name="total">    9.18    9.18</time>
   <energy>
    <i name="e_fr_energy">  -2792.07059544 </i>
    <i name="e_wo_entrp">  -2792.06011507 </i>
    <i name="e_0_energy">  -2792.06535526 </i>
   </energy>
  </scstep>
  <scstep>
   <time name="dav">    9.19    9.18</time>
   <time name="total">    9.44    9.43</time>
   <energy>
    <i name="e_fr_energy">  -2792.43985606 </i>
    <i name="e_wo_entrp">  -2792.42945298 </i>
    <i name="e_0_energy">  -2792.43465452 </i>
   </energy>
  </scstep>
  <scstep>
   <time name="diag">    0.64    0.64</time>
   <time name="diis">    5.01    5.00</time>
   <time name="orth">    0.28    0.28</time>
   <time name="total">    6.40    6.39</time>
   <energy>
    <i name="e_fr_energy">  -2547.78315505 </i>
    <i name="e_wo_entrp">  -2547.78315505 </i>
    <i name="e_0_energy">  -2547.78315505 </i>
   </energy>
  </scstep>
  <scstep>
   <time name="diag">    0.64    0.64</time>
   <time name="diis">    5.21    5.20</time>
   <time name="orth">    0.27    0.27</time>
   <time name="total">    6.59    6.58</time>
   <energy>
    <i name="e_fr_energy">  -2533.08032646 </i>
    <i name="e_wo_entrp">  -2533.08032646 </i>
    <i name="e_0_energy">  -2533.08032646 </i>
   </energy>
  </scstep>
  <scstep>
   <time name="diag">    0.65    0.65</time>
   <time name="diis">    5.27    5.26</time>
   <time name="orth">    0.27    0.27</time>
   <time name="total">    6.65    6.64</time>
   <energy>
    <i name="e_fr_energy">  -2530.01974196 </i>
    <i name="e_wo_entrp">  -2530.01974196 </i>
    <i name="e_0_energy">  -2530.01974196 </i>
   </energy>
  </scstep>
  <scstep>
   <time name="diag">    0.64    0.64</time>
   <time name="diis">    5.34    5.34</time>
   <time name="orth">    0.28    0.28</time>
   <time name="total">    6.71    6.70</time>
   <energy>
    <i name="e_fr_energy">  -2526.12933467 </i>
    <i name="e_wo_entrp">  -2526.12933467 </i>
    <i name="e_0_energy">  -2526.12933467 </i>
   </energy>
  </scstep>
  <scstep>
   <time name="diag">    0.64    0.64</time>
   <time name="diis">    5.58    5.57</time>
   <time name="orth">    0.27    0.27</time>
   <time name="total">    6.94    6.93</time>
   <energy>
    <i name="e_fr_energy">  -2526.20179753 </i>
    <i name="e_wo_entrp">  -2526.20179753 </i>
    <i name="e_0_energy">  -2526.20179753 </i>
   </energy>
  </scstep>
  <scstep>
   <time name="diag">    0.65    0.65</time>
   <time name="diis">    5.62    5.62</time>
   <time name="orth">    0.28    0.28</time>
   <time name="total">    7.04    7.04</time>
   <energy>
    <i name="e_fr_energy">  -2526.22356347 </i>
    <i name="e_wo_entrp">  -2526.22356347 </i>
    <i name="e_0_energy">  -2526.22356347 </i>
   </energy>
  </scstep>
  <scstep>
   <time name="diag">    0.68    0.67</time>
   <time name="diis">    5.60    5.60</time>
   <time name="orth">    0.28    0.28</time>
   <time name="total">    7.02    7.02</time>
   <energy>
    <i name="e_fr_energy">  -2526.19629967 </i>
    <i name="e_wo_entrp">  -2526.19629967 </i>
    <i name="e_0_energy">  -2526.19629967 </i>
   </energy>
  </scstep>
  <scstep>
   <time name="diag">    0.64    0.64</time>
   <time name="diis">    5.70    5.70</time>
   <time name="orth">    0.27    0.27</time>
   <time name="total">    7.06    7.06</time>
   <energy>
    <i name="e_fr_energy">  -2526.19521634 </i>
    <i name="e_wo_entrp">  -2526.19521634 </i>
    <i name="e_0_energy">  -2526.19521634 </i>
   </energy>
  </scstep>
  <scstep>
   <time name="diag">    0.64    0.64</time>
   <time name="diis">    5.88    5.88</time>
   <time name="orth">    0.27    0.27</time>
   <time name="total">    7.24    7.24</time>
   <energy>
    <i name="e_fr_energy">  -2526.19549579 </i>
    <i name="e_wo_entrp">  -2526.19549579 </i>
    <i name="e_0_energy">  -2526.19549579 </i>
   </energy>
  </scstep>
  <scstep>
   <time name="diag">    0.64    0.64</time>
   <time name="diis">    5.90    5.90</time>
   <time name="orth">    0.28    0.28</time>
   <time name="total">    7.26    7.26</time>
   <energy>
    <i name="e_fr_energy">  -2526.19558276 </i>
    <i name="e_wo_entrp">  -2526.19558276 </i>
    <i name="e_0_energy">  -2526.19558276 </i>
   </energy>
  </scstep>
  <scstep>
   <time name="diag">    0.64    0.64</time>
   <time name="diis">    5.83    5.83</time>
   <time name="orth">    0.27    0.27</time>
   <time name="total">    7.20    7.20</time>
   <energy>
    <i name="e_fr_energy">  -2526.19555198 </i>
    <i name="e_wo_entrp">  -2526.19555198 </i>
    <i name="e_0_energy">  -2526.19555198 </i>
   </energy>
  </scstep>
  <scstep>
   <time name="diag">    0.66    0.66</time>
   <time name="diis">    5.79    5.79</time>
   <time name="orth">    0.28    0.28</time>
   <time name="total">    7.19    7.18</time>
   <energy>
    <i name="e_fr_energy">  -2526.19554389 </i>
    <i name="e_wo_entrp">  -2526.19554389 </i>
    <i name="e_0_energy">  -2526.19554389 </i>
   </energy>
  </scstep>
  <scstep>
   <time name="diag">    0.64    0.64</time>
   <time name="diis">    5.53    5.53</time>
   <time name="orth">    0.30    0.30</time>
   <time name="total">    6.94    6.94</time>
   <energy>
    <i name="e_fr_energy">  -2526.19554427 </i>
    <i name="e_wo_entrp">  -2526.19554427 </i>
    <i name="e_0_energy">  -2526.19554427 </i>
   </energy>
  </scstep>
  <scstep>
   <time name="diag">    0.68    0.68</time>
   <time name="diis">    4.46    4.46</time>
   <time name="orth">    0.28    0.28</time>
   <time name="total">    5.66    5.66</time>
   <energy>
    <i name="alphaZ">   2866.36594071 </i>
    <i name="ewald"> -35860.82777718 </i>
    <i name="hartreedc"> -16414.54141718 </i>
    <i name="XCdc">   4103.41348759 </i>
    <i name="pawpsdc"> 140224.95855144 </i>
    <i name="pawaedc">-140325.53704734 </i>
    <i name="eentropy">     -0.00000000 </i>
    <i name="bandstr">  -5566.27104741 </i>
    <i name="atom">  48446.24376545 </i>
    <i name="e_fr_energy">  -2526.19554392 </i>
    <i name="e_wo_entrp">  -2526.19554392 </i>
    <i name="e_0_energy">  -2526.19554392 </i>
   </energy>
  </scstep>
  <structure>
   <crystal>
    <varray name="basis" >
     <v>      14.93631415       0.00000000       0.00000000 </v>
     <v>      -7.46815707      12.93522749      -0.00000000 </v>
     <v>       0.00000000       0.00000000      13.34127628 </v>
    </varray>
    <i name="volume">   2577.59623255 </i>
    <varray name="rec_basis" >
     <v>       0.06695092       0.03865413      -0.00000000 </v>
     <v>       0.00000000       0.07730827      -0.00000000 </v>
     <v>       0.00000000       0.00000000       0.07495535 </v>
    </varray>
   </crystal>
   <varray name="positions" >
    <v>       0.44444444       0.38888889       0.37500000 </v>
    <v>       0.11110578       0.05553988       0.12514209 </v>
    <v>       0.61111893       0.55556454       0.12533815 </v>
    <v>       0.44443410       0.05553988       0.12514209 </v>
    <v>       0.94445577       0.55556472       0.12511237 </v>
    <v>       0.77777778       0.05555556       0.12508750 </v>
    <v>       0.11111111       0.72222222       0.62490204 </v>
    <v>       0.44443410       0.72222755       0.62485791 </v>
    <v>       0.27776879       0.22221440       0.62466185 </v>
    <v>       0.77779345       0.72222755       0.62485791 </v>
    <v>       0.61111409       0.22221925       0.62484996 </v>
    <v>       0.94444599       0.22222938       0.62490241 </v>
    <v>       0.27776861       0.72222439       0.12511237 </v>
    <v>       0.11110516       0.22221925       0.12515004 </v>
    <v>       0.44444561       0.22221440       0.12533815 </v>
    <v>       0.61111409       0.72222817       0.12515004 </v>
    <v>       0.94445577       0.72222439       0.12511237 </v>
    <v>       0.77778339       0.22222938       0.12509759 </v>
    <v>       0.11110895       0.88887756       0.62488763 </v>
    <v>       0.44443273       0.88888303       0.62489877 </v>
    <v>       0.27776879       0.38888773       0.62466185 </v>
    <v>       0.61111893       0.38888773       0.62466185 </v>
    <v>       0.77778339       0.88888734       0.62490241 </v>
    <v>       0.94445030       0.38890061       0.62489877 </v>
    <v>       0.11110578       0.38889924       0.12514209 </v>
    <v>       0.27776861       0.88887756       0.12511237 </v>
    <v>       0.61110395       0.88888734       0.12509759 </v>
    <v>       0.44444444       0.38888889       0.12572567 </v>
    <v>       0.94445030       0.88888303       0.12510123 </v>
    <v>       0.77779345       0.38889924       0.12514209 </v>
    <v>       0.27776995       0.55556338       0.62481384 </v>
    <v>       0.11110578       0.05553988       0.62485791 </v>
    <v>       0.61111893       0.55556454       0.62466185 </v>
    <v>       0.44443410       0.05553988       0.62485791 </v>
    <v>       0.94445577       0.55556472       0.62488763 </v>
    <v>       0.11110895       0.55556472       0.12511237 </v>
    <v>       0.77777778       0.05555556       0.62491250 </v>
    <v>       0.27776995       0.05553990       0.12518616 </v>
    <v>       0.44444561       0.55556454       0.12533815 </v>
    <v>       0.77779343       0.55556338       0.12518616 </v>
    <v>       0.61110395       0.05554994       0.12509759 </v>
    <v>       0.44444561       0.55556454       0.62466185 </v>
    <v>       0.94444599       0.05554994       0.12509759 </v>
    <v>       0.27776861       0.72222439       0.62488763 </v>
    <v>       0.11110516       0.22221925       0.62484996 </v>
    <v>       0.44444561       0.22221440       0.62466185 </v>
    <v>       0.61111409       0.72222817       0.62484996 </v>
    <v>       0.94445577       0.72222439       0.62488763 </v>
    <v>       0.77778339       0.22222938       0.62490241 </v>
    <v>       0.11111111       0.72222222       0.12509796 </v>
    <v>       0.44443410       0.72222755       0.12514209 </v>
    <v>       0.27776879       0.22221440       0.12533815 </v>
    <v>       0.77779345       0.72222755       0.12514209 </v>
    <v>       0.61111409       0.22221925       0.12515004 </v>
    <v>       0.94444599       0.22222938       0.12509759 </v>
    <v>       0.11110578       0.38889924       0.62485791 </v>
    <v>       0.27776861       0.88887756       0.62488763 </v>
    <v>       0.61110395       0.88888734       0.62490241 </v>
    <v>       0.44444444       0.38888889       0.62427433 </v>
    <v>       0.94445030       0.88888303       0.62489877 </v>
    <v>       0.11110895       0.88887756       0.12511237 </v>
    <v>       0.77779345       0.38889924       0.62485791 </v>
    <v>       0.44443273       0.88888303       0.12510123 </v>
    <v>       0.27776879       0.38888773       0.12533815 </v>
    <v>       0.27776995       0.55556338       0.12518616 </v>
    <v>       0.61111893       0.38888773       0.12533815 </v>
    <v>       0.77778339       0.88888734       0.12509759 </v>
    <v>       0.94445030       0.38890061       0.12510123 </v>
    <v>       0.11110895       0.55556472       0.62488763 </v>
    <v>       0.27776995       0.05553990       0.62481384 </v>
    <v>       0.77779343       0.55556338       0.62481384 </v>
    <v>       0.61110395       0.05554994       0.62490241 </v>
    <v>       0.94444599       0.05554994       0.62490241 </v>
    <v>       0.05492459       0.11067225       0.37500000 </v>
    <v>       0.55597948       0.61195895       0.37500000 </v>
    <v>       0.38821178       0.10798614       0.37500000 </v>
    <v>       0.88997050       0.61165191       0.37500000 </v>
    <v>       0.72233166       0.11100168       0.37500000 </v>
    <v>       0.05555347       0.77777986       0.87500000 </v>
    <v>       0.38889499       0.77778040       0.87500000 </v>
    <v>       0.22222211       0.27777772       0.87500000 </v>
    <v>       0.72222208       0.77778036       0.87500000 </v>
    <v>       0.55555561       0.27777772       0.87500000 </v>
    <v>       0.88888780       0.27777560       0.87500000 </v>
    <v>       0.22203010       0.77768172       0.37500000 </v>
    <v>       0.05492459       0.27758567       0.37500000 </v>
    <v>       0.38321436       0.26642872       0.37500000 </v>
    <v>       0.55574766       0.77840874       0.37500000 </v>
    <v>       0.88973042       0.77847773       0.37500000 </v>
    <v>       0.72266108       0.27758567       0.37500000 </v>
    <v>       0.05555294       0.94444793       0.87500000 </v>
    <v>       0.38889499       0.94444793       0.87500000 </v>
    <v>       0.22222295       0.44443974       0.87500000 </v>
    <v>       0.55555250       0.44444291       0.87500000 </v>
    <v>       0.72222259       0.94444517       0.87500000 </v>
    <v>       0.88888540       0.44443834       0.87500000 </v>
    <v>       0.05485561       0.44458602       0.37500000 </v>
    <v>       0.22168142       0.94336284       0.37500000 </v>
    <v>       0.55571596       0.94452465       0.37500000 </v>
    <v>       0.38321436       0.45011897       0.37500000 </v>
    <v>       0.88880868       0.94452465       0.37500000 </v>
    <v>       0.72534720       0.44512155       0.37500000 </v>
    <v>       0.22222502       0.61110832       0.87500000 </v>
    <v>       0.05555297       0.11111126       0.87500000 </v>
    <v>       0.55555561       0.61111123       0.87500000 </v>
    <v>       0.38889360       0.11111654       0.87500000 </v>
    <v>       0.88888330       0.61110832       0.87500000 </v>
    <v>       0.05565162       0.61130323       0.37500000 </v>
    <v>       0.72222259       0.11111075       0.87500000 </v>
    <v>       0.21977436       0.10798614       0.37500000 </v>
    <v>       0.38821178       0.61355898       0.37500000 </v>
    <v>       0.72534720       0.61355898       0.37500000 </v>
    <v>       0.55574766       0.11067225       0.37500000 </v>
    <v>       0.38889360       0.61111039       0.87500000 </v>
    <v>       0.88867002       0.11100168       0.37500000 </v>
    <v>       0.22222639       0.77777986       0.87500000 </v>
    <v>       0.05555297       0.27777505       0.87500000 </v>
    <v>       0.38889042       0.27778084       0.87500000 </v>
    <v>       0.55555829       0.77778036       0.87500000 </v>
    <v>       0.88888540       0.77778040       0.87500000 </v>
    <v>       0.72222208       0.27777505       0.87500000 </v>
    <v>       0.05565162       0.77768172       0.37500000 </v>
    <v>       0.38874731       0.77847773       0.37500000 </v>
    <v>       0.22137438       0.27735386       0.37500000 </v>
    <v>       0.72266108       0.77840874       0.37500000 </v>
    <v>       0.55597948       0.27735386       0.37500000 </v>
    <v>       0.88880868       0.27761737       0.37500000 </v>
    <v>       0.05555294       0.44443834       0.87500000 </v>
    <v>       0.22222502       0.94445003       0.87500000 </v>
    <v>       0.55555773       0.94444553       0.87500000 </v>
    <v>       0.38889042       0.44444291       0.87500000 </v>
    <v>       0.88888780       0.94444553       0.87500000 </v>
    <v>       0.05485561       0.94360291       0.37500000 </v>
    <v>       0.72221679       0.44443974       0.87500000 </v>
    <v>       0.38874731       0.94360291       0.37500000 </v>
    <v>       0.21977436       0.44512155       0.37500000 </v>
    <v>       0.22168142       0.61165191       0.37500000 </v>
    <v>       0.56690462       0.45011897       0.37500000 </v>
    <v>       0.72233166       0.94466331       0.37500000 </v>
    <v>       0.88973042       0.44458602       0.37500000 </v>
    <v>       0.05555347       0.61110694       0.87500000 </v>
    <v>       0.22222295       0.11111654       0.87500000 </v>
    <v>       0.72221679       0.61111039       0.87500000 </v>
    <v>       0.55555829       0.11111126       0.87500000 </v>
    <v>       0.88888816       0.11111075       0.87500000 </v>
    <v>       0.10888702       0.05363429       0.37500000 </v>
    <v>       0.61662821       0.56151023       0.37500000 </v>
    <v>       0.44474727       0.05363429       0.37500000 </v>
    <v>       0.94505350       0.55569452       0.37500000 </v>
    <v>       0.77777778       0.05555556       0.37500000 </v>
    <v>       0.11111111       0.72222222       0.87500000 </v>
    <v>       0.44445789       0.72225917       0.87500000 </v>
    <v>       0.27773656       0.22218886       0.87500000 </v>
    <v>       0.77780129       0.72225917       0.87500000 </v>
    <v>       0.61113701       0.22219632       0.87500000 </v>
    <v>       0.94441891       0.22220602       0.87500000 </v>
    <v>       0.27763881       0.72269232       0.37500000 </v>
    <v>       0.10939752       0.22136543       0.37500000 </v>
    <v>       0.44488202       0.21670513       0.37500000 </v>
    <v>       0.61196791       0.72393582       0.37500000 </v>
    <v>       0.94505350       0.72269232       0.37500000 </v>
    <v>       0.77798832       0.22181380       0.37500000 </v>
    <v>       0.11109976       0.88887925       0.87500000 </v>
    <v>       0.44445802       0.88889568       0.87500000 </v>
    <v>       0.27773656       0.38888103       0.87500000 </v>
    <v>       0.61114447       0.38888103       0.87500000 </v>
    <v>       0.77778711       0.88891442       0.87500000 </v>
    <v>       0.94443766       0.38887531       0.87500000 </v>
    <v>       0.10888702       0.38858606       0.37500000 </v>
    <v>       0.27763881       0.88827983       0.37500000 </v>
    <v>       0.61151953       0.88950785       0.37500000 </v>
    <v>       0.94428960       0.88904373       0.37500000 </v>
    <v>       0.77969904       0.38858606       0.37500000 </v>
    <v>       0.27776270       0.55557063       0.87500000 </v>
    <v>       0.11107416       0.05553205       0.87500000 </v>
    <v>       0.61114447       0.55559678       0.87500000 </v>
    <v>       0.44445789       0.05553205       0.87500000 </v>
    <v>       0.94445408       0.55555385       0.87500000 </v>
    <v>       0.11064101       0.55569452       0.37500000 </v>
    <v>       0.77777778       0.05555556       0.87500000 </v>
    <v>       0.27665444       0.05330889       0.37500000 </v>
    <v>       0.44488202       0.56151023       0.37500000 </v>
    <v>       0.78002445       0.55667889       0.37500000 </v>
    <v>       0.61151953       0.05534502       0.37500000 </v>
    <v>       0.44445231       0.55559678       0.87500000 </v>
    <v>       0.94382548       0.05534502       0.37500000 </v>
    <v>       0.27777949       0.72223357       0.87500000 </v>
    <v>       0.11105932       0.22219632       0.87500000 </v>
    <v>       0.44445231       0.22218886       0.87500000 </v>
    <v>       0.61113701       0.72227402       0.87500000 </v>
    <v>       0.94445408       0.72223357       0.87500000 </v>
    <v>       0.77778711       0.22220602       0.87500000 </v>
    <v>       0.11111111       0.72222222       0.37500000 </v>
    <v>       0.44474727       0.72444631       0.37500000 </v>
    <v>       0.27182310       0.21670513       0.37500000 </v>
    <v>       0.77969904       0.72444631       0.37500000 </v>
    <v>       0.61196791       0.22136543       0.37500000 </v>
    <v>       0.94382548       0.22181380       0.37500000 </v>
    <v>       0.11107416       0.38887545       0.87500000 </v>
    <v>       0.27777949       0.88887925       0.87500000 </v>
    <v>       0.61112731       0.88891442       0.87500000 </v>
    <v>       0.44444444       0.38888889       0.87500000 </v>
    <v>       0.94443766       0.88889568       0.87500000 </v>
    <v>       0.11064101       0.88827983       0.37500000 </v>
    <v>       0.77780129       0.38887545       0.87500000 </v>
    <v>       0.44475413       0.88904373       0.37500000 </v>
    <v>       0.27182310       0.38845131       0.37500000 </v>
    <v>       0.27665444       0.55667889       0.37500000 </v>
    <v>       0.61662821       0.38845131       0.37500000 </v>
    <v>       0.77798832       0.88950785       0.37500000 </v>
    <v>       0.94428960       0.38857921       0.37500000 </v>
    <v>       0.11109976       0.55555385       0.87500000 </v>
    <v>       0.27776270       0.05552540       0.87500000 </v>
    <v>       0.77780793       0.55557063       0.87500000 </v>
    <v>       0.61112731       0.05554622       0.87500000 </v>
    <v>       0.94441891       0.05554622       0.87500000 </v>
    <v>       0.05546928       0.11103632       0.12487403 </v>
    <v>       0.55563492       0.61126984       0.12476730 </v>
    <v>       0.38882801       0.11159570       0.12483104 </v>
    <v>       0.88900701       0.61117017       0.12488859 </v>
    <v>       0.72223458       0.11109875       0.12491481 </v>
    <v>       0.05557215       0.77776118       0.62509033 </v>
    <v>       0.38885004       0.77781495       0.62510653 </v>
    <v>       0.22206349       0.27769841       0.62523270 </v>
    <v>       0.72229702       0.77786405       0.62512597 </v>
    <v>       0.55563492       0.27769841       0.62523270 </v>
    <v>       0.88889259       0.27778519       0.62508998 </v>
    <v>       0.22218903       0.77776118       0.12490967 </v>
    <v>       0.05546928       0.27776630       0.12487403 </v>
    <v>       0.38878395       0.27756790       0.12459556 </v>
    <v>       0.55556704       0.77786405       0.12487403 </v>
    <v>       0.88896491       0.77781495       0.12489347 </v>
    <v>       0.72229702       0.27776630       0.12487403 </v>
    <v>       0.05551838       0.94436842       0.62510653 </v>
    <v>       0.38885004       0.94436842       0.62510653 </v>
    <v>       0.22209818       0.44450532       0.62516896 </v>
    <v>       0.55576543       0.44454938       0.62540444 </v>
    <v>       0.72223458       0.94446917       0.62508519 </v>
    <v>       0.88896491       0.44448330       0.62510653 </v>
    <v>       0.05551838       0.44448330       0.12489347 </v>
    <v>       0.22216316       0.94432633       0.12488859 </v>
    <v>       0.55554814       0.94444074       0.12491002 </v>
    <v>       0.38878395       0.44454938       0.12459556 </v>
    <v>       0.88889259       0.94444074       0.12491002 </v>
    <v>       0.72240714       0.44450532       0.12483104 </v>
    <v>       0.22216316       0.61117017       0.62511141 </v>
    <v>       0.05546928       0.11103632       0.62512597 </v>
    <v>       0.55563492       0.61126984       0.62523270 </v>
    <v>       0.38882801       0.11092619       0.62516896 </v>
    <v>       0.88900701       0.61117017       0.62511141 </v>
    <v>       0.05557215       0.61114430       0.12490967 </v>
    <v>       0.72223458       0.11109875       0.62508519 </v>
    <v>       0.22209818       0.11092619       0.12483104 </v>
    <v>       0.38882801       0.61123515       0.12483104 </v>
    <v>       0.72240714       0.61123515       0.12483104 </v>
    <v>       0.55556704       0.11103632       0.12487403 </v>
    <v>       0.38882801       0.61123515       0.62516896 </v>
    <v>       0.88886417       0.11109875       0.12491481 </v>
    <v>       0.22218903       0.77776118       0.62509033 </v>
    <v>       0.05546928       0.27776630       0.62512597 </v>
    <v>       0.38878395       0.27756790       0.62540444 </v>
    <v>       0.55556704       0.77786405       0.62512597 </v>
    <v>       0.88896491       0.77781495       0.62510653 </v>
    <v>       0.72229702       0.27776630       0.62512597 </v>
    <v>       0.05557215       0.77776118       0.12490967 </v>
    <v>       0.38885004       0.77781495       0.12489347 </v>
    <v>       0.22206349       0.27769841       0.12476730 </v>
    <v>       0.72229702       0.77786405       0.12487403 </v>
    <v>       0.55563492       0.27769841       0.12476730 </v>
    <v>       0.88889259       0.27778519       0.12491002 </v>
    <v>       0.05551838       0.44448330       0.62510653 </v>
    <v>       0.22216316       0.94432633       0.62511141 </v>
    <v>       0.55554814       0.94444074       0.62508998 </v>
    <v>       0.38878395       0.44454938       0.62540444 </v>
    <v>       0.88889259       0.94444074       0.62508998 </v>
    <v>       0.05551838       0.94436842       0.12489347 </v>
    <v>       0.72240714       0.44450532       0.62516896 </v>
    <v>       0.38885004       0.94436842       0.12489347 </v>
    <v>       0.22209818       0.44450532       0.12483104 </v>
    <v>       0.22216316       0.61117017       0.12488859 </v>
    <v>       0.55576543       0.44454938       0.12459556 </v>
    <v>       0.72223458       0.94446917       0.12491481 </v>
    <v>       0.88896491       0.44448330       0.12489347 </v>
    <v>       0.05557215       0.61114430       0.62509033 </v>
    <v>       0.22209818       0.11092619       0.62516896 </v>
    <v>       0.72240714       0.61123515       0.62516896 </v>
    <v>       0.55556704       0.11103632       0.62512597 </v>
    <v>       0.88886417       0.11109875       0.62508519 </v>
   </varray>
  </structure>
  <varray name="forces" >
   <v>      -0.00055510       0.00128546      -0.00127549 </v>
   <v>      -0.00550270      -0.00075679      -0.00019388 </v>
   <v>       0.00402677       0.00288964      -0.00324689 </v>
   <v>      -0.15239255       0.13055630      -0.00047618 </v>
   <v>       0.00066630       0.00151906       0.00067790 </v>
   <v>       0.00289038       0.00062954      -0.00003124 </v>
   <v>      -0.00020146      -0.00009793      -0.00127166 </v>
   <v>      -0.00288382       0.00357943       0.00018300 </v>
   <v>      -0.00435228      -0.00682017       0.00327200 </v>
   <v>       0.00297986       0.00368880       0.00018481 </v>
   <v>       0.00759590      -0.00414646       0.00255710 </v>
   <v>      -0.00199513      -0.00206309       0.00054157 </v>
   <v>      -0.00288667      -0.00361310       0.00067976 </v>
   <v>      -0.00468886      -0.00352432      -0.00255020 </v>
   <v>      -0.03447985       0.20164446      -0.00287763 </v>
   <v>       0.00136156       0.00665640      -0.00255742 </v>
   <v>       0.00188789       0.00015958       0.00067792 </v>
   <v>       0.00256452       0.00084926      -0.00054006 </v>
   <v>       0.00078984      -0.00271939      -0.00067978 </v>
   <v>      -0.00057420      -0.00036647      -0.00016808 </v>
   <v>      -0.00812778      -0.00034473       0.00326388 </v>
   <v>       0.00807266      -0.00018217       0.00326682 </v>
   <v>      -0.00070882       0.00283599       0.00054164 </v>
   <v>      -0.00004701       0.00070488      -0.00016647 </v>
   <v>      -0.00356270       0.00017389      -0.00018231 </v>
   <v>      -0.01118699      -0.01208586       0.00068875 </v>
   <v>       0.00464218       0.00055038      -0.00054133 </v>
   <v>       0.00240039      -0.00984263       0.00676973 </v>
   <v>       0.00065062      -0.00051234       0.00016453 </v>
   <v>       0.00204243       0.00176926      -0.00018689 </v>
   <v>      -0.00577112       0.00316430      -0.00013994 </v>
   <v>      -0.00183634      -0.00432834       0.00018492 </v>
   <v>       0.00387713       0.00710790       0.00326898 </v>
   <v>       0.00158112      -0.00418756       0.00017917 </v>
   <v>       0.00175014       0.00220848      -0.00067644 </v>
   <v>      -0.00218000       0.00087551       0.00067927 </v>
   <v>       0.00013546       0.00009380       0.00002956 </v>
   <v>      -0.03919749       0.06207834       0.00014467 </v>
   <v>      -0.00217746       0.00410376      -0.00323793 </v>
   <v>       0.00390888       0.00127508       0.00014356 </v>
   <v>       0.01642772       0.00019390      -0.00056384 </v>
   <v>      -0.00378210       0.00704797       0.00325999 </v>
   <v>      -0.00210249      -0.00003940      -0.00054254 </v>
   <v>      -0.00297637       0.00033347      -0.00067700 </v>
   <v>      -0.00769215      -0.00441993       0.00255537 </v>
   <v>       0.00415527      -0.00668235       0.00327476 </v>
   <v>       0.00011859       0.00880327       0.00255288 </v>
   <v>       0.00275426       0.00045771      -0.00067797 </v>
   <v>       0.00206903      -0.00194381       0.00054297 </v>
   <v>      -0.00247253      -0.00222150       0.00126772 </v>
   <v>      -0.00112906       0.00064479      -0.00018108 </v>
   <v>       0.00882020      -0.00298509      -0.00328465 </v>
   <v>       0.00302383       0.00225201      -0.00018401 </v>
   <v>      -0.00237363       0.01294925      -0.00254948 </v>
   <v>      -0.00082631      -0.00145405      -0.00054187 </v>
   <v>      -0.00472406       0.00064093       0.00018322 </v>
   <v>      -0.00124461      -0.00274162      -0.00068037 </v>
   <v>       0.00098552       0.00280942       0.00054131 </v>
   <v>      -0.00000911      -0.00001881      -0.00721964 </v>
   <v>       0.00053557      -0.00031298      -0.00016482 </v>
   <v>      -0.00049841       0.00221629       0.00069293 </v>
   <v>       0.00462755       0.00081366       0.00018463 </v>
   <v>       0.00670932      -0.00743428       0.00015546 </v>
   <v>      -0.00485278      -0.00243069      -0.00324555 </v>
   <v>      -0.00464659       0.00116603       0.00014529 </v>
   <v>       0.00081815      -0.01119200      -0.00320960 </v>
   <v>       0.00054164       0.00207572      -0.00054283 </v>
   <v>      -0.00023204       0.00103627       0.00016727 </v>
   <v>      -0.00197644       0.00212948      -0.00067856 </v>
   <v>      -0.00021829      -0.00646194      -0.00014178 </v>
   <v>       0.00569980       0.00330887      -0.00014037 </v>
   <v>       0.00293257      -0.00053147       0.00054092 </v>
   <v>      -0.00281281      -0.00064352       0.00054249 </v>
   <v>      -0.00095363      -0.01171537      -0.00004746 </v>
   <v>       0.00035302       0.02442846      -0.00015873 </v>
   <v>      -0.04335098      -0.04480289      -0.00002794 </v>
   <v>       0.01640447       0.00941338      -0.00005206 </v>
   <v>       0.00196644      -0.00023521       0.00030268 </v>
   <v>       0.00107121      -0.00108808      -0.00005031 </v>
   <v>      -0.00171013      -0.00109250      -0.00034814 </v>
   <v>      -0.00194276      -0.00155224       0.00035038 </v>
   <v>       0.00079159       0.00152966      -0.00000440 </v>
   <v>       0.00140659      -0.00075498       0.00140139 </v>
   <v>       0.00023355      -0.00031386      -0.00005175 </v>
   <v>      -0.00181539      -0.00156061       0.00035934 </v>
   <v>      -0.01058831       0.00485087      -0.00005058 </v>
   <v>       0.00027268      -0.31778210      -0.00068866 </v>
   <v>      -0.00911820       0.00649525       0.00014850 </v>
   <v>       0.02292077      -0.00716231      -0.00001603 </v>
   <v>       0.01065244       0.00564938       0.00000214 </v>
   <v>       0.00097671      -0.00134576      -0.00000343 </v>
   <v>      -0.00154123      -0.00188436      -0.00179889 </v>
   <v>      -0.00288909       0.00106467       0.00009611 </v>
   <v>       0.00184307       0.00046583       0.00060448 </v>
   <v>       0.00065916       0.00119355      -0.00017020 </v>
   <v>       0.00055284       0.00180895       0.00004500 </v>
   <v>      -0.00535888       0.02309262       0.00000501 </v>
   <v>      -0.00100154      -0.01881995       0.00035577 </v>
   <v>      -0.00419538      -0.00300883       0.00063920 </v>
   <v>      -0.27466290       0.15820547       0.00054034 </v>
   <v>       0.00524616      -0.00284953       0.00002679 </v>
   <v>       0.01916583       0.05985850      -0.00031330 </v>
   <v>      -0.00231866       0.00068930      -0.00010553 </v>
   <v>      -0.00107545      -0.00107053       0.00004450 </v>
   <v>       0.00036336       0.00232627       0.00013478 </v>
   <v>      -0.00098688      -0.00140299      -0.00003093 </v>
   <v>       0.00208398       0.00110632       0.00005228 </v>
   <v>      -0.00021759       0.00123437       0.00005499 </v>
   <v>       0.00171828      -0.00009609      -0.00030264 </v>
   <v>       0.04186425      -0.04598800      -0.00038784 </v>
   <v>      -0.06093279      -0.01351900      -0.00002585 </v>
   <v>       0.06156678      -0.01328753      -0.00018598 </v>
   <v>       0.00133261      -0.01032344       0.00145500 </v>
   <v>      -0.00257146       0.00136710      -0.00000477 </v>
   <v>      -0.00092567      -0.00063475       0.00006026 </v>
   <v>      -0.00197463      -0.00157860      -0.00035744 </v>
   <v>      -0.00145974      -0.00054949       0.00004996 </v>
   <v>       0.00037188      -0.00206820       0.00177564 </v>
   <v>       0.00011151       0.00129472      -0.00014614 </v>
   <v>       0.00191297      -0.00039838       0.00002069 </v>
   <v>       0.00160056       0.00015100      -0.00000396 </v>
   <v>       0.00096862      -0.00102666       0.00005016 </v>
   <v>      -0.02264264      -0.00782017       0.00034818 </v>
   <v>      -0.02109669      -0.01259407      -0.00039538 </v>
   <v>       0.01007657       0.00674516       0.00000526 </v>
   <v>       0.02033325      -0.01177755      -0.00150730 </v>
   <v>       0.00019861       0.00599026       0.00005175 </v>
   <v>      -0.00071278       0.00158893      -0.00000338 </v>
   <v>      -0.00097497      -0.00227911      -0.00036170 </v>
   <v>       0.00127036       0.00010627      -0.00064053 </v>
   <v>      -0.00135259       0.00044936       0.00032040 </v>
   <v>      -0.00022106       0.00030413      -0.00002637 </v>
   <v>       0.01735020      -0.01614793       0.00000252 </v>
   <v>       0.00275195       0.00138702       0.00028512 </v>
   <v>      -0.01795542      -0.01677582       0.00180894 </v>
   <v>      -0.01918035       0.05906547      -0.00012012 </v>
   <v>      -0.01648222       0.00887393       0.00010560 </v>
   <v>       0.27530048       0.15843563       0.00039222 </v>
   <v>       0.00066157       0.00154291       0.00017049 </v>
   <v>       0.00521319       0.02345128      -0.00004300 </v>
   <v>      -0.00027080       0.00139113      -0.00005539 </v>
   <v>      -0.00039551      -0.00264205       0.00035249 </v>
   <v>       0.00291156       0.00163091       0.00015872 </v>
   <v>       0.00152280       0.00017358      -0.00144930 </v>
   <v>      -0.00062093      -0.00046011      -0.00006107 </v>
   <v>      -0.01459110       0.02849100      -0.00001162 </v>
   <v>      -0.06842993      -0.00229474       0.00036077 </v>
   <v>       0.01545494       0.02737233      -0.00327777 </v>
   <v>      -0.00746673      -0.00483198       0.00002048 </v>
   <v>      -0.00064787      -0.00005098      -0.00018915 </v>
   <v>       0.00067147       0.00048299       0.00014792 </v>
   <v>       0.00073354      -0.00191389       0.00016296 </v>
   <v>      -0.00052196       0.00142041      -0.00080794 </v>
   <v>      -0.00151627      -0.00218373      -0.00005237 </v>
   <v>      -0.00181505      -0.00071595       0.00001151 </v>
   <v>       0.00145918       0.00006137       0.00002586 </v>
   <v>       0.00831744      -0.00344508      -0.00028654 </v>
   <v>       0.02977426       0.01726512       0.00014679 </v>
   <v>       0.03189766       0.05851456       0.00337336 </v>
   <v>      -0.00055222      -0.03437128      -0.00000811 </v>
   <v>      -0.00795286      -0.00390611       0.00001661 </v>
   <v>      -0.00696629       0.00114214      -0.00013056 </v>
   <v>       0.00086117       0.00215087       0.00000139 </v>
   <v>      -0.00062187       0.00106930       0.00075851 </v>
   <v>       0.00167926      -0.00012462      -0.00025332 </v>
   <v>      -0.00181256      -0.00004661      -0.00072450 </v>
   <v>      -0.00121031      -0.00135584       0.00005979 </v>
   <v>       0.00009918      -0.00040882       0.00000338 </v>
   <v>       0.01769914      -0.02663382       0.00003823 </v>
   <v>       0.00190067       0.01000172      -0.00087017 </v>
   <v>       0.00080170      -0.00636812      -0.00027731 </v>
   <v>      -0.01249306       0.00732156      -0.00000163 </v>
   <v>      -0.01747239      -0.02728642       0.00011065 </v>
   <v>       0.00257726      -0.00106322       0.00000521 </v>
   <v>       0.00128308       0.00208188       0.00000554 </v>
   <v>      -0.00179829      -0.00080685      -0.00024652 </v>
   <v>      -0.00043620       0.00088522       0.00305964 </v>
   <v>      -0.00143245      -0.00063921      -0.00001944 </v>
   <v>       0.00794844      -0.00465584      -0.00005443 </v>
   <v>      -0.00063652      -0.00005671       0.00018214 </v>
   <v>       0.00071721       0.02667812      -0.00002737 </v>
   <v>       0.06789805      -0.00230333       0.00022669 </v>
   <v>      -0.02403759      -0.01355771       0.00018745 </v>
   <v>      -0.00601161       0.00468257      -0.00079653 </v>
   <v>       0.00110122      -0.00092894      -0.00014577 </v>
   <v>       0.00466987       0.00493941      -0.00002352 </v>
   <v>       0.00168699      -0.00032528       0.00026858 </v>
   <v>       0.00245420       0.00151073      -0.00014161 </v>
   <v>      -0.00003387       0.00029396      -0.00296553 </v>
   <v>      -0.00056076      -0.00284939       0.00000423 </v>
   <v>      -0.00131647      -0.00077777      -0.00001639 </v>
   <v>      -0.00183817      -0.00052549       0.00012464 </v>
   <v>       0.00067707       0.00048591      -0.00015599 </v>
   <v>       0.03154136      -0.00140235      -0.00018440 </v>
   <v>      -0.03246367       0.05986397       0.00096944 </v>
   <v>      -0.03233462      -0.00165128       0.00004548 </v>
   <v>      -0.02915015       0.01500811      -0.00002033 </v>
   <v>       0.00654987       0.00172518      -0.00002710 </v>
   <v>       0.00273053       0.00031133      -0.00004420 </v>
   <v>       0.00127642       0.00267757       0.00082584 </v>
   <v>      -0.00029870      -0.00113050       0.00026553 </v>
   <v>      -0.00050344       0.00112043      -0.00069775 </v>
   <v>      -0.00029929       0.00029270       0.00000302 </v>
   <v>       0.00024095       0.00945321      -0.00000309 </v>
   <v>      -0.00249329      -0.00026354      -0.00011351 </v>
   <v>       0.01156527       0.00814738      -0.00079750 </v>
   <v>       0.03626586      -0.05725643       0.00035532 </v>
   <v>       0.02393702      -0.01341456      -0.00000319 </v>
   <v>      -0.03635362      -0.05684260       0.00085737 </v>
   <v>      -0.00232669      -0.00660257      -0.00006270 </v>
   <v>       0.00006801      -0.01451571      -0.00000195 </v>
   <v>       0.00193055      -0.00046126       0.00005111 </v>
   <v>       0.00079671       0.00206286       0.00000687 </v>
   <v>      -0.00267909      -0.00125299      -0.00016973 </v>
   <v>      -0.00201249       0.00108585       0.00076419 </v>
   <v>       0.00068352       0.00135393       0.00002285 </v>
   <v>       0.00209829       0.00415502      -0.00042471 </v>
   <v>      -0.00124032      -0.00733254       0.00685567 </v>
   <v>       0.25961828      -0.45054123       0.00099806 </v>
   <v>      -0.00490328      -0.00308654      -0.00108409 </v>
   <v>      -0.00609748      -0.00425255      -0.00146115 </v>
   <v>      -0.00195009       0.00125919       0.00211131 </v>
   <v>       0.00497977      -0.00187062       0.00167982 </v>
   <v>       0.00843095       0.00488196      -0.00686171 </v>
   <v>      -0.00447108      -0.00556722       0.00041819 </v>
   <v>      -0.00821596       0.00463964      -0.00686652 </v>
   <v>      -0.00006470      -0.00180864       0.00169210 </v>
   <v>       0.00238906       0.00746656      -0.00208981 </v>
   <v>       0.00556850      -0.00062871      -0.00042326 </v>
   <v>      -0.03105891       0.03007974       0.01319828 </v>
   <v>       0.00287488      -0.00326398      -0.00041153 </v>
   <v>      -0.00452634      -0.00179238      -0.00167449 </v>
   <v>      -0.00693731      -0.00122507      -0.00041423 </v>
   <v>      -0.00051792       0.00519913       0.00167474 </v>
   <v>       0.00084708       0.00523885       0.00168618 </v>
   <v>       0.01170542      -0.00415466      -0.00140475 </v>
   <v>       0.00492131       0.00286502      -0.01341021 </v>
   <v>      -0.00018231      -0.00144138       0.00147355 </v>
   <v>      -0.00419989      -0.00327743       0.00167380 </v>
   <v>       0.00377590      -0.00223880      -0.00167428 </v>
   <v>       0.02550461       0.01018386      -0.00118355 </v>
   <v>      -0.00394314       0.00390565      -0.00166194 </v>
   <v>      -0.00921243       0.00611658       0.01332275 </v>
   <v>      -0.00198661       0.00058996      -0.00169013 </v>
   <v>      -0.00533670      -0.00272167       0.00137707 </v>
   <v>       0.00661073      -0.00354959       0.00108384 </v>
   <v>       0.00265293       0.00649171       0.00041793 </v>
   <v>      -0.00005374      -0.00960782      -0.00685424 </v>
   <v>      -0.00181421       0.01192846      -0.00139911 </v>
   <v>      -0.00641251      -0.00374096       0.00107978 </v>
   <v>       0.00051999      -0.00098674      -0.00210742 </v>
   <v>      -0.00135972       0.00047640       0.00147443 </v>
   <v>      -0.01280939      -0.00824660       0.00150165 </v>
   <v>       0.00826081      -0.00543530       0.00139864 </v>
   <v>      -0.00846816      -0.00614484       0.00138733 </v>
   <v>      -0.03367726      -0.02317483      -0.00028129 </v>
   <v>       0.00956214      -0.00777640      -0.00140087 </v>
   <v>      -0.00031198      -0.00044169      -0.00146957 </v>
   <v>       0.00236487       0.00139252       0.00211436 </v>
   <v>       0.00698831      -0.00101030       0.00041828 </v>
   <v>       0.00013913      -0.00570314      -0.01343177 </v>
   <v>       0.00427157      -0.00547402       0.00042161 </v>
   <v>      -0.00490034      -0.00210204       0.00167338 </v>
   <v>      -0.00698662      -0.00122166       0.00041813 </v>
   <v>       0.00033216       0.00058001      -0.00210492 </v>
   <v>       0.00443520       0.00387483      -0.00165782 </v>
   <v>       0.00309666       0.00798208       0.00682964 </v>
   <v>      -0.00501192      -0.00462802      -0.00042012 </v>
   <v>       0.03265319       0.01640689       0.00657678 </v>
   <v>      -0.00127174      -0.00239956      -0.00168987 </v>
   <v>       0.00431786      -0.00318015       0.00167466 </v>
   <v>       0.00032595       0.00736623       0.00108579 </v>
   <v>       0.00133820       0.00080078       0.00169743 </v>
   <v>      -0.00487567       0.00294627      -0.01339676 </v>
   <v>      -0.00152201       0.00076588       0.00169188 </v>
   <v>      -0.00050779       0.00519045      -0.00167313 </v>
   <v>      -0.01157210      -0.00433376      -0.00140895 </v>
   <v>      -0.01416817       0.04963991      -0.00161979 </v>
   <v>       0.00961302      -0.00240836       0.00139407 </v>
   <v>       0.00616762      -0.00081342      -0.00107654 </v>
   <v>       0.00471478       0.00876324       0.01325077 </v>
   <v>      -0.00233270      -0.00148844      -0.00146439 </v>
   <v>      -0.00310897      -0.00255353      -0.00167457 </v>
   <v>       0.00014432      -0.00237840       0.00211173 </v>
   <v>       0.00232856       0.01206341      -0.00140950 </v>
   <v>      -0.00955265      -0.00794077      -0.00140812 </v>
   <v>      -0.00258329       0.00626253       0.00042804 </v>
   <v>       0.00106217       0.00057262       0.00147207 </v>
  </varray>
  <varray name="stress" >
   <v>      96.85724517      -0.01355924      -0.00076140 </v>
   <v>      -0.01355922      96.94456394       0.00158282 </v>
   <v>      -0.00076141       0.00158281      -3.46805748 </v>
  </varray>
  <energy>
   <i name="e_fr_energy">  -2554.40035171 </i>
   <i name="e_wo_entrp">  -2554.40035171 </i>
   <i name="e_0_energy">  -2554.40035171 </i>
  </energy>
  <time name="totalsc">  172.11  172.02</time>
  <eigenvalues>
   <array>
    <dimension dim="1">band</dimension>
    <dimension dim="2">kpoint</dimension>
    <dimension dim="3">spin</dimension>
    <field>eigene</field>
    <field>occ</field>
    <set>
     <set comment="spin 1">
      <set comment="kpoint 1">
       <r>  -17.2952    1.0000 </r>
       <r>  -15.7211    1.0000 </r>
       <r>  -15.7209    1.0000 </r>
       <r>  -15.5762    1.0000 </r>
       <r>  -15.3642    1.0000 </r>
       <r>  -15.3450    1.0000 </r>
       <r>  -15.1593    1.0000 </r>
       <r>  -15.1587    1.0000 </r>
       <r>  -15.1531    1.0000 </r>
       <r>  -15.0724    1.0000 </r>
       <r>  -14.8893    1.0000 </r>
       <r>  -14.8767    1.0000 </r>
       <r>  -14.8761    1.0000 </r>
       <r>  -14.8488    1.0000 </r>
       <r>  -14.8201    1.0000 </r>
       <r>  -14.8196    1.0000 </r>
       <r>  -14.8176    1.0000 </r>
       <r>  -14.8154    1.0000 </r>
       <r>  -14.8001    1.0000 </r>
       <r>  -14.7875    1.0000 </r>
       <r>  -14.7845    1.0000 </r>
       <r>  -14.7738    1.0000 </r>
       <r>  -14.7411    1.0000 </r>
       <r>  -14.7408    1.0000 </r>
       <r>  -14.6490    1.0000 </r>
       <r>  -14.6269    1.0000 </r>
       <r>  -14.6265    1.0000 </r>
       <r>  -14.6140    1.0000 </r>
       <r>  -14.6128    1.0000 </r>
       <r>  -14.6058    1.0000 </r>
       <r>  -14.5585    1.0000 </r>
       <r>  -14.2541    1.0000 </r>
       <r>  -14.2539    1.0000 </r>
       <r>  -14.2427    1.0000 </r>
       <r>  -13.9209    1.0000 </r>
       <r>  -13.9201    1.0000 </r>
       <r>  -13.8663    1.0000 </r>
       <r>  -13.8310    1.0000 </r>
       <r>  -13.8297    1.0000 </r>
       <r>  -13.8295    1.0000 </r>
       <r>  -13.8225    1.0000 </r>
       <r>  -13.8151    1.0000 </r>
       <r>  -13.8130    1.0000 </r>
       <r>  -13.8122    1.0000 </r>
       <r>  -13.8087    1.0000 </r>
       <r>  -13.8067    1.0000 </r>
       <r>  -13.8017    1.0000 </r>
       <r>  -13.8013    1.0000 </r>
       <r>  -13.7963    1.0000 </r>
       <r>  -13.7625    1.0000 </r>
       <r>  -13.7568    1.0000 </r>
       <r>  -13.7564    1.0000 </r>
       <r>  -13.6371    1.0000 </r>
       <r>  -13.6359    1.0000 </r>
       <r>  -13.6351    1.0000 </r>
       <r>  -13.6336    1.0000 </r>
       <r>  -13.6334    1.0000 </r>
       <r>  -13.6323    1.0000 </r>
       <r>  -13.3998    1.0000 </r>
       <r>  -13.3975    1.0000 </r>
       <r>  -13.3883    1.0000 </r>
       <r>  -13.3834    1.0000 </r>
       <r>  -13.3824    1.0000 </r>
       <r>  -13.3816    1.0000 </r>
       <r>  -13.3682    1.0000 </r>
       <r>  -13.3663    1.0000 </r>
       <r>  -13.3637    1.0000 </r>
       <r>  -13.3623    1.0000 </r>
       <r>  -13.3606    1.0000 </r>
       <r>  -13.3589    1.0000 </r>
       <r>  -13.2777    1.0000 </r>
       <r>  -13.2776    1.0000 </r>
       <r>  -13.2038    1.0000 </r>
       <r>  -13.2023    1.0000 </r>
       <r>  -13.2019    1.0000 </r>
       <r>  -13.2017    1.0000 </r>
       <r>  -13.1999    1.0000 </r>
       <r>  -13.1993    1.0000 </r>
       <r>  -12.8947    1.0000 </r>
       <r>  -12.8586    1.0000 </r>
       <r>  -12.8585    1.0000 </r>
       <r>  -12.7737    1.0000 </r>
       <r>  -12.6758    1.0000 </r>
       <r>  -12.5896    1.0000 </r>
       <r>  -12.5894    1.0000 </r>
       <r>  -12.5884    1.0000 </r>
       <r>  -12.5329    1.0000 </r>
       <r>  -12.5327    1.0000 </r>
       <r>  -12.4970    1.0000 </r>
       <r>  -12.4968    1.0000 </r>
       <r>  -12.4676    1.0000 </r>
       <r>  -12.3513    1.0000 </r>
       <r>  -12.3434    1.0000 </r>
       <r>  -12.3345    1.0000 </r>
       <r>  -12.3234    1.0000 </r>
       <r>  -12.3174    1.0000 </r>
       <r>  -12.3161    1.0000 </r>
       <r>  -12.3109    1.0000 </r>
       <r>  -12.3101    1.0000 </r>
       <r>  -12.3082    1.0000 </r>
       <r>  -12.3067    1.0000 </r>
       <r>  -12.3001    1.0000 </r>
       <r>  -12.2990    1.0000 </r>
       <r>  -12.2847    1.0000 </r>
       <r>  -12.2837    1.0000 </r>
       <r>  -12.2816    1.0000 </r>
       <r>  -12.2794    1.0000 </r>
       <r>  -12.2748    1.0000 </r>
       <r>  -12.2738    1.0000 </r>
       <r>  -12.2726    1.0000 </r>
       <r>  -12.2718    1.0000 </r>
       <r>  -12.2706    1.0000 </r>
       <r>  -12.2645    1.0000 </r>
       <r>  -12.2616    1.0000 </r>
       <r>  -12.2598    1.0000 </r>
       <r>  -12.1908    1.0000 </r>
       <r>  -12.1901    1.0000 </r>
       <r>  -12.1899    1.0000 </r>
       <r>  -12.1852    1.0000 </r>
       <r>  -12.1847    1.0000 </r>
       <r>  -12.1822    1.0000 </r>
       <r>  -12.1587    1.0000 </r>
       <r>  -12.1584    1.0000 </r>
       <r>  -12.1540    1.0000 </r>
       <r>  -12.1539    1.0000 </r>
       <r>  -12.1515    1.0000 </r>
       <r>  -12.1511    1.0000 </r>
       <r>  -12.1434    1.0000 </r>
       <r>  -12.1430    1.0000 </r>
       <r>  -12.1421    1.0000 </r>
       <r>  -12.1410    1.0000 </r>
       <r>  -12.1386    1.0000 </r>
       <r>  -12.1384    1.0000 </r>
       <r>  -12.0616    1.0000 </r>
       <r>  -12.0616    1.0000 </r>
       <r>  -12.0614    1.0000 </r>
       <r>  -11.9612    1.0000 </r>
       <r>  -11.9612    1.0000 </r>
       <r>  -11.5959    1.0000 </r>
       <r>  -11.5944    1.0000 </r>
       <r>  -11.5938    1.0000 </r>
       <r>  -11.5911    1.0000 </r>
       <r>  -11.4687    1.0000 </r>
       <r>  -11.4687    1.0000 </r>
       <r>   -8.3743    1.0000 </r>
       <r>   -7.3298    1.0000 </r>
       <r>   -7.3296    1.0000 </r>
       <r>   -6.6091    1.0000 </r>
       <r>   -6.6090    1.0000 </r>
       <r>   -6.5434    1.0000 </r>
       <r>   -6.5258    1.0000 </r>
       <r>   -6.5254    1.0000 </r>
       <r>   -6.5245    1.0000 </r>
       <r>   -6.5217    1.0000 </r>
       <r>   -6.5202    1.0000 </r>
       <r>   -6.5113    1.0000 </r>
       <r>   -6.4874    1.0000 </r>
       <r>   -6.3898    1.0000 </r>
       <r>   -6.3898    1.0000 </r>
       <r>   -6.3898    1.0000 </r>
       <r>   -6.3165    1.0000 </r>
       <r>   -6.3164    1.0000 </r>
       <r>   -6.0962    1.0000 </r>
       <r>   -6.0961    1.0000 </r>
       <r>   -6.0294    1.0000 </r>
       <r>   -6.0290    1.0000 </r>
       <r>   -6.0062    1.0000 </r>
       <r>   -5.9871    1.0000 </r>
       <r>   -5.9065    1.0000 </r>
       <r>   -5.9065    1.0000 </r>
       <r>   -5.7226    1.0000 </r>
       <r>   -5.7155    1.0000 </r>
       <r>   -5.7141    1.0000 </r>
       <r>   -5.7135    1.0000 </r>
       <r>   -5.7127    1.0000 </r>
       <r>   -5.7066    1.0000 </r>
       <r>   -5.7051    1.0000 </r>
       <r>   -5.7046    1.0000 </r>
       <r>   -5.6920    1.0000 </r>
       <r>   -5.6907    1.0000 </r>
       <r>   -5.6862    1.0000 </r>
       <r>   -5.6831    1.0000 </r>
       <r>   -5.6819    1.0000 </r>
       <r>   -5.6809    1.0000 </r>
       <r>   -5.6801    1.0000 </r>
       <r>   -5.6778    1.0000 </r>
       <r>   -5.6687    1.0000 </r>
       <r>   -5.6686    1.0000 </r>
       <r>   -5.6676    1.0000 </r>
       <r>   -5.6670    1.0000 </r>
       <r>   -5.6666    1.0000 </r>
       <r>   -5.6666    1.0000 </r>
       <r>   -5.6632    1.0000 </r>
       <r>   -5.6619    1.0000 </r>
       <r>   -5.5745    1.0000 </r>
       <r>   -5.5738    1.0000 </r>
       <r>   -5.5615    1.0000 </r>
       <r>   -5.5606    1.0000 </r>
       <r>   -5.5592    1.0000 </r>
       <r>   -5.5586    1.0000 </r>
       <r>   -5.5584    1.0000 </r>
       <r>   -5.5577    1.0000 </r>
       <r>   -5.5539    1.0000 </r>
       <r>   -5.5536    1.0000 </r>
       <r>   -5.5503    1.0000 </r>
       <r>   -5.5502    1.0000 </r>
       <r>   -5.5467    1.0000 </r>
       <r>   -5.5467    1.0000 </r>
       <r>   -5.5466    1.0000 </r>
       <r>   -5.5463    1.0000 </r>
       <r>   -5.4176    1.0000 </r>
       <r>   -5.4175    1.0000 </r>
       <r>   -5.3696    1.0000 </r>
       <r>   -5.2475    1.0000 </r>
       <r>   -5.1471    1.0000 </r>
       <r>   -5.1470    1.0000 </r>
       <r>   -4.9933    1.0000 </r>
       <r>   -4.9233    1.0000 </r>
       <r>   -4.9232    1.0000 </r>
       <r>   -4.8738    1.0000 </r>
       <r>   -4.7492    1.0000 </r>
       <r>   -4.7491    1.0000 </r>
       <r>   -4.7427    1.0000 </r>
       <r>   -4.7426    1.0000 </r>
       <r>   -4.6191    1.0000 </r>
       <r>   -4.6190    1.0000 </r>
       <r>   -4.4794    1.0000 </r>
       <r>   -4.4782    1.0000 </r>
       <r>   -4.4768    1.0000 </r>
       <r>   -4.4756    1.0000 </r>
       <r>   -4.4750    1.0000 </r>
       <r>   -4.4740    1.0000 </r>
       <r>   -4.4733    1.0000 </r>
       <r>   -4.4727    1.0000 </r>
       <r>   -4.4726    1.0000 </r>
       <r>   -4.4718    1.0000 </r>
       <r>   -4.4699    1.0000 </r>
       <r>   -4.4688    1.0000 </r>
       <r>   -4.3391    1.0000 </r>
       <r>   -4.3389    1.0000 </r>
       <r>   -4.3388    1.0000 </r>
       <r>   -4.3387    1.0000 </r>
       <r>   -4.3387    1.0000 </r>
       <r>   -4.3386    1.0000 </r>
       <r>   -4.3384    1.0000 </r>
       <r>   -4.0493    1.0000 </r>
       <r>   -3.9422    1.0000 </r>
       <r>   -3.9421    1.0000 </r>
       <r>   -3.6906    1.0000 </r>
       <r>   -3.6298    1.0000 </r>
       <r>   -3.6297    1.0000 </r>
       <r>   -3.6142    1.0000 </r>
       <r>   -3.5984    1.0000 </r>
       <r>   -3.5190    1.0000 </r>
       <r>   -3.5189    1.0000 </r>
       <r>   -3.3592    1.0000 </r>
       <r>   -3.3420    1.0000 </r>
       <r>   -3.3417    1.0000 </r>
       <r>   -3.3200    1.0000 </r>
       <r>   -3.3199    1.0000 </r>
       <r>   -3.3059    1.0000 </r>
       <r>   -3.3057    1.0000 </r>
       <r>   -3.2203    1.0000 </r>
       <r>   -3.1820    1.0000 </r>
       <r>   -3.1732    1.0000 </r>
       <r>   -3.1731    1.0000 </r>
       <r>   -3.1713    1.0000 </r>
       <r>   -3.1699    1.0000 </r>
       <r>   -3.1327    1.0000 </r>
       <r>   -3.1057    1.0000 </r>
       <r>   -3.1033    1.0000 </r>
       <r>   -3.1021    1.0000 </r>
       <r>   -3.1010    1.0000 </r>
       <r>   -3.1006    1.0000 </r>
       <r>   -3.0990    1.0000 </r>
       <r>   -3.0942    1.0000 </r>
       <r>   -3.0930    1.0000 </r>
       <r>   -3.0919    1.0000 </r>
       <r>   -3.0911    1.0000 </r>
       <r>   -3.0903    1.0000 </r>
       <r>   -3.0876    1.0000 </r>
       <r>   -3.0531    1.0000 </r>
       <r>   -2.9689    1.0000 </r>
       <r>   -2.9686    1.0000 </r>
       <r>   -2.9686    1.0000 </r>
       <r>   -2.9685    1.0000 </r>
       <r>   -2.9685    1.0000 </r>
       <r>   -2.9683    1.0000 </r>
       <r>   -2.9634    1.0000 </r>
       <r>   -2.9300    1.0000 </r>
       <r>   -2.9262    1.0000 </r>
       <r>   -2.9243    1.0000 </r>
       <r>   -2.9243    1.0000 </r>
       <r>   -2.9218    1.0000 </r>
       <r>   -2.9184    1.0000 </r>
       <r>   -2.9163    1.0000 </r>
       <r>   -2.9163    1.0000 </r>
       <r>   -2.9067    1.0000 </r>
       <r>   -2.9058    1.0000 </r>
       <r>   -2.8997    1.0000 </r>
       <r>   -2.8973    1.0000 </r>
       <r>   -2.8909    1.0000 </r>
       <r>   -2.8906    1.0000 </r>
       <r>   -2.8893    1.0000 </r>
       <r>   -2.8873    1.0000 </r>
       <r>   -2.8791    1.0000 </r>
       <r>   -2.8790    1.0000 </r>
       <r>   -2.8772    1.0000 </r>
       <r>   -2.8767    1.0000 </r>
       <r>   -2.8767    1.0000 </r>
       <r>   -2.8762    1.0000 </r>
       <r>   -2.8743    1.0000 </r>
       <r>   -2.8722    1.0000 </r>
       <r>   -2.7724    1.0000 </r>
       <r>   -2.7723    1.0000 </r>
       <r>   -2.7721    1.0000 </r>
       <r>   -2.7710    1.0000 </r>
       <r>   -2.7676    1.0000 </r>
       <r>   -2.7675    1.0000 </r>
       <r>   -2.7622    1.0000 </r>
       <r>   -2.7622    1.0000 </r>
       <r>   -2.7593    1.0000 </r>
       <r>   -2.7589    1.0000 </r>
       <r>   -2.7582    1.0000 </r>
       <r>   -2.7582    1.0000 </r>
       <r>   -2.6303    1.0000 </r>
       <r>   -2.4847    1.0000 </r>
       <r>   -2.4842    1.0000 </r>
       <r>   -2.3173    1.0000 </r>
       <r>   -2.3094    1.0000 </r>
       <r>   -2.3086    1.0000 </r>
       <r>   -2.2832    1.0000 </r>
       <r>   -2.2826    1.0000 </r>
       <r>   -2.2676    1.0000 </r>
       <r>   -2.2330    1.0000 </r>
       <r>   -2.2322    1.0000 </r>
       <r>   -2.2225    1.0000 </r>
       <r>   -2.2208    1.0000 </r>
       <r>   -2.2173    1.0000 </r>
       <r>   -2.2099    1.0000 </r>
       <r>   -2.0977    1.0000 </r>
       <r>   -2.0903    1.0000 </r>
       <r>   -2.0901    1.0000 </r>
       <r>   -1.9562    1.0000 </r>
       <r>   -1.9488    1.0000 </r>
       <r>   -1.9488    1.0000 </r>
       <r>   -1.9438    1.0000 </r>
       <r>   -1.9432    1.0000 </r>
       <r>   -1.8992    1.0000 </r>
       <r>   -1.8470    1.0000 </r>
       <r>   -1.7848    1.0000 </r>
       <r>   -1.7843    1.0000 </r>
       <r>   -1.7817    1.0000 </r>
       <r>   -1.7153    1.0000 </r>
       <r>   -1.7135    1.0000 </r>
       <r>   -1.7128    1.0000 </r>
       <r>   -1.7119    1.0000 </r>
       <r>   -1.7113    1.0000 </r>
       <r>   -1.7096    1.0000 </r>
       <r>   -1.5807    1.0000 </r>
       <r>   -1.5807    1.0000 </r>
       <r>   -1.5806    1.0000 </r>
       <r>   -1.5480    1.0000 </r>
       <r>   -1.5455    1.0000 </r>
       <r>   -1.5454    1.0000 </r>
       <r>   -1.5227    1.0000 </r>
       <r>   -1.5226    1.0000 </r>
       <r>   -1.5051    1.0000 </r>
       <r>   -1.5024    1.0000 </r>
       <r>   -1.5012    1.0000 </r>
       <r>   -1.4995    1.0000 </r>
       <r>   -1.4989    1.0000 </r>
       <r>   -1.4985    1.0000 </r>
       <r>   -1.4975    1.0000 </r>
       <r>   -1.4963    1.0000 </r>
       <r>   -1.4962    1.0000 </r>
       <r>   -1.4925    1.0000 </r>
       <r>   -1.4912    1.0000 </r>
       <r>   -1.4899    1.0000 </r>
       <r>   -1.4864    1.0000 </r>
       <r>   -1.4856    1.0000 </r>
       <r>   -1.4777    1.0000 </r>
       <r>   -1.3674    1.0000 </r>
       <r>   -1.3674    1.0000 </r>
       <r>   -1.3674    1.0000 </r>
       <r>   -1.3674    1.0000 </r>
       <r>   -1.3671    1.0000 </r>
       <r>   -1.3671    1.0000 </r>
       <r>   -1.3578    1.0000 </r>
       <r>   -1.3563    1.0000 </r>
       <r>   -1.3558    1.0000 </r>
       <r>   -1.2581    1.0000 </r>
       <r>   -1.2409    1.0000 </r>
       <r>   -1.2407    1.0000 </r>
       <r>   -1.1928    1.0000 </r>
       <r>   -1.1836    1.0000 </r>
       <r>   -1.1830    1.0000 </r>
       <r>   -1.1556    1.0000 </r>
       <r>   -1.1537    1.0000 </r>
       <r>   -1.1529    1.0000 </r>
       <r>   -1.1515    1.0000 </r>
       <r>   -1.1505    1.0000 </r>
       <r>   -1.1501    1.0000 </r>
       <r>   -1.1495    1.0000 </r>
       <r>   -1.1491    1.0000 </r>
       <r>   -1.1485    1.0000 </r>
       <r>   -1.1482    1.0000 </r>
       <r>   -1.1478    1.0000 </r>
       <r>   -1.1470    1.0000 </r>
       <r>   -1.1458    1.0000 </r>
       <r>   -1.1419    1.0000 </r>
       <r>   -1.1363    1.0000 </r>
       <r>   -1.1286    1.0000 </r>
       <r>   -1.1184    1.0000 </r>
       <r>   -1.1171    1.0000 </r>
       <r>   -1.1052    1.0000 </r>
       <r>   -1.0195    1.0000 </r>
       <r>   -1.0194    1.0000 </r>
       <r>   -1.0193    1.0000 </r>
       <r>   -1.0191    1.0000 </r>
       <r>   -1.0190    1.0000 </r>
       <r>   -1.0189    1.0000 </r>
       <r>   -0.9665    1.0000 </r>
       <r>   -0.9657    1.0000 </r>
       <r>   -0.9612    1.0000 </r>
       <r>   -0.9496    1.0000 </r>
       <r>   -0.9357    1.0000 </r>
       <r>   -0.9354    1.0000 </r>
       <r>   -0.8732    1.0000 </r>
       <r>   -0.8695    1.0000 </r>
       <r>   -0.8690    1.0000 </r>
       <r>   -0.8642    1.0000 </r>
       <r>   -0.8541    1.0000 </r>
       <r>   -0.8527    1.0000 </r>
       <r>   -0.8516    1.0000 </r>
       <r>   -0.8509    1.0000 </r>
       <r>   -0.8498    1.0000 </r>
       <r>   -0.8496    1.0000 </r>
       <r>   -0.8467    1.0000 </r>
       <r>   -0.8442    1.0000 </r>
       <r>   -0.8437    1.0000 </r>
       <r>   -0.8414    1.0000 </r>
       <r>   -0.8397    1.0000 </r>
       <r>   -0.8339    1.0000 </r>
       <r>   -0.8308    1.0000 </r>
       <r>   -0.8246    1.0000 </r>
       <r>   -0.7250    1.0000 </r>
       <r>   -0.7239    1.0000 </r>
       <r>   -0.7238    1.0000 </r>
       <r>   -0.7191    1.0000 </r>
       <r>   -0.7189    1.0000 </r>
       <r>   -0.7164    1.0000 </r>
       <r>   -0.4758    1.0000 </r>
       <r>   -0.4751    1.0000 </r>
       <r>   -0.4151    1.0000 </r>
       <r>   -0.3478    1.0000 </r>
       <r>   -0.3473    1.0000 </r>
       <r>   -0.3390    1.0000 </r>
       <r>   -0.3348    1.0000 </r>
       <r>   -0.2609    1.0000 </r>
       <r>   -0.2595    1.0000 </r>
       <r>   -0.2593    1.0000 </r>
       <r>   -0.2492    1.0000 </r>
       <r>   -0.2458    1.0000 </r>
       <r>   -0.2450    1.0000 </r>
       <r>   -0.2422    1.0000 </r>
       <r>   -0.2414    1.0000 </r>
       <r>   -0.0888    1.0000 </r>
       <r>   -0.0886    1.0000 </r>
       <r>   -0.0389    1.0000 </r>
       <r>    0.0112    1.0000 </r>
       <r>    0.0119    1.0000 </r>
       <r>    0.0543    1.0000 </r>
       <r>    0.0847    1.0000 </r>
       <r>    0.0865    1.0000 </r>
       <r>    0.0872    1.0000 </r>
       <r>    0.1949    1.0000 </r>
       <r>    0.1959    1.0000 </r>
       <r>    0.2123    1.0000 </r>
       <r>    0.2146    1.0000 </r>
       <r>    0.2171    1.0000 </r>
       <r>    0.2183    1.0000 </r>
       <r>    0.2187    1.0000 </r>
       <r>    0.2217    1.0000 </r>
       <r>    0.2338    1.0000 </r>
       <r>    0.2376    1.0000 </r>
       <r>    0.2378    1.0000 </r>
       <r>    0.2409    1.0000 </r>
       <r>    0.2460    1.0000 </r>
       <r>    0.2483    1.0000 </r>
       <r>    0.3535    1.0000 </r>
       <r>    0.3550    1.0000 </r>
       <r>    0.3552    1.0000 </r>
       <r>    0.3604    1.0000 </r>
       <r>    0.3605    1.0000 </r>
       <r>    0.3631    1.0000 </r>
       <r>    0.3643    1.0000 </r>
       <r>    0.5160    1.0000 </r>
       <r>    0.5616    1.0000 </r>
       <r>    0.5622    1.0000 </r>
       <r>    0.6107    1.0000 </r>
       <r>    0.6115    1.0000 </r>
       <r>    0.6162    1.0000 </r>
       <r>    0.6194    1.0000 </r>
       <r>    0.6339    1.0000 </r>
       <r>    0.6351    1.0000 </r>
       <r>    0.6401    1.0000 </r>
       <r>    0.6415    1.0000 </r>
       <r>    0.6686    1.0000 </r>
       <r>    0.6797    1.0000 </r>
       <r>    0.6831    1.0000 </r>
       <r>    0.6840    1.0000 </r>
       <r>    0.7437    1.0000 </r>
       <r>    0.7438    1.0000 </r>
       <r>    0.8621    1.0000 </r>
       <r>    0.8626    1.0000 </r>
       <r>    0.8707    1.0000 </r>
       <r>    1.0542    1.0000 </r>
       <r>    1.0546    1.0000 </r>
       <r>    1.1313    1.0000 </r>
       <r>    1.1340    1.0000 </r>
       <r>    1.1341    1.0000 </r>
       <r>    1.1346    1.0000 </r>
       <r>    1.1375    1.0000 </r>
       <r>    1.1645    1.0000 </r>
       <r>    1.1937    1.0000 </r>
       <r>    1.1940    1.0000 </r>
       <r>    1.2280    1.0000 </r>
       <r>    1.2443    1.0000 </r>
       <r>    1.2446    1.0000 </r>
       <r>    1.2596    1.0000 </r>
       <r>    1.2615    1.0000 </r>
       <r>    1.2615    1.0000 </r>
       <r>    1.2715    1.0000 </r>
       <r>    1.2757    1.0000 </r>
       <r>    1.2821    1.0000 </r>
       <r>    1.2836    1.0000 </r>
       <r>    1.2842    1.0000 </r>
       <r>    1.2845    1.0000 </r>
       <r>    1.3009    1.0000 </r>
       <r>    1.3023    1.0000 </r>
       <r>    1.3236    1.0000 </r>
       <r>    1.3256    1.0000 </r>
       <r>    1.3345    1.0000 </r>
       <r>    1.3367    1.0000 </r>
       <r>    1.3412    1.0000 </r>
       <r>    1.3442    1.0000 </r>
       <r>    1.4063    1.0000 </r>
       <r>    1.4065    1.0000 </r>
       <r>    1.4099    1.0000 </r>
       <r>    1.4855    1.0000 </r>
       <r>    1.4866    1.0000 </r>
       <r>    1.4868    1.0000 </r>
       <r>    1.8109    1.0000 </r>
       <r>    1.8116    1.0000 </r>
       <r>    1.8405    1.0000 </r>
       <r>    1.8698    1.0000 </r>
       <r>    1.8978    1.0000 </r>
       <r>    1.8988    1.0000 </r>
       <r>    1.9045    1.0000 </r>
       <r>    1.9055    1.0000 </r>
       <r>    1.9285    1.0000 </r>
       <r>    1.9336    1.0000 </r>
       <r>    1.9348    1.0000 </r>
       <r>    1.9372    1.0000 </r>
       <r>    1.9642    1.0000 </r>
       <r>    1.9644    1.0000 </r>
       <r>    1.9651    1.0000 </r>
       <r>    2.0557    1.0000 </r>
       <r>    2.0559    1.0000 </r>
       <r>    2.3306    1.0000 </r>
       <r>    2.3387    1.0000 </r>
       <r>    2.4110    1.0000 </r>
       <r>    2.4147    1.0000 </r>
       <r>    2.5037    1.0000 </r>
       <r>    2.5037    1.0000 </r>
       <r>    4.6637    1.0000 </r>
       <r>    5.8765    0.0000 </r>
       <r>    6.4866    0.0000 </r>
       <r>    6.4870    0.0000 </r>
       <r>    6.6758    0.0000 </r>
       <r>    6.7117    0.0000 </r>
       <r>    7.0087    0.0000 </r>
       <r>    7.0348    0.0000 </r>
       <r>    7.0351    0.0000 </r>
       <r>    7.0854    0.0000 </r>
       <r>    7.0857    0.0000 </r>
       <r>    7.1679    0.0000 </r>
       <r>    7.1694    0.0000 </r>
       <r>    7.1742    0.0000 </r>
       <r>    7.2459    0.0000 </r>
       <r>    7.2844    0.0000 </r>
       <r>    7.2846    0.0000 </r>
       <r>    7.3026    0.0000 </r>
       <r>    7.3531    0.0000 </r>
       <r>    7.3571    0.0000 </r>
       <r>    7.3574    0.0000 </r>
       <r>    7.3946    0.0000 </r>
       <r>    7.4338    0.0000 </r>
       <r>    7.4341    0.0000 </r>
       <r>    7.5394    0.0000 </r>
       <r>    7.5405    0.0000 </r>
       <r>    7.5891    0.0000 </r>
       <r>    7.5915    0.0000 </r>
       <r>    7.5916    0.0000 </r>
       <r>    7.6070    0.0000 </r>
       <r>    7.6840    0.0000 </r>
       <r>    7.7742    0.0000 </r>
       <r>    7.8088    0.0000 </r>
       <r>    7.8099    0.0000 </r>
       <r>    7.8289    0.0000 </r>
       <r>    7.8448    0.0000 </r>
       <r>    7.8467    0.0000 </r>
       <r>    7.8549    0.0000 </r>
       <r>    7.8552    0.0000 </r>
       <r>    7.8718    0.0000 </r>
       <r>    7.8833    0.0000 </r>
       <r>    7.8849    0.0000 </r>
       <r>    7.8851    0.0000 </r>
       <r>    7.8861    0.0000 </r>
       <r>    7.8884    0.0000 </r>
       <r>    7.9063    0.0000 </r>
       <r>    7.9069    0.0000 </r>
       <r>    7.9069    0.0000 </r>
       <r>    7.9150    0.0000 </r>
       <r>    7.9160    0.0000 </r>
       <r>    7.9163    0.0000 </r>
       <r>    7.9225    0.0000 </r>
       <r>    7.9280    0.0000 </r>
       <r>    7.9338    0.0000 </r>
       <r>    7.9343    0.0000 </r>
       <r>    8.0374    0.0000 </r>
       <r>    8.0415    0.0000 </r>
       <r>    8.0422    0.0000 </r>
       <r>    8.3776    0.0000 </r>
       <r>    8.4260    0.0000 </r>
       <r>    8.4269    0.0000 </r>
       <r>    8.4305    0.0000 </r>
       <r>    8.4310    0.0000 </r>
       <r>    8.4339    0.0000 </r>
       <r>    8.4624    0.0000 </r>
       <r>    8.4634    0.0000 </r>
       <r>    8.4791    0.0000 </r>
       <r>    8.4803    0.0000 </r>
       <r>    8.4988    0.0000 </r>
       <r>    8.5024    0.0000 </r>
       <r>    8.5026    0.0000 </r>
       <r>    8.5061    0.0000 </r>
       <r>    8.5369    0.0000 </r>
       <r>    8.5382    0.0000 </r>
       <r>    8.5671    0.0000 </r>
       <r>    8.6751    0.0000 </r>
       <r>    8.8634    0.0000 </r>
       <r>    9.1433    0.0000 </r>
       <r>    9.1434    0.0000 </r>
       <r>    9.1891    0.0000 </r>
       <r>    9.1893    0.0000 </r>
       <r>    9.2207    0.0000 </r>
       <r>    9.2347    0.0000 </r>
       <r>    9.2354    0.0000 </r>
       <r>    9.5080    0.0000 </r>
       <r>    9.5249    0.0000 </r>
       <r>    9.5254    0.0000 </r>
       <r>    9.5277    0.0000 </r>
       <r>    9.5301    0.0000 </r>
       <r>    9.5303    0.0000 </r>
       <r>    9.5330    0.0000 </r>
       <r>    9.5374    0.0000 </r>
       <r>    9.5374    0.0000 </r>
       <r>    9.5399    0.0000 </r>
       <r>    9.5979    0.0000 </r>
       <r>    9.5991    0.0000 </r>
       <r>    9.8689    0.0000 </r>
       <r>    9.9625    0.0000 </r>
       <r>   10.0324    0.0000 </r>
       <r>   10.1167    0.0000 </r>
       <r>   10.1204    0.0000 </r>
       <r>   10.1275    0.0000 </r>
       <r>   10.1277    0.0000 </r>
       <r>   10.1385    0.0000 </r>
       <r>   10.1423    0.0000 </r>
       <r>   10.1538    0.0000 </r>
       <r>   10.1568    0.0000 </r>
       <r>   10.1568    0.0000 </r>
       <r>   10.1684    0.0000 </r>
       <r>   10.2278    0.0000 </r>
       <r>   10.2415    0.0000 </r>
       <r>   10.2873    0.0000 </r>
       <r>   10.2886    0.0000 </r>
       <r>   10.3205    0.0000 </r>
       <r>   10.3216    0.0000 </r>
       <r>   10.3625    0.0000 </r>
       <r>   10.4395    0.0000 </r>
       <r>   10.4404    0.0000 </r>
       <r>   10.4424    0.0000 </r>
       <r>   10.4626    0.0000 </r>
       <r>   10.4629    0.0000 </r>
       <r>   10.4681    0.0000 </r>
       <r>   10.4829    0.0000 </r>
       <r>   10.5080    0.0000 </r>
       <r>   10.5175    0.0000 </r>
       <r>   10.5186    0.0000 </r>
       <r>   10.5220    0.0000 </r>
       <r>   10.5248    0.0000 </r>
       <r>   10.5731    0.0000 </r>
       <r>   10.5739    0.0000 </r>
       <r>   10.5751    0.0000 </r>
       <r>   10.5773    0.0000 </r>
       <r>   10.5782    0.0000 </r>
       <r>   10.5915    0.0000 </r>
       <r>   10.6024    0.0000 </r>
       <r>   10.6047    0.0000 </r>
       <r>   10.6491    0.0000 </r>
       <r>   10.7351    0.0000 </r>
       <r>   10.8294    0.0000 </r>
       <r>   10.8520    0.0000 </r>
       <r>   10.8733    0.0000 </r>
       <r>   10.8787    0.0000 </r>
       <r>   10.8835    0.0000 </r>
       <r>   10.8863    0.0000 </r>
       <r>   10.9030    0.0000 </r>
       <r>   10.9257    0.0000 </r>
       <r>   10.9429    0.0000 </r>
       <r>   10.9538    0.0000 </r>
       <r>   10.9569    0.0000 </r>
       <r>   10.9644    0.0000 </r>
       <r>   12.1154    0.0000 </r>
       <r>   12.3901    0.0000 </r>
      </set>
      <set comment="kpoint 2">
       <r>  -17.2950    1.0000 </r>
       <r>  -15.7762    1.0000 </r>
       <r>  -15.7311    1.0000 </r>
       <r>  -15.4197    1.0000 </r>
       <r>  -15.3141    1.0000 </r>
       <r>  -15.2504    1.0000 </r>
       <r>  -15.2295    1.0000 </r>
       <r>  -15.1966    1.0000 </r>
       <r>  -15.1885    1.0000 </r>
       <r>  -15.1019    1.0000 </r>
       <r>  -15.0678    1.0000 </r>
       <r>  -15.0263    1.0000 </r>
       <r>  -15.0077    1.0000 </r>
       <r>  -14.9553    1.0000 </r>
       <r>  -14.9471    1.0000 </r>
       <r>  -14.9379    1.0000 </r>
       <r>  -14.9348    1.0000 </r>
       <r>  -14.8567    1.0000 </r>
       <r>  -14.7536    1.0000 </r>
       <r>  -14.7520    1.0000 </r>
       <r>  -14.6203    1.0000 </r>
       <r>  -14.5695    1.0000 </r>
       <r>  -14.5554    1.0000 </r>
       <r>  -14.4593    1.0000 </r>
       <r>  -14.4459    1.0000 </r>
       <r>  -14.4431    1.0000 </r>
       <r>  -14.4302    1.0000 </r>
       <r>  -14.4250    1.0000 </r>
       <r>  -14.4205    1.0000 </r>
       <r>  -14.4159    1.0000 </r>
       <r>  -14.4146    1.0000 </r>
       <r>  -14.3551    1.0000 </r>
       <r>  -14.2472    1.0000 </r>
       <r>  -14.2423    1.0000 </r>
       <r>  -14.2395    1.0000 </r>
       <r>  -14.2392    1.0000 </r>
       <r>  -14.2010    1.0000 </r>
       <r>  -14.1913    1.0000 </r>
       <r>  -14.1672    1.0000 </r>
       <r>  -14.1662    1.0000 </r>
       <r>  -14.1218    1.0000 </r>
       <r>  -14.0362    1.0000 </r>
       <r>  -13.9968    1.0000 </r>
       <r>  -13.9945    1.0000 </r>
       <r>  -13.9470    1.0000 </r>
       <r>  -13.7939    1.0000 </r>
       <r>  -13.7365    1.0000 </r>
       <r>  -13.7130    1.0000 </r>
       <r>  -13.7099    1.0000 </r>
       <r>  -13.7048    1.0000 </r>
       <r>  -13.6969    1.0000 </r>
       <r>  -13.6945    1.0000 </r>
       <r>  -13.6741    1.0000 </r>
       <r>  -13.6737    1.0000 </r>
       <r>  -13.6083    1.0000 </r>
       <r>  -13.5312    1.0000 </r>
       <r>  -13.5302    1.0000 </r>
       <r>  -13.5157    1.0000 </r>
       <r>  -13.5154    1.0000 </r>
       <r>  -13.5059    1.0000 </r>
       <r>  -13.3595    1.0000 </r>
       <r>  -13.3380    1.0000 </r>
       <r>  -13.2555    1.0000 </r>
       <r>  -13.2231    1.0000 </r>
       <r>  -13.1144    1.0000 </r>
       <r>  -13.0604    1.0000 </r>
       <r>  -13.0542    1.0000 </r>
       <r>  -13.0517    1.0000 </r>
       <r>  -13.0434    1.0000 </r>
       <r>  -13.0400    1.0000 </r>
       <r>  -13.0377    1.0000 </r>
       <r>  -13.0352    1.0000 </r>
       <r>  -13.0334    1.0000 </r>
       <r>  -12.9766    1.0000 </r>
       <r>  -12.9316    1.0000 </r>
       <r>  -12.8893    1.0000 </r>
       <r>  -12.8845    1.0000 </r>
       <r>  -12.8819    1.0000 </r>
       <r>  -12.8812    1.0000 </r>
       <r>  -12.8769    1.0000 </r>
       <r>  -12.8737    1.0000 </r>
       <r>  -12.8731    1.0000 </r>
       <r>  -12.8709    1.0000 </r>
       <r>  -12.8692    1.0000 </r>
       <r>  -12.8671    1.0000 </r>
       <r>  -12.8627    1.0000 </r>
       <r>  -12.8613    1.0000 </r>
       <r>  -12.8606    1.0000 </r>
       <r>  -12.7161    1.0000 </r>
       <r>  -12.7140    1.0000 </r>
       <r>  -12.7139    1.0000 </r>
       <r>  -12.7133    1.0000 </r>
       <r>  -12.6821    1.0000 </r>
       <r>  -12.6097    1.0000 </r>
       <r>  -12.5915    1.0000 </r>
       <r>  -12.5840    1.0000 </r>
       <r>  -12.5692    1.0000 </r>
       <r>  -12.5548    1.0000 </r>
       <r>  -12.5336    1.0000 </r>
       <r>  -12.4987    1.0000 </r>
       <r>  -12.4379    1.0000 </r>
       <r>  -12.4317    1.0000 </r>
       <r>  -12.4243    1.0000 </r>
       <r>  -12.4200    1.0000 </r>
       <r>  -12.3359    1.0000 </r>
       <r>  -12.3323    1.0000 </r>
       <r>  -12.3282    1.0000 </r>
       <r>  -12.3235    1.0000 </r>
       <r>  -12.2438    1.0000 </r>
       <r>  -12.2417    1.0000 </r>
       <r>  -12.2392    1.0000 </r>
       <r>  -12.2361    1.0000 </r>
       <r>  -12.2168    1.0000 </r>
       <r>  -12.2155    1.0000 </r>
       <r>  -12.2103    1.0000 </r>
       <r>  -12.2082    1.0000 </r>
       <r>  -12.1767    1.0000 </r>
       <r>  -12.1766    1.0000 </r>
       <r>  -12.1694    1.0000 </r>
       <r>  -12.1692    1.0000 </r>
       <r>  -12.0958    1.0000 </r>
       <r>  -12.0956    1.0000 </r>
       <r>  -12.0895    1.0000 </r>
       <r>  -12.0873    1.0000 </r>
       <r>  -12.0864    1.0000 </r>
       <r>  -12.0846    1.0000 </r>
       <r>  -11.9513    1.0000 </r>
       <r>  -11.9490    1.0000 </r>
       <r>  -11.9462    1.0000 </r>
       <r>  -11.9447    1.0000 </r>
       <r>  -11.8160    1.0000 </r>
       <r>  -11.8153    1.0000 </r>
       <r>  -11.8081    1.0000 </r>
       <r>  -11.8065    1.0000 </r>
       <r>  -11.8055    1.0000 </r>
       <r>  -11.7987    1.0000 </r>
       <r>  -11.7840    1.0000 </r>
       <r>  -11.7838    1.0000 </r>
       <r>  -11.7804    1.0000 </r>
       <r>  -11.7802    1.0000 </r>
       <r>  -11.6684    1.0000 </r>
       <r>  -11.6684    1.0000 </r>
       <r>  -11.6613    1.0000 </r>
       <r>  -11.6612    1.0000 </r>
       <r>   -8.3642    1.0000 </r>
       <r>   -7.2848    1.0000 </r>
       <r>   -7.2717    1.0000 </r>
       <r>   -6.7940    1.0000 </r>
       <r>   -6.7050    1.0000 </r>
       <r>   -6.6831    1.0000 </r>
       <r>   -6.4380    1.0000 </r>
       <r>   -6.4061    1.0000 </r>
       <r>   -6.3219    1.0000 </r>
       <r>   -6.3082    1.0000 </r>
       <r>   -6.3059    1.0000 </r>
       <r>   -6.3049    1.0000 </r>
       <r>   -6.3008    1.0000 </r>
       <r>   -6.2870    1.0000 </r>
       <r>   -6.2734    1.0000 </r>
       <r>   -6.2724    1.0000 </r>
       <r>   -6.2712    1.0000 </r>
       <r>   -6.2709    1.0000 </r>
       <r>   -6.2170    1.0000 </r>
       <r>   -6.2148    1.0000 </r>
       <r>   -6.2136    1.0000 </r>
       <r>   -6.2042    1.0000 </r>
       <r>   -6.1983    1.0000 </r>
       <r>   -6.1956    1.0000 </r>
       <r>   -6.1587    1.0000 </r>
       <r>   -6.1586    1.0000 </r>
       <r>   -6.1490    1.0000 </r>
       <r>   -6.1489    1.0000 </r>
       <r>   -6.0725    1.0000 </r>
       <r>   -6.0710    1.0000 </r>
       <r>   -5.9324    1.0000 </r>
       <r>   -5.9301    1.0000 </r>
       <r>   -5.9073    1.0000 </r>
       <r>   -5.9073    1.0000 </r>
       <r>   -5.8440    1.0000 </r>
       <r>   -5.7893    1.0000 </r>
       <r>   -5.7819    1.0000 </r>
       <r>   -5.7741    1.0000 </r>
       <r>   -5.7677    1.0000 </r>
       <r>   -5.7648    1.0000 </r>
       <r>   -5.7642    1.0000 </r>
       <r>   -5.7628    1.0000 </r>
       <r>   -5.7622    1.0000 </r>
       <r>   -5.7569    1.0000 </r>
       <r>   -5.7526    1.0000 </r>
       <r>   -5.7512    1.0000 </r>
       <r>   -5.7432    1.0000 </r>
       <r>   -5.6846    1.0000 </r>
       <r>   -5.6546    1.0000 </r>
       <r>   -5.6420    1.0000 </r>
       <r>   -5.6229    1.0000 </r>
       <r>   -5.6228    1.0000 </r>
       <r>   -5.6196    1.0000 </r>
       <r>   -5.6196    1.0000 </r>
       <r>   -5.2307    1.0000 </r>
       <r>   -5.2265    1.0000 </r>
       <r>   -5.2243    1.0000 </r>
       <r>   -5.2235    1.0000 </r>
       <r>   -5.2217    1.0000 </r>
       <r>   -5.2213    1.0000 </r>
       <r>   -5.2209    1.0000 </r>
       <r>   -5.2201    1.0000 </r>
       <r>   -5.2190    1.0000 </r>
       <r>   -5.2182    1.0000 </r>
       <r>   -5.2177    1.0000 </r>
       <r>   -5.2139    1.0000 </r>
       <r>   -5.1150    1.0000 </r>
       <r>   -5.1108    1.0000 </r>
       <r>   -5.0908    1.0000 </r>
       <r>   -5.0906    1.0000 </r>
       <r>   -5.0877    1.0000 </r>
       <r>   -5.0876    1.0000 </r>
       <r>   -5.0873    1.0000 </r>
       <r>   -5.0871    1.0000 </r>
       <r>   -5.0260    1.0000 </r>
       <r>   -4.9210    1.0000 </r>
       <r>   -4.8318    1.0000 </r>
       <r>   -4.6116    1.0000 </r>
       <r>   -4.5546    1.0000 </r>
       <r>   -4.5413    1.0000 </r>
       <r>   -4.4774    1.0000 </r>
       <r>   -4.4739    1.0000 </r>
       <r>   -4.4731    1.0000 </r>
       <r>   -4.4709    1.0000 </r>
       <r>   -4.4700    1.0000 </r>
       <r>   -4.4693    1.0000 </r>
       <r>   -4.4672    1.0000 </r>
       <r>   -4.4659    1.0000 </r>
       <r>   -4.3413    1.0000 </r>
       <r>   -4.3411    1.0000 </r>
       <r>   -4.3407    1.0000 </r>
       <r>   -4.3406    1.0000 </r>
       <r>   -4.3190    1.0000 </r>
       <r>   -4.3163    1.0000 </r>
       <r>   -4.2018    1.0000 </r>
       <r>   -4.0979    1.0000 </r>
       <r>   -4.0882    1.0000 </r>
       <r>   -4.0870    1.0000 </r>
       <r>   -4.0850    1.0000 </r>
       <r>   -4.0841    1.0000 </r>
       <r>   -4.0741    1.0000 </r>
       <r>   -4.0739    1.0000 </r>
       <r>   -4.0719    1.0000 </r>
       <r>   -4.0711    1.0000 </r>
       <r>   -4.0288    1.0000 </r>
       <r>   -3.9501    1.0000 </r>
       <r>   -3.9500    1.0000 </r>
       <r>   -3.9466    1.0000 </r>
       <r>   -3.9465    1.0000 </r>
       <r>   -3.9089    1.0000 </r>
       <r>   -3.8651    1.0000 </r>
       <r>   -3.7857    1.0000 </r>
       <r>   -3.7513    1.0000 </r>
       <r>   -3.6246    1.0000 </r>
       <r>   -3.6210    1.0000 </r>
       <r>   -3.6161    1.0000 </r>
       <r>   -3.6128    1.0000 </r>
       <r>   -3.6037    1.0000 </r>
       <r>   -3.6031    1.0000 </r>
       <r>   -3.5987    1.0000 </r>
       <r>   -3.5981    1.0000 </r>
       <r>   -3.5141    1.0000 </r>
       <r>   -3.4798    1.0000 </r>
       <r>   -3.4794    1.0000 </r>
       <r>   -3.4779    1.0000 </r>
       <r>   -3.4740    1.0000 </r>
       <r>   -3.4739    1.0000 </r>
       <r>   -3.4685    1.0000 </r>
       <r>   -3.4681    1.0000 </r>
       <r>   -3.4651    1.0000 </r>
       <r>   -3.4644    1.0000 </r>
       <r>   -3.4507    1.0000 </r>
       <r>   -3.3496    1.0000 </r>
       <r>   -3.3383    1.0000 </r>
       <r>   -3.3382    1.0000 </r>
       <r>   -3.1561    1.0000 </r>
       <r>   -3.1318    1.0000 </r>
       <r>   -3.0975    1.0000 </r>
       <r>   -3.0765    1.0000 </r>
       <r>   -3.0746    1.0000 </r>
       <r>   -3.0696    1.0000 </r>
       <r>   -3.0685    1.0000 </r>
       <r>   -2.9931    1.0000 </r>
       <r>   -2.9383    1.0000 </r>
       <r>   -2.9375    1.0000 </r>
       <r>   -2.9329    1.0000 </r>
       <r>   -2.8561    1.0000 </r>
       <r>   -2.8113    1.0000 </r>
       <r>   -2.7791    1.0000 </r>
       <r>   -2.7707    1.0000 </r>
       <r>   -2.7701    1.0000 </r>
       <r>   -2.7566    1.0000 </r>
       <r>   -2.7538    1.0000 </r>
       <r>   -2.7363    1.0000 </r>
       <r>   -2.7262    1.0000 </r>
       <r>   -2.6831    1.0000 </r>
       <r>   -2.6794    1.0000 </r>
       <r>   -2.6688    1.0000 </r>
       <r>   -2.6675    1.0000 </r>
       <r>   -2.6674    1.0000 </r>
       <r>   -2.5441    1.0000 </r>
       <r>   -2.5438    1.0000 </r>
       <r>   -2.5235    1.0000 </r>
       <r>   -2.5221    1.0000 </r>
       <r>   -2.5124    1.0000 </r>
       <r>   -2.4608    1.0000 </r>
       <r>   -2.4246    1.0000 </r>
       <r>   -2.4157    1.0000 </r>
       <r>   -2.3851    1.0000 </r>
       <r>   -2.3781    1.0000 </r>
       <r>   -2.3749    1.0000 </r>
       <r>   -2.3736    1.0000 </r>
       <r>   -2.3733    1.0000 </r>
       <r>   -2.3726    1.0000 </r>
       <r>   -2.3705    1.0000 </r>
       <r>   -2.3691    1.0000 </r>
       <r>   -2.3684    1.0000 </r>
       <r>   -2.3602    1.0000 </r>
       <r>   -2.3578    1.0000 </r>
       <r>   -2.3554    1.0000 </r>
       <r>   -2.3284    1.0000 </r>
       <r>   -2.2675    1.0000 </r>
       <r>   -2.2410    1.0000 </r>
       <r>   -2.2405    1.0000 </r>
       <r>   -2.2402    1.0000 </r>
       <r>   -2.2400    1.0000 </r>
       <r>   -2.2116    1.0000 </r>
       <r>   -2.1749    1.0000 </r>
       <r>   -2.1446    1.0000 </r>
       <r>   -2.1292    1.0000 </r>
       <r>   -2.0923    1.0000 </r>
       <r>   -2.0888    1.0000 </r>
       <r>   -2.0883    1.0000 </r>
       <r>   -2.0873    1.0000 </r>
       <r>   -2.0549    1.0000 </r>
       <r>   -2.0546    1.0000 </r>
       <r>   -2.0544    1.0000 </r>
       <r>   -2.0538    1.0000 </r>
       <r>   -2.0420    1.0000 </r>
       <r>   -2.0312    1.0000 </r>
       <r>   -2.0100    1.0000 </r>
       <r>   -2.0098    1.0000 </r>
       <r>   -1.9828    1.0000 </r>
       <r>   -1.9430    1.0000 </r>
       <r>   -1.9430    1.0000 </r>
       <r>   -1.9330    1.0000 </r>
       <r>   -1.9330    1.0000 </r>
       <r>   -1.8965    1.0000 </r>
       <r>   -1.8705    1.0000 </r>
       <r>   -1.8679    1.0000 </r>
       <r>   -1.8668    1.0000 </r>
       <r>   -1.8649    1.0000 </r>
       <r>   -1.8572    1.0000 </r>
       <r>   -1.8556    1.0000 </r>
       <r>   -1.8235    1.0000 </r>
       <r>   -1.8206    1.0000 </r>
       <r>   -1.8168    1.0000 </r>
       <r>   -1.8147    1.0000 </r>
       <r>   -1.7858    1.0000 </r>
       <r>   -1.7797    1.0000 </r>
       <r>   -1.7773    1.0000 </r>
       <r>   -1.7763    1.0000 </r>
       <r>   -1.7760    1.0000 </r>
       <r>   -1.7752    1.0000 </r>
       <r>   -1.7749    1.0000 </r>
       <r>   -1.7736    1.0000 </r>
       <r>   -1.7702    1.0000 </r>
       <r>   -1.7167    1.0000 </r>
       <r>   -1.7087    1.0000 </r>
       <r>   -1.7085    1.0000 </r>
       <r>   -1.6961    1.0000 </r>
       <r>   -1.6606    1.0000 </r>
       <r>   -1.6507    1.0000 </r>
       <r>   -1.6452    1.0000 </r>
       <r>   -1.6451    1.0000 </r>
       <r>   -1.6448    1.0000 </r>
       <r>   -1.6447    1.0000 </r>
       <r>   -1.6350    1.0000 </r>
       <r>   -1.6163    1.0000 </r>
       <r>   -1.6130    1.0000 </r>
       <r>   -1.6057    1.0000 </r>
       <r>   -1.6038    1.0000 </r>
       <r>   -1.5827    1.0000 </r>
       <r>   -1.5804    1.0000 </r>
       <r>   -1.5802    1.0000 </r>
       <r>   -1.5667    1.0000 </r>
       <r>   -1.5663    1.0000 </r>
       <r>   -1.5587    1.0000 </r>
       <r>   -1.5536    1.0000 </r>
       <r>   -1.5512    1.0000 </r>
       <r>   -1.4909    1.0000 </r>
       <r>   -1.4556    1.0000 </r>
       <r>   -1.4410    1.0000 </r>
       <r>   -1.4315    1.0000 </r>
       <r>   -1.3505    1.0000 </r>
       <r>   -1.3477    1.0000 </r>
       <r>   -1.3392    1.0000 </r>
       <r>   -1.3380    1.0000 </r>
       <r>   -1.2318    1.0000 </r>
       <r>   -1.2284    1.0000 </r>
       <r>   -1.2270    1.0000 </r>
       <r>   -1.2237    1.0000 </r>
       <r>   -1.2124    1.0000 </r>
       <r>   -1.2113    1.0000 </r>
       <r>   -1.2098    1.0000 </r>
       <r>   -1.2081    1.0000 </r>
       <r>   -1.1909    1.0000 </r>
       <r>   -1.0914    1.0000 </r>
       <r>   -1.0913    1.0000 </r>
       <r>   -1.0861    1.0000 </r>
       <r>   -1.0860    1.0000 </r>
       <r>   -1.0521    1.0000 </r>
       <r>   -1.0269    1.0000 </r>
       <r>   -1.0139    1.0000 </r>
       <r>   -0.9787    1.0000 </r>
       <r>   -0.9335    1.0000 </r>
       <r>   -0.8685    1.0000 </r>
       <r>   -0.8463    1.0000 </r>
       <r>   -0.7811    1.0000 </r>
       <r>   -0.7781    1.0000 </r>
       <r>   -0.7578    1.0000 </r>
       <r>   -0.7251    1.0000 </r>
       <r>   -0.7167    1.0000 </r>
       <r>   -0.7136    1.0000 </r>
       <r>   -0.7119    1.0000 </r>
       <r>   -0.7099    1.0000 </r>
       <r>   -0.6785    1.0000 </r>
       <r>   -0.6767    1.0000 </r>
       <r>   -0.6750    1.0000 </r>
       <r>   -0.6743    1.0000 </r>
       <r>   -0.6630    1.0000 </r>
       <r>   -0.6577    1.0000 </r>
       <r>   -0.6563    1.0000 </r>
       <r>   -0.6265    1.0000 </r>
       <r>   -0.5198    1.0000 </r>
       <r>   -0.5167    1.0000 </r>
       <r>   -0.5165    1.0000 </r>
       <r>   -0.5147    1.0000 </r>
       <r>   -0.4632    1.0000 </r>
       <r>   -0.4605    1.0000 </r>
       <r>   -0.4582    1.0000 </r>
       <r>   -0.4562    1.0000 </r>
       <r>   -0.4550    1.0000 </r>
       <r>   -0.4524    1.0000 </r>
       <r>   -0.4497    1.0000 </r>
       <r>   -0.4484    1.0000 </r>
       <r>   -0.4393    1.0000 </r>
       <r>   -0.4129    1.0000 </r>
       <r>   -0.3842    1.0000 </r>
       <r>   -0.3835    1.0000 </r>
       <r>   -0.3834    1.0000 </r>
       <r>   -0.3708    1.0000 </r>
       <r>   -0.3573    1.0000 </r>
       <r>   -0.3549    1.0000 </r>
       <r>   -0.3534    1.0000 </r>
       <r>   -0.3467    1.0000 </r>
       <r>   -0.3427    1.0000 </r>
       <r>   -0.3421    1.0000 </r>
       <r>   -0.3268    1.0000 </r>
       <r>   -0.3263    1.0000 </r>
       <r>   -0.3262    1.0000 </r>
       <r>   -0.3257    1.0000 </r>
       <r>   -0.2804    1.0000 </r>
       <r>   -0.2256    1.0000 </r>
       <r>   -0.2250    1.0000 </r>
       <r>   -0.1257    1.0000 </r>
       <r>   -0.0464    1.0000 </r>
       <r>    0.0024    1.0000 </r>
       <r>    0.0428    1.0000 </r>
       <r>    0.1172    1.0000 </r>
       <r>    0.1526    1.0000 </r>
       <r>    0.1549    1.0000 </r>
       <r>    0.1674    1.0000 </r>
       <r>    0.1871    1.0000 </r>
       <r>    0.1996    1.0000 </r>
       <r>    0.2119    1.0000 </r>
       <r>    0.2128    1.0000 </r>
       <r>    0.2177    1.0000 </r>
       <r>    0.2201    1.0000 </r>
       <r>    0.2383    1.0000 </r>
       <r>    0.2414    1.0000 </r>
       <r>    0.2863    1.0000 </r>
       <r>    0.3095    1.0000 </r>
       <r>    0.3156    1.0000 </r>
       <r>    0.3414    1.0000 </r>
       <r>    0.3441    1.0000 </r>
       <r>    0.3495    1.0000 </r>
       <r>    0.3514    1.0000 </r>
       <r>    0.3654    1.0000 </r>
       <r>    0.3763    1.0000 </r>
       <r>    0.3947    1.0000 </r>
       <r>    0.4518    1.0000 </r>
       <r>    0.4580    1.0000 </r>
       <r>    0.4601    1.0000 </r>
       <r>    0.4626    1.0000 </r>
       <r>    0.4645    1.0000 </r>
       <r>    0.4659    1.0000 </r>
       <r>    0.4764    1.0000 </r>
       <r>    0.4773    1.0000 </r>
       <r>    0.5561    1.0000 </r>
       <r>    0.5607    1.0000 </r>
       <r>    0.5656    1.0000 </r>
       <r>    0.5854    1.0000 </r>
       <r>    0.5899    1.0000 </r>
       <r>    0.6846    1.0000 </r>
       <r>    0.6938    1.0000 </r>
       <r>    0.7011    1.0000 </r>
       <r>    0.7029    1.0000 </r>
       <r>    0.7234    1.0000 </r>
       <r>    0.8069    1.0000 </r>
       <r>    0.8090    1.0000 </r>
       <r>    0.8391    1.0000 </r>
       <r>    0.8556    1.0000 </r>
       <r>    0.8566    1.0000 </r>
       <r>    0.8803    1.0000 </r>
       <r>    0.8842    1.0000 </r>
       <r>    0.8851    1.0000 </r>
       <r>    0.9158    1.0000 </r>
       <r>    0.9908    1.0000 </r>
       <r>    0.9920    1.0000 </r>
       <r>    0.9937    1.0000 </r>
       <r>    1.0027    1.0000 </r>
       <r>    1.0202    1.0000 </r>
       <r>    1.0321    1.0000 </r>
       <r>    1.0823    1.0000 </r>
       <r>    1.0977    1.0000 </r>
       <r>    1.2066    1.0000 </r>
       <r>    1.2071    1.0000 </r>
       <r>    1.2151    1.0000 </r>
       <r>    1.2335    1.0000 </r>
       <r>    1.2444    1.0000 </r>
       <r>    1.2467    1.0000 </r>
       <r>    1.2543    1.0000 </r>
       <r>    1.2586    1.0000 </r>
       <r>    1.3155    1.0000 </r>
       <r>    1.3162    1.0000 </r>
       <r>    1.3657    1.0000 </r>
       <r>    1.3662    1.0000 </r>
       <r>    1.4009    1.0000 </r>
       <r>    1.4051    1.0000 </r>
       <r>    1.4404    1.0000 </r>
       <r>    1.4408    1.0000 </r>
       <r>    1.4980    1.0000 </r>
       <r>    1.5019    1.0000 </r>
       <r>    1.5371    1.0000 </r>
       <r>    1.5776    1.0000 </r>
       <r>    1.5887    1.0000 </r>
       <r>    1.5893    1.0000 </r>
       <r>    1.7637    1.0000 </r>
       <r>    1.7685    1.0000 </r>
       <r>    1.8460    1.0000 </r>
       <r>    1.8547    1.0000 </r>
       <r>    1.8601    1.0000 </r>
       <r>    1.8619    1.0000 </r>
       <r>    1.9186    1.0000 </r>
       <r>    1.9248    1.0000 </r>
       <r>    1.9537    1.0000 </r>
       <r>    1.9590    1.0000 </r>
       <r>    1.9796    1.0000 </r>
       <r>    1.9800    1.0000 </r>
       <r>    2.0240    1.0000 </r>
       <r>    2.0247    1.0000 </r>
       <r>    2.0631    1.0000 </r>
       <r>    2.0701    1.0000 </r>
       <r>    2.0966    1.0000 </r>
       <r>    2.0970    1.0000 </r>
       <r>    2.2232    1.0000 </r>
       <r>    2.2306    1.0000 </r>
       <r>    2.3991    1.0000 </r>
       <r>    2.4005    1.0000 </r>
       <r>    2.4037    1.0000 </r>
       <r>    2.4060    1.0000 </r>
       <r>    4.6604    1.0000 </r>
       <r>    5.8837    0.0000 </r>
       <r>    6.6162    0.0000 </r>
       <r>    6.6370    0.0000 </r>
       <r>    6.6372    0.0000 </r>
       <r>    6.8794    0.0000 </r>
       <r>    6.9261    0.0000 </r>
       <r>    6.9923    0.0000 </r>
       <r>    7.0035    0.0000 </r>
       <r>    7.0785    0.0000 </r>
       <r>    7.0885    0.0000 </r>
       <r>    7.1516    0.0000 </r>
       <r>    7.2105    0.0000 </r>
       <r>    7.2122    0.0000 </r>
       <r>    7.2271    0.0000 </r>
       <r>    7.2430    0.0000 </r>
       <r>    7.2814    0.0000 </r>
       <r>    7.2963    0.0000 </r>
       <r>    7.3052    0.0000 </r>
       <r>    7.3275    0.0000 </r>
       <r>    7.3329    0.0000 </r>
       <r>    7.3387    0.0000 </r>
       <r>    7.3426    0.0000 </r>
       <r>    7.3438    0.0000 </r>
       <r>    7.3616    0.0000 </r>
       <r>    7.3625    0.0000 </r>
       <r>    7.3843    0.0000 </r>
       <r>    7.3852    0.0000 </r>
       <r>    7.3933    0.0000 </r>
       <r>    7.3945    0.0000 </r>
       <r>    7.4297    0.0000 </r>
       <r>    7.4310    0.0000 </r>
       <r>    7.4583    0.0000 </r>
       <r>    7.6859    0.0000 </r>
       <r>    7.7384    0.0000 </r>
       <r>    7.7416    0.0000 </r>
       <r>    7.7455    0.0000 </r>
       <r>    7.7917    0.0000 </r>
       <r>    7.8210    0.0000 </r>
       <r>    7.8449    0.0000 </r>
       <r>    7.8743    0.0000 </r>
       <r>    7.8891    0.0000 </r>
       <r>    7.9073    0.0000 </r>
       <r>    7.9137    0.0000 </r>
       <r>    7.9195    0.0000 </r>
       <r>    7.9432    0.0000 </r>
       <r>    7.9657    0.0000 </r>
       <r>    8.0639    0.0000 </r>
       <r>    8.1129    0.0000 </r>
       <r>    8.1664    0.0000 </r>
       <r>    8.1701    0.0000 </r>
       <r>    8.1711    0.0000 </r>
       <r>    8.1854    0.0000 </r>
       <r>    8.2090    0.0000 </r>
       <r>    8.2213    0.0000 </r>
       <r>    8.2221    0.0000 </r>
       <r>    8.2326    0.0000 </r>
       <r>    8.2403    0.0000 </r>
       <r>    8.2549    0.0000 </r>
       <r>    8.2827    0.0000 </r>
       <r>    8.3927    0.0000 </r>
       <r>    8.5606    0.0000 </r>
       <r>    8.5802    0.0000 </r>
       <r>    8.5916    0.0000 </r>
       <r>    8.6332    0.0000 </r>
       <r>    8.6343    0.0000 </r>
       <r>    8.6444    0.0000 </r>
       <r>    8.6613    0.0000 </r>
       <r>    8.6695    0.0000 </r>
       <r>    8.6800    0.0000 </r>
       <r>    8.6866    0.0000 </r>
       <r>    8.6890    0.0000 </r>
       <r>    8.7305    0.0000 </r>
       <r>    8.8814    0.0000 </r>
       <r>    8.9559    0.0000 </r>
       <r>    8.9909    0.0000 </r>
       <r>    8.9971    0.0000 </r>
       <r>    9.0086    0.0000 </r>
       <r>    9.0555    0.0000 </r>
       <r>    9.1242    0.0000 </r>
       <r>    9.2097    0.0000 </r>
       <r>    9.2405    0.0000 </r>
       <r>    9.2645    0.0000 </r>
       <r>    9.2671    0.0000 </r>
       <r>    9.2684    0.0000 </r>
       <r>    9.2802    0.0000 </r>
       <r>    9.2950    0.0000 </r>
       <r>    9.2992    0.0000 </r>
       <r>    9.3031    0.0000 </r>
       <r>    9.3195    0.0000 </r>
       <r>    9.3250    0.0000 </r>
       <r>    9.3279    0.0000 </r>
       <r>    9.3294    0.0000 </r>
       <r>    9.3558    0.0000 </r>
       <r>    9.3979    0.0000 </r>
       <r>    9.4731    0.0000 </r>
       <r>    9.6108    0.0000 </r>
       <r>    9.6274    0.0000 </r>
       <r>    9.6813    0.0000 </r>
       <r>    9.6890    0.0000 </r>
       <r>    9.6908    0.0000 </r>
       <r>    9.7178    0.0000 </r>
       <r>    9.8765    0.0000 </r>
       <r>   10.0643    0.0000 </r>
       <r>   10.0886    0.0000 </r>
       <r>   10.0900    0.0000 </r>
       <r>   10.1013    0.0000 </r>
       <r>   10.1416    0.0000 </r>
       <r>   10.1707    0.0000 </r>
       <r>   10.1742    0.0000 </r>
       <r>   10.1896    0.0000 </r>
       <r>   10.1971    0.0000 </r>
       <r>   10.2268    0.0000 </r>
       <r>   10.2359    0.0000 </r>
       <r>   10.2822    0.0000 </r>
       <r>   10.3017    0.0000 </r>
       <r>   10.3035    0.0000 </r>
       <r>   10.3759    0.0000 </r>
       <r>   10.3803    0.0000 </r>
       <r>   10.3898    0.0000 </r>
       <r>   10.3937    0.0000 </r>
       <r>   10.4134    0.0000 </r>
       <r>   10.4369    0.0000 </r>
       <r>   10.4423    0.0000 </r>
       <r>   10.4662    0.0000 </r>
       <r>   10.5078    0.0000 </r>
       <r>   10.5268    0.0000 </r>
       <r>   10.6248    0.0000 </r>
       <r>   10.6680    0.0000 </r>
       <r>   10.7198    0.0000 </r>
       <r>   10.7209    0.0000 </r>
       <r>   10.7229    0.0000 </r>
       <r>   10.7315    0.0000 </r>
       <r>   10.7514    0.0000 </r>
       <r>   10.7585    0.0000 </r>
       <r>   10.7634    0.0000 </r>
       <r>   10.7829    0.0000 </r>
       <r>   10.7874    0.0000 </r>
       <r>   10.7921    0.0000 </r>
       <r>   10.8136    0.0000 </r>
       <r>   10.8151    0.0000 </r>
       <r>   11.2344    0.0000 </r>
       <r>   11.2594    0.0000 </r>
       <r>   11.5014    0.0000 </r>
       <r>   11.5838    0.0000 </r>
       <r>   11.6189    0.0000 </r>
       <r>   11.6653    0.0000 </r>
       <r>   11.7246    0.0000 </r>
       <r>   11.7420    0.0000 </r>
       <r>   11.7758    0.0000 </r>
       <r>   11.7989    0.0000 </r>
       <r>   11.8460    0.0000 </r>
      </set>
      <set comment="kpoint 3">
       <r>  -17.2950    1.0000 </r>
       <r>  -15.7761    1.0000 </r>
       <r>  -15.7311    1.0000 </r>
       <r>  -15.4205    1.0000 </r>
       <r>  -15.3136    1.0000 </r>
       <r>  -15.2510    1.0000 </r>
       <r>  -15.2304    1.0000 </r>
       <r>  -15.1960    1.0000 </r>
       <r>  -15.1872    1.0000 </r>
       <r>  -15.1016    1.0000 </r>
       <r>  -15.0672    1.0000 </r>
       <r>  -15.0267    1.0000 </r>
       <r>  -15.0070    1.0000 </r>
       <r>  -14.9561    1.0000 </r>
       <r>  -14.9467    1.0000 </r>
       <r>  -14.9382    1.0000 </r>
       <r>  -14.9353    1.0000 </r>
       <r>  -14.8567    1.0000 </r>
       <r>  -14.7538    1.0000 </r>
       <r>  -14.7519    1.0000 </r>
       <r>  -14.6205    1.0000 </r>
       <r>  -14.5699    1.0000 </r>
       <r>  -14.5556    1.0000 </r>
       <r>  -14.4593    1.0000 </r>
       <r>  -14.4465    1.0000 </r>
       <r>  -14.4429    1.0000 </r>
       <r>  -14.4287    1.0000 </r>
       <r>  -14.4252    1.0000 </r>
       <r>  -14.4216    1.0000 </r>
       <r>  -14.4158    1.0000 </r>
       <r>  -14.4129    1.0000 </r>
       <r>  -14.3556    1.0000 </r>
       <r>  -14.2469    1.0000 </r>
       <r>  -14.2428    1.0000 </r>
       <r>  -14.2395    1.0000 </r>
       <r>  -14.2387    1.0000 </r>
       <r>  -14.2017    1.0000 </r>
       <r>  -14.1910    1.0000 </r>
       <r>  -14.1675    1.0000 </r>
       <r>  -14.1663    1.0000 </r>
       <r>  -14.1218    1.0000 </r>
       <r>  -14.0359    1.0000 </r>
       <r>  -13.9971    1.0000 </r>
       <r>  -13.9943    1.0000 </r>
       <r>  -13.9467    1.0000 </r>
       <r>  -13.7945    1.0000 </r>
       <r>  -13.7371    1.0000 </r>
       <r>  -13.7135    1.0000 </r>
       <r>  -13.7102    1.0000 </r>
       <r>  -13.7080    1.0000 </r>
       <r>  -13.6962    1.0000 </r>
       <r>  -13.6933    1.0000 </r>
       <r>  -13.6732    1.0000 </r>
       <r>  -13.6716    1.0000 </r>
       <r>  -13.6080    1.0000 </r>
       <r>  -13.5315    1.0000 </r>
       <r>  -13.5311    1.0000 </r>
       <r>  -13.5152    1.0000 </r>
       <r>  -13.5147    1.0000 </r>
       <r>  -13.5056    1.0000 </r>
       <r>  -13.3597    1.0000 </r>
       <r>  -13.3381    1.0000 </r>
       <r>  -13.2555    1.0000 </r>
       <r>  -13.2233    1.0000 </r>
       <r>  -13.1152    1.0000 </r>
       <r>  -13.0604    1.0000 </r>
       <r>  -13.0543    1.0000 </r>
       <r>  -13.0497    1.0000 </r>
       <r>  -13.0453    1.0000 </r>
       <r>  -13.0408    1.0000 </r>
       <r>  -13.0382    1.0000 </r>
       <r>  -13.0345    1.0000 </r>
       <r>  -13.0315    1.0000 </r>
       <r>  -12.9770    1.0000 </r>
       <r>  -12.9318    1.0000 </r>
       <r>  -12.8887    1.0000 </r>
       <r>  -12.8851    1.0000 </r>
       <r>  -12.8823    1.0000 </r>
       <r>  -12.8799    1.0000 </r>
       <r>  -12.8766    1.0000 </r>
       <r>  -12.8735    1.0000 </r>
       <r>  -12.8734    1.0000 </r>
       <r>  -12.8706    1.0000 </r>
       <r>  -12.8689    1.0000 </r>
       <r>  -12.8686    1.0000 </r>
       <r>  -12.8631    1.0000 </r>
       <r>  -12.8608    1.0000 </r>
       <r>  -12.8606    1.0000 </r>
       <r>  -12.7161    1.0000 </r>
       <r>  -12.7143    1.0000 </r>
       <r>  -12.7137    1.0000 </r>
       <r>  -12.7133    1.0000 </r>
       <r>  -12.6824    1.0000 </r>
       <r>  -12.6097    1.0000 </r>
       <r>  -12.5930    1.0000 </r>
       <r>  -12.5854    1.0000 </r>
       <r>  -12.5682    1.0000 </r>
       <r>  -12.5535    1.0000 </r>
       <r>  -12.5331    1.0000 </r>
       <r>  -12.4979    1.0000 </r>
       <r>  -12.4379    1.0000 </r>
       <r>  -12.4318    1.0000 </r>
       <r>  -12.4245    1.0000 </r>
       <r>  -12.4199    1.0000 </r>
       <r>  -12.3359    1.0000 </r>
       <r>  -12.3344    1.0000 </r>
       <r>  -12.3282    1.0000 </r>
       <r>  -12.3251    1.0000 </r>
       <r>  -12.2471    1.0000 </r>
       <r>  -12.2414    1.0000 </r>
       <r>  -12.2408    1.0000 </r>
       <r>  -12.2353    1.0000 </r>
       <r>  -12.2150    1.0000 </r>
       <r>  -12.2147    1.0000 </r>
       <r>  -12.2072    1.0000 </r>
       <r>  -12.2057    1.0000 </r>
       <r>  -12.1767    1.0000 </r>
       <r>  -12.1765    1.0000 </r>
       <r>  -12.1699    1.0000 </r>
       <r>  -12.1697    1.0000 </r>
       <r>  -12.0961    1.0000 </r>
       <r>  -12.0958    1.0000 </r>
       <r>  -12.0892    1.0000 </r>
       <r>  -12.0870    1.0000 </r>
       <r>  -12.0858    1.0000 </r>
       <r>  -12.0844    1.0000 </r>
       <r>  -11.9519    1.0000 </r>
       <r>  -11.9488    1.0000 </r>
       <r>  -11.9462    1.0000 </r>
       <r>  -11.9435    1.0000 </r>
       <r>  -11.8163    1.0000 </r>
       <r>  -11.8153    1.0000 </r>
       <r>  -11.8087    1.0000 </r>
       <r>  -11.8067    1.0000 </r>
       <r>  -11.8062    1.0000 </r>
       <r>  -11.8055    1.0000 </r>
       <r>  -11.7836    1.0000 </r>
       <r>  -11.7827    1.0000 </r>
       <r>  -11.7799    1.0000 </r>
       <r>  -11.7758    1.0000 </r>
       <r>  -11.6687    1.0000 </r>
       <r>  -11.6686    1.0000 </r>
       <r>  -11.6610    1.0000 </r>
       <r>  -11.6609    1.0000 </r>
       <r>   -8.3642    1.0000 </r>
       <r>   -7.2850    1.0000 </r>
       <r>   -7.2715    1.0000 </r>
       <r>   -6.7939    1.0000 </r>
       <r>   -6.7047    1.0000 </r>
       <r>   -6.6829    1.0000 </r>
       <r>   -6.4381    1.0000 </r>
       <r>   -6.4062    1.0000 </r>
       <r>   -6.3227    1.0000 </r>
       <r>   -6.3091    1.0000 </r>
       <r>   -6.3071    1.0000 </r>
       <r>   -6.3061    1.0000 </r>
       <r>   -6.3013    1.0000 </r>
       <r>   -6.2876    1.0000 </r>
       <r>   -6.2731    1.0000 </r>
       <r>   -6.2716    1.0000 </r>
       <r>   -6.2709    1.0000 </r>
       <r>   -6.2662    1.0000 </r>
       <r>   -6.2165    1.0000 </r>
       <r>   -6.2161    1.0000 </r>
       <r>   -6.2137    1.0000 </r>
       <r>   -6.2039    1.0000 </r>
       <r>   -6.1980    1.0000 </r>
       <r>   -6.1960    1.0000 </r>
       <r>   -6.1591    1.0000 </r>
       <r>   -6.1589    1.0000 </r>
       <r>   -6.1486    1.0000 </r>
       <r>   -6.1485    1.0000 </r>
       <r>   -6.0725    1.0000 </r>
       <r>   -6.0709    1.0000 </r>
       <r>   -5.9345    1.0000 </r>
       <r>   -5.9314    1.0000 </r>
       <r>   -5.9072    1.0000 </r>
       <r>   -5.9056    1.0000 </r>
       <r>   -5.8439    1.0000 </r>
       <r>   -5.7896    1.0000 </r>
       <r>   -5.7816    1.0000 </r>
       <r>   -5.7743    1.0000 </r>
       <r>   -5.7683    1.0000 </r>
       <r>   -5.7656    1.0000 </r>
       <r>   -5.7643    1.0000 </r>
       <r>   -5.7640    1.0000 </r>
       <r>   -5.7627    1.0000 </r>
       <r>   -5.7563    1.0000 </r>
       <r>   -5.7519    1.0000 </r>
       <r>   -5.7503    1.0000 </r>
       <r>   -5.7426    1.0000 </r>
       <r>   -5.6846    1.0000 </r>
       <r>   -5.6545    1.0000 </r>
       <r>   -5.6419    1.0000 </r>
       <r>   -5.6231    1.0000 </r>
       <r>   -5.6230    1.0000 </r>
       <r>   -5.6195    1.0000 </r>
       <r>   -5.6194    1.0000 </r>
       <r>   -5.2282    1.0000 </r>
       <r>   -5.2274    1.0000 </r>
       <r>   -5.2263    1.0000 </r>
       <r>   -5.2236    1.0000 </r>
       <r>   -5.2215    1.0000 </r>
       <r>   -5.2213    1.0000 </r>
       <r>   -5.2208    1.0000 </r>
       <r>   -5.2201    1.0000 </r>
       <r>   -5.2185    1.0000 </r>
       <r>   -5.2182    1.0000 </r>
       <r>   -5.2175    1.0000 </r>
       <r>   -5.2114    1.0000 </r>
       <r>   -5.1151    1.0000 </r>
       <r>   -5.1106    1.0000 </r>
       <r>   -5.0907    1.0000 </r>
       <r>   -5.0906    1.0000 </r>
       <r>   -5.0878    1.0000 </r>
       <r>   -5.0876    1.0000 </r>
       <r>   -5.0873    1.0000 </r>
       <r>   -5.0870    1.0000 </r>
       <r>   -5.0260    1.0000 </r>
       <r>   -4.9210    1.0000 </r>
       <r>   -4.8319    1.0000 </r>
       <r>   -4.6117    1.0000 </r>
       <r>   -4.5544    1.0000 </r>
       <r>   -4.5411    1.0000 </r>
       <r>   -4.4786    1.0000 </r>
       <r>   -4.4750    1.0000 </r>
       <r>   -4.4728    1.0000 </r>
       <r>   -4.4708    1.0000 </r>
       <r>   -4.4703    1.0000 </r>
       <r>   -4.4698    1.0000 </r>
       <r>   -4.4676    1.0000 </r>
       <r>   -4.4656    1.0000 </r>
       <r>   -4.3414    1.0000 </r>
       <r>   -4.3411    1.0000 </r>
       <r>   -4.3407    1.0000 </r>
       <r>   -4.3406    1.0000 </r>
       <r>   -4.3191    1.0000 </r>
       <r>   -4.3163    1.0000 </r>
       <r>   -4.2020    1.0000 </r>
       <r>   -4.0978    1.0000 </r>
       <r>   -4.0894    1.0000 </r>
       <r>   -4.0875    1.0000 </r>
       <r>   -4.0856    1.0000 </r>
       <r>   -4.0844    1.0000 </r>
       <r>   -4.0739    1.0000 </r>
       <r>   -4.0734    1.0000 </r>
       <r>   -4.0714    1.0000 </r>
       <r>   -4.0701    1.0000 </r>
       <r>   -4.0287    1.0000 </r>
       <r>   -3.9503    1.0000 </r>
       <r>   -3.9502    1.0000 </r>
       <r>   -3.9464    1.0000 </r>
       <r>   -3.9464    1.0000 </r>
       <r>   -3.9091    1.0000 </r>
       <r>   -3.8652    1.0000 </r>
       <r>   -3.7860    1.0000 </r>
       <r>   -3.7505    1.0000 </r>
       <r>   -3.6247    1.0000 </r>
       <r>   -3.6219    1.0000 </r>
       <r>   -3.6164    1.0000 </r>
       <r>   -3.6145    1.0000 </r>
       <r>   -3.6023    1.0000 </r>
       <r>   -3.6021    1.0000 </r>
       <r>   -3.5969    1.0000 </r>
       <r>   -3.5958    1.0000 </r>
       <r>   -3.5155    1.0000 </r>
       <r>   -3.4799    1.0000 </r>
       <r>   -3.4796    1.0000 </r>
       <r>   -3.4780    1.0000 </r>
       <r>   -3.4738    1.0000 </r>
       <r>   -3.4737    1.0000 </r>
       <r>   -3.4697    1.0000 </r>
       <r>   -3.4685    1.0000 </r>
       <r>   -3.4654    1.0000 </r>
       <r>   -3.4651    1.0000 </r>
       <r>   -3.4505    1.0000 </r>
       <r>   -3.3495    1.0000 </r>
       <r>   -3.3383    1.0000 </r>
       <r>   -3.3382    1.0000 </r>
       <r>   -3.1560    1.0000 </r>
       <r>   -3.1315    1.0000 </r>
       <r>   -3.0975    1.0000 </r>
       <r>   -3.0761    1.0000 </r>
       <r>   -3.0742    1.0000 </r>
       <r>   -3.0695    1.0000 </r>
       <r>   -3.0678    1.0000 </r>
       <r>   -2.9929    1.0000 </r>
       <r>   -2.9383    1.0000 </r>
       <r>   -2.9375    1.0000 </r>
       <r>   -2.9328    1.0000 </r>
       <r>   -2.8561    1.0000 </r>
       <r>   -2.8121    1.0000 </r>
       <r>   -2.7781    1.0000 </r>
       <r>   -2.7707    1.0000 </r>
       <r>   -2.7700    1.0000 </r>
       <r>   -2.7565    1.0000 </r>
       <r>   -2.7527    1.0000 </r>
       <r>   -2.7365    1.0000 </r>
       <r>   -2.7261    1.0000 </r>
       <r>   -2.6848    1.0000 </r>
       <r>   -2.6794    1.0000 </r>
       <r>   -2.6699    1.0000 </r>
       <r>   -2.6676    1.0000 </r>
       <r>   -2.6674    1.0000 </r>
       <r>   -2.5441    1.0000 </r>
       <r>   -2.5438    1.0000 </r>
       <r>   -2.5232    1.0000 </r>
       <r>   -2.5229    1.0000 </r>
       <r>   -2.5124    1.0000 </r>
       <r>   -2.4608    1.0000 </r>
       <r>   -2.4257    1.0000 </r>
       <r>   -2.4153    1.0000 </r>
       <r>   -2.3849    1.0000 </r>
       <r>   -2.3772    1.0000 </r>
       <r>   -2.3743    1.0000 </r>
       <r>   -2.3739    1.0000 </r>
       <r>   -2.3729    1.0000 </r>
       <r>   -2.3720    1.0000 </r>
       <r>   -2.3707    1.0000 </r>
       <r>   -2.3694    1.0000 </r>
       <r>   -2.3658    1.0000 </r>
       <r>   -2.3601    1.0000 </r>
       <r>   -2.3578    1.0000 </r>
       <r>   -2.3551    1.0000 </r>
       <r>   -2.3285    1.0000 </r>
       <r>   -2.2675    1.0000 </r>
       <r>   -2.2410    1.0000 </r>
       <r>   -2.2405    1.0000 </r>
       <r>   -2.2402    1.0000 </r>
       <r>   -2.2399    1.0000 </r>
       <r>   -2.2116    1.0000 </r>
       <r>   -2.1749    1.0000 </r>
       <r>   -2.1450    1.0000 </r>
       <r>   -2.1296    1.0000 </r>
       <r>   -2.0939    1.0000 </r>
       <r>   -2.0901    1.0000 </r>
       <r>   -2.0889    1.0000 </r>
       <r>   -2.0883    1.0000 </r>
       <r>   -2.0548    1.0000 </r>
       <r>   -2.0544    1.0000 </r>
       <r>   -2.0541    1.0000 </r>
       <r>   -2.0513    1.0000 </r>
       <r>   -2.0421    1.0000 </r>
       <r>   -2.0310    1.0000 </r>
       <r>   -2.0107    1.0000 </r>
       <r>   -2.0097    1.0000 </r>
       <r>   -1.9825    1.0000 </r>
       <r>   -1.9433    1.0000 </r>
       <r>   -1.9433    1.0000 </r>
       <r>   -1.9327    1.0000 </r>
       <r>   -1.9326    1.0000 </r>
       <r>   -1.8963    1.0000 </r>
       <r>   -1.8701    1.0000 </r>
       <r>   -1.8682    1.0000 </r>
       <r>   -1.8672    1.0000 </r>
       <r>   -1.8648    1.0000 </r>
       <r>   -1.8571    1.0000 </r>
       <r>   -1.8565    1.0000 </r>
       <r>   -1.8234    1.0000 </r>
       <r>   -1.8202    1.0000 </r>
       <r>   -1.8174    1.0000 </r>
       <r>   -1.8145    1.0000 </r>
       <r>   -1.7866    1.0000 </r>
       <r>   -1.7796    1.0000 </r>
       <r>   -1.7770    1.0000 </r>
       <r>   -1.7763    1.0000 </r>
       <r>   -1.7757    1.0000 </r>
       <r>   -1.7755    1.0000 </r>
       <r>   -1.7753    1.0000 </r>
       <r>   -1.7734    1.0000 </r>
       <r>   -1.7724    1.0000 </r>
       <r>   -1.7166    1.0000 </r>
       <r>   -1.7096    1.0000 </r>
       <r>   -1.7086    1.0000 </r>
       <r>   -1.6960    1.0000 </r>
       <r>   -1.6603    1.0000 </r>
       <r>   -1.6512    1.0000 </r>
       <r>   -1.6452    1.0000 </r>
       <r>   -1.6452    1.0000 </r>
       <r>   -1.6448    1.0000 </r>
       <r>   -1.6448    1.0000 </r>
       <r>   -1.6343    1.0000 </r>
       <r>   -1.6154    1.0000 </r>
       <r>   -1.6132    1.0000 </r>
       <r>   -1.6061    1.0000 </r>
       <r>   -1.6039    1.0000 </r>
       <r>   -1.5838    1.0000 </r>
       <r>   -1.5813    1.0000 </r>
       <r>   -1.5798    1.0000 </r>
       <r>   -1.5664    1.0000 </r>
       <r>   -1.5654    1.0000 </r>
       <r>   -1.5584    1.0000 </r>
       <r>   -1.5527    1.0000 </r>
       <r>   -1.5475    1.0000 </r>
       <r>   -1.4911    1.0000 </r>
       <r>   -1.4557    1.0000 </r>
       <r>   -1.4413    1.0000 </r>
       <r>   -1.4311    1.0000 </r>
       <r>   -1.3499    1.0000 </r>
       <r>   -1.3485    1.0000 </r>
       <r>   -1.3395    1.0000 </r>
       <r>   -1.3379    1.0000 </r>
       <r>   -1.2333    1.0000 </r>
       <r>   -1.2299    1.0000 </r>
       <r>   -1.2272    1.0000 </r>
       <r>   -1.2264    1.0000 </r>
       <r>   -1.2122    1.0000 </r>
       <r>   -1.2111    1.0000 </r>
       <r>   -1.2093    1.0000 </r>
       <r>   -1.2067    1.0000 </r>
       <r>   -1.1910    1.0000 </r>
       <r>   -1.0915    1.0000 </r>
       <r>   -1.0915    1.0000 </r>
       <r>   -1.0859    1.0000 </r>
       <r>   -1.0858    1.0000 </r>
       <r>   -1.0522    1.0000 </r>
       <r>   -1.0274    1.0000 </r>
       <r>   -1.0142    1.0000 </r>
       <r>   -0.9789    1.0000 </r>
       <r>   -0.9334    1.0000 </r>
       <r>   -0.8687    1.0000 </r>
       <r>   -0.8464    1.0000 </r>
       <r>   -0.7806    1.0000 </r>
       <r>   -0.7783    1.0000 </r>
       <r>   -0.7578    1.0000 </r>
       <r>   -0.7256    1.0000 </r>
       <r>   -0.7185    1.0000 </r>
       <r>   -0.7135    1.0000 </r>
       <r>   -0.7118    1.0000 </r>
       <r>   -0.7099    1.0000 </r>
       <r>   -0.6781    1.0000 </r>
       <r>   -0.6770    1.0000 </r>
       <r>   -0.6745    1.0000 </r>
       <r>   -0.6726    1.0000 </r>
       <r>   -0.6637    1.0000 </r>
       <r>   -0.6573    1.0000 </r>
       <r>   -0.6556    1.0000 </r>
       <r>   -0.6259    1.0000 </r>
       <r>   -0.5192    1.0000 </r>
       <r>   -0.5169    1.0000 </r>
       <r>   -0.5157    1.0000 </r>
       <r>   -0.5113    1.0000 </r>
       <r>   -0.4641    1.0000 </r>
       <r>   -0.4598    1.0000 </r>
       <r>   -0.4572    1.0000 </r>
       <r>   -0.4566    1.0000 </r>
       <r>   -0.4540    1.0000 </r>
       <r>   -0.4538    1.0000 </r>
       <r>   -0.4518    1.0000 </r>
       <r>   -0.4486    1.0000 </r>
       <r>   -0.4396    1.0000 </r>
       <r>   -0.4127    1.0000 </r>
       <r>   -0.3839    1.0000 </r>
       <r>   -0.3834    1.0000 </r>
       <r>   -0.3834    1.0000 </r>
       <r>   -0.3706    1.0000 </r>
       <r>   -0.3564    1.0000 </r>
       <r>   -0.3553    1.0000 </r>
       <r>   -0.3523    1.0000 </r>
       <r>   -0.3456    1.0000 </r>
       <r>   -0.3429    1.0000 </r>
       <r>   -0.3399    1.0000 </r>
       <r>   -0.3269    1.0000 </r>
       <r>   -0.3263    1.0000 </r>
       <r>   -0.3262    1.0000 </r>
       <r>   -0.3257    1.0000 </r>
       <r>   -0.2802    1.0000 </r>
       <r>   -0.2255    1.0000 </r>
       <r>   -0.2249    1.0000 </r>
       <r>   -0.1261    1.0000 </r>
       <r>   -0.0462    1.0000 </r>
       <r>    0.0029    1.0000 </r>
       <r>    0.0423    1.0000 </r>
       <r>    0.1176    1.0000 </r>
       <r>    0.1516    1.0000 </r>
       <r>    0.1547    1.0000 </r>
       <r>    0.1665    1.0000 </r>
       <r>    0.1866    1.0000 </r>
       <r>    0.1984    1.0000 </r>
       <r>    0.2121    1.0000 </r>
       <r>    0.2128    1.0000 </r>
       <r>    0.2181    1.0000 </r>
       <r>    0.2218    1.0000 </r>
       <r>    0.2389    1.0000 </r>
       <r>    0.2418    1.0000 </r>
       <r>    0.2861    1.0000 </r>
       <r>    0.3096    1.0000 </r>
       <r>    0.3159    1.0000 </r>
       <r>    0.3378    1.0000 </r>
       <r>    0.3441    1.0000 </r>
       <r>    0.3494    1.0000 </r>
       <r>    0.3509    1.0000 </r>
       <r>    0.3654    1.0000 </r>
       <r>    0.3764    1.0000 </r>
       <r>    0.3942    1.0000 </r>
       <r>    0.4529    1.0000 </r>
       <r>    0.4570    1.0000 </r>
       <r>    0.4588    1.0000 </r>
       <r>    0.4622    1.0000 </r>
       <r>    0.4647    1.0000 </r>
       <r>    0.4661    1.0000 </r>
       <r>    0.4764    1.0000 </r>
       <r>    0.4774    1.0000 </r>
       <r>    0.5541    1.0000 </r>
       <r>    0.5588    1.0000 </r>
       <r>    0.5659    1.0000 </r>
       <r>    0.5848    1.0000 </r>
       <r>    0.5893    1.0000 </r>
       <r>    0.6848    1.0000 </r>
       <r>    0.6934    1.0000 </r>
       <r>    0.7005    1.0000 </r>
       <r>    0.7032    1.0000 </r>
       <r>    0.7234    1.0000 </r>
       <r>    0.8085    1.0000 </r>
       <r>    0.8090    1.0000 </r>
       <r>    0.8393    1.0000 </r>
       <r>    0.8555    1.0000 </r>
       <r>    0.8564    1.0000 </r>
       <r>    0.8795    1.0000 </r>
       <r>    0.8847    1.0000 </r>
       <r>    0.8899    1.0000 </r>
       <r>    0.9173    1.0000 </r>
       <r>    0.9906    1.0000 </r>
       <r>    0.9916    1.0000 </r>
       <r>    0.9934    1.0000 </r>
       <r>    1.0030    1.0000 </r>
       <r>    1.0202    1.0000 </r>
       <r>    1.0334    1.0000 </r>
       <r>    1.0820    1.0000 </r>
       <r>    1.0972    1.0000 </r>
       <r>    1.2060    1.0000 </r>
       <r>    1.2073    1.0000 </r>
       <r>    1.2153    1.0000 </r>
       <r>    1.2334    1.0000 </r>
       <r>    1.2445    1.0000 </r>
       <r>    1.2457    1.0000 </r>
       <r>    1.2528    1.0000 </r>
       <r>    1.2592    1.0000 </r>
       <r>    1.3154    1.0000 </r>
       <r>    1.3156    1.0000 </r>
       <r>    1.3664    1.0000 </r>
       <r>    1.3665    1.0000 </r>
       <r>    1.4010    1.0000 </r>
       <r>    1.4026    1.0000 </r>
       <r>    1.4412    1.0000 </r>
       <r>    1.4427    1.0000 </r>
       <r>    1.4984    1.0000 </r>
       <r>    1.5013    1.0000 </r>
       <r>    1.5366    1.0000 </r>
       <r>    1.5776    1.0000 </r>
       <r>    1.5889    1.0000 </r>
       <r>    1.5894    1.0000 </r>
       <r>    1.7634    1.0000 </r>
       <r>    1.7693    1.0000 </r>
       <r>    1.8457    1.0000 </r>
       <r>    1.8566    1.0000 </r>
       <r>    1.8598    1.0000 </r>
       <r>    1.8601    1.0000 </r>
       <r>    1.9168    1.0000 </r>
       <r>    1.9248    1.0000 </r>
       <r>    1.9557    1.0000 </r>
       <r>    1.9596    1.0000 </r>
       <r>    1.9798    1.0000 </r>
       <r>    1.9802    1.0000 </r>
       <r>    2.0239    1.0000 </r>
       <r>    2.0246    1.0000 </r>
       <r>    2.0623    1.0000 </r>
       <r>    2.0674    1.0000 </r>
       <r>    2.0976    1.0000 </r>
       <r>    2.0988    1.0000 </r>
       <r>    2.2230    1.0000 </r>
       <r>    2.2312    1.0000 </r>
       <r>    2.3989    1.0000 </r>
       <r>    2.4003    1.0000 </r>
       <r>    2.4039    1.0000 </r>
       <r>    2.4060    1.0000 </r>
       <r>    4.6604    1.0000 </r>
       <r>    5.8837    0.0000 </r>
       <r>    6.6162    0.0000 </r>
       <r>    6.6367    0.0000 </r>
       <r>    6.6373    0.0000 </r>
       <r>    6.8799    0.0000 </r>
       <r>    6.9267    0.0000 </r>
       <r>    6.9913    0.0000 </r>
       <r>    7.0037    0.0000 </r>
       <r>    7.0785    0.0000 </r>
       <r>    7.0882    0.0000 </r>
       <r>    7.1514    0.0000 </r>
       <r>    7.2092    0.0000 </r>
       <r>    7.2122    0.0000 </r>
       <r>    7.2273    0.0000 </r>
       <r>    7.2427    0.0000 </r>
       <r>    7.2815    0.0000 </r>
       <r>    7.2963    0.0000 </r>
       <r>    7.3051    0.0000 </r>
       <r>    7.3279    0.0000 </r>
       <r>    7.3345    0.0000 </r>
       <r>    7.3384    0.0000 </r>
       <r>    7.3430    0.0000 </r>
       <r>    7.3441    0.0000 </r>
       <r>    7.3611    0.0000 </r>
       <r>    7.3623    0.0000 </r>
       <r>    7.3839    0.0000 </r>
       <r>    7.3846    0.0000 </r>
       <r>    7.3911    0.0000 </r>
       <r>    7.3948    0.0000 </r>
       <r>    7.4305    0.0000 </r>
       <r>    7.4330    0.0000 </r>
       <r>    7.4585    0.0000 </r>
       <r>    7.6862    0.0000 </r>
       <r>    7.7390    0.0000 </r>
       <r>    7.7415    0.0000 </r>
       <r>    7.7452    0.0000 </r>
       <r>    7.7911    0.0000 </r>
       <r>    7.8210    0.0000 </r>
       <r>    7.8452    0.0000 </r>
       <r>    7.8749    0.0000 </r>
       <r>    7.8890    0.0000 </r>
       <r>    7.9068    0.0000 </r>
       <r>    7.9139    0.0000 </r>
       <r>    7.9182    0.0000 </r>
       <r>    7.9423    0.0000 </r>
       <r>    7.9658    0.0000 </r>
       <r>    8.0632    0.0000 </r>
       <r>    8.1118    0.0000 </r>
       <r>    8.1676    0.0000 </r>
       <r>    8.1707    0.0000 </r>
       <r>    8.1718    0.0000 </r>
       <r>    8.1852    0.0000 </r>
       <r>    8.2084    0.0000 </r>
       <r>    8.2221    0.0000 </r>
       <r>    8.2226    0.0000 </r>
       <r>    8.2336    0.0000 </r>
       <r>    8.2406    0.0000 </r>
       <r>    8.2550    0.0000 </r>
       <r>    8.2829    0.0000 </r>
       <r>    8.3927    0.0000 </r>
       <r>    8.5604    0.0000 </r>
       <r>    8.5809    0.0000 </r>
       <r>    8.5919    0.0000 </r>
       <r>    8.6332    0.0000 </r>
       <r>    8.6344    0.0000 </r>
       <r>    8.6445    0.0000 </r>
       <r>    8.6611    0.0000 </r>
       <r>    8.6689    0.0000 </r>
       <r>    8.6793    0.0000 </r>
       <r>    8.6874    0.0000 </r>
       <r>    8.6893    0.0000 </r>
       <r>    8.7307    0.0000 </r>
       <r>    8.8813    0.0000 </r>
       <r>    8.9555    0.0000 </r>
       <r>    8.9908    0.0000 </r>
       <r>    8.9967    0.0000 </r>
       <r>    9.0087    0.0000 </r>
       <r>    9.0563    0.0000 </r>
       <r>    9.1243    0.0000 </r>
       <r>    9.2095    0.0000 </r>
       <r>    9.2395    0.0000 </r>
       <r>    9.2644    0.0000 </r>
       <r>    9.2670    0.0000 </r>
       <r>    9.2680    0.0000 </r>
       <r>    9.2806    0.0000 </r>
       <r>    9.2945    0.0000 </r>
       <r>    9.2990    0.0000 </r>
       <r>    9.3031    0.0000 </r>
       <r>    9.3192    0.0000 </r>
       <r>    9.3253    0.0000 </r>
       <r>    9.3279    0.0000 </r>
       <r>    9.3293    0.0000 </r>
       <r>    9.3554    0.0000 </r>
       <r>    9.3976    0.0000 </r>
       <r>    9.4733    0.0000 </r>
       <r>    9.6109    0.0000 </r>
       <r>    9.6270    0.0000 </r>
       <r>    9.6805    0.0000 </r>
       <r>    9.6891    0.0000 </r>
       <r>    9.6909    0.0000 </r>
       <r>    9.7176    0.0000 </r>
       <r>    9.8763    0.0000 </r>
       <r>   10.0640    0.0000 </r>
       <r>   10.0892    0.0000 </r>
       <r>   10.0903    0.0000 </r>
       <r>   10.1009    0.0000 </r>
       <r>   10.1416    0.0000 </r>
       <r>   10.1713    0.0000 </r>
       <r>   10.1748    0.0000 </r>
       <r>   10.1889    0.0000 </r>
       <r>   10.1985    0.0000 </r>
       <r>   10.2272    0.0000 </r>
       <r>   10.2354    0.0000 </r>
       <r>   10.2828    0.0000 </r>
       <r>   10.3011    0.0000 </r>
       <r>   10.3038    0.0000 </r>
       <r>   10.3760    0.0000 </r>
       <r>   10.3803    0.0000 </r>
       <r>   10.3898    0.0000 </r>
       <r>   10.3937    0.0000 </r>
       <r>   10.4132    0.0000 </r>
       <r>   10.4363    0.0000 </r>
       <r>   10.4420    0.0000 </r>
       <r>   10.4655    0.0000 </r>
       <r>   10.5076    0.0000 </r>
       <r>   10.5268    0.0000 </r>
       <r>   10.6252    0.0000 </r>
       <r>   10.6680    0.0000 </r>
       <r>   10.7193    0.0000 </r>
       <r>   10.7203    0.0000 </r>
       <r>   10.7249    0.0000 </r>
       <r>   10.7322    0.0000 </r>
       <r>   10.7510    0.0000 </r>
       <r>   10.7584    0.0000 </r>
       <r>   10.7636    0.0000 </r>
       <r>   10.7844    0.0000 </r>
       <r>   10.7885    0.0000 </r>
       <r>   10.7932    0.0000 </r>
       <r>   10.8138    0.0000 </r>
       <r>   10.8149    0.0000 </r>
       <r>   11.2370    0.0000 </r>
       <r>   11.2591    0.0000 </r>
       <r>   11.4786    0.0000 </r>
       <r>   11.5640    0.0000 </r>
       <r>   11.6274    0.0000 </r>
       <r>   11.6752    0.0000 </r>
       <r>   11.7080    0.0000 </r>
       <r>   11.7404    0.0000 </r>
       <r>   11.7757    0.0000 </r>
       <r>   11.7937    0.0000 </r>
       <r>   11.8286    0.0000 </r>
      </set>
      <set comment="kpoint 4">
       <r>  -17.2950    1.0000 </r>
       <r>  -15.7760    1.0000 </r>
       <r>  -15.7312    1.0000 </r>
       <r>  -15.4205    1.0000 </r>
       <r>  -15.3135    1.0000 </r>
       <r>  -15.2510    1.0000 </r>
       <r>  -15.2304    1.0000 </r>
       <r>  -15.1960    1.0000 </r>
       <r>  -15.1871    1.0000 </r>
       <r>  -15.1017    1.0000 </r>
       <r>  -15.0674    1.0000 </r>
       <r>  -15.0267    1.0000 </r>
       <r>  -15.0070    1.0000 </r>
       <r>  -14.9561    1.0000 </r>
       <r>  -14.9467    1.0000 </r>
       <r>  -14.9383    1.0000 </r>
       <r>  -14.9353    1.0000 </r>
       <r>  -14.8565    1.0000 </r>
       <r>  -14.7538    1.0000 </r>
       <r>  -14.7520    1.0000 </r>
       <r>  -14.6206    1.0000 </r>
       <r>  -14.5698    1.0000 </r>
       <r>  -14.5559    1.0000 </r>
       <r>  -14.4586    1.0000 </r>
       <r>  -14.4473    1.0000 </r>
       <r>  -14.4418    1.0000 </r>
       <r>  -14.4296    1.0000 </r>
       <r>  -14.4254    1.0000 </r>
       <r>  -14.4213    1.0000 </r>
       <r>  -14.4163    1.0000 </r>
       <r>  -14.4124    1.0000 </r>
       <r>  -14.3555    1.0000 </r>
       <r>  -14.2476    1.0000 </r>
       <r>  -14.2420    1.0000 </r>
       <r>  -14.2394    1.0000 </r>
       <r>  -14.2387    1.0000 </r>
       <r>  -14.2014    1.0000 </r>
       <r>  -14.1912    1.0000 </r>
       <r>  -14.1673    1.0000 </r>
       <r>  -14.1663    1.0000 </r>
       <r>  -14.1218    1.0000 </r>
       <r>  -14.0359    1.0000 </r>
       <r>  -13.9969    1.0000 </r>
       <r>  -13.9944    1.0000 </r>
       <r>  -13.9468    1.0000 </r>
       <r>  -13.7944    1.0000 </r>
       <r>  -13.7369    1.0000 </r>
       <r>  -13.7139    1.0000 </r>
       <r>  -13.7102    1.0000 </r>
       <r>  -13.7083    1.0000 </r>
       <r>  -13.6961    1.0000 </r>
       <r>  -13.6936    1.0000 </r>
       <r>  -13.6734    1.0000 </r>
       <r>  -13.6716    1.0000 </r>
       <r>  -13.6082    1.0000 </r>
       <r>  -13.5315    1.0000 </r>
       <r>  -13.5312    1.0000 </r>
       <r>  -13.5152    1.0000 </r>
       <r>  -13.5147    1.0000 </r>
       <r>  -13.5055    1.0000 </r>
       <r>  -13.3597    1.0000 </r>
       <r>  -13.3380    1.0000 </r>
       <r>  -13.2555    1.0000 </r>
       <r>  -13.2233    1.0000 </r>
       <r>  -13.1147    1.0000 </r>
       <r>  -13.0615    1.0000 </r>
       <r>  -13.0522    1.0000 </r>
       <r>  -13.0514    1.0000 </r>
       <r>  -13.0444    1.0000 </r>
       <r>  -13.0402    1.0000 </r>
       <r>  -13.0384    1.0000 </r>
       <r>  -13.0347    1.0000 </r>
       <r>  -13.0312    1.0000 </r>
       <r>  -12.9771    1.0000 </r>
       <r>  -12.9318    1.0000 </r>
       <r>  -12.8887    1.0000 </r>
       <r>  -12.8858    1.0000 </r>
       <r>  -12.8820    1.0000 </r>
       <r>  -12.8796    1.0000 </r>
       <r>  -12.8768    1.0000 </r>
       <r>  -12.8735    1.0000 </r>
       <r>  -12.8734    1.0000 </r>
       <r>  -12.8707    1.0000 </r>
       <r>  -12.8691    1.0000 </r>
       <r>  -12.8684    1.0000 </r>
       <r>  -12.8629    1.0000 </r>
       <r>  -12.8612    1.0000 </r>
       <r>  -12.8605    1.0000 </r>
       <r>  -12.7161    1.0000 </r>
       <r>  -12.7143    1.0000 </r>
       <r>  -12.7137    1.0000 </r>
       <r>  -12.7133    1.0000 </r>
       <r>  -12.6824    1.0000 </r>
       <r>  -12.6098    1.0000 </r>
       <r>  -12.5927    1.0000 </r>
       <r>  -12.5852    1.0000 </r>
       <r>  -12.5680    1.0000 </r>
       <r>  -12.5531    1.0000 </r>
       <r>  -12.5329    1.0000 </r>
       <r>  -12.4981    1.0000 </r>
       <r>  -12.4378    1.0000 </r>
       <r>  -12.4318    1.0000 </r>
       <r>  -12.4245    1.0000 </r>
       <r>  -12.4198    1.0000 </r>
       <r>  -12.3361    1.0000 </r>
       <r>  -12.3349    1.0000 </r>
       <r>  -12.3284    1.0000 </r>
       <r>  -12.3253    1.0000 </r>
       <r>  -12.2474    1.0000 </r>
       <r>  -12.2413    1.0000 </r>
       <r>  -12.2408    1.0000 </r>
       <r>  -12.2353    1.0000 </r>
       <r>  -12.2152    1.0000 </r>
       <r>  -12.2148    1.0000 </r>
       <r>  -12.2073    1.0000 </r>
       <r>  -12.2065    1.0000 </r>
       <r>  -12.1768    1.0000 </r>
       <r>  -12.1766    1.0000 </r>
       <r>  -12.1698    1.0000 </r>
       <r>  -12.1697    1.0000 </r>
       <r>  -12.0961    1.0000 </r>
       <r>  -12.0958    1.0000 </r>
       <r>  -12.0892    1.0000 </r>
       <r>  -12.0868    1.0000 </r>
       <r>  -12.0861    1.0000 </r>
       <r>  -12.0843    1.0000 </r>
       <r>  -11.9514    1.0000 </r>
       <r>  -11.9487    1.0000 </r>
       <r>  -11.9461    1.0000 </r>
       <r>  -11.9431    1.0000 </r>
       <r>  -11.8163    1.0000 </r>
       <r>  -11.8152    1.0000 </r>
       <r>  -11.8089    1.0000 </r>
       <r>  -11.8067    1.0000 </r>
       <r>  -11.8061    1.0000 </r>
       <r>  -11.8054    1.0000 </r>
       <r>  -11.7835    1.0000 </r>
       <r>  -11.7827    1.0000 </r>
       <r>  -11.7798    1.0000 </r>
       <r>  -11.7760    1.0000 </r>
       <r>  -11.6687    1.0000 </r>
       <r>  -11.6686    1.0000 </r>
       <r>  -11.6610    1.0000 </r>
       <r>  -11.6609    1.0000 </r>
       <r>   -8.3642    1.0000 </r>
       <r>   -7.2848    1.0000 </r>
       <r>   -7.2717    1.0000 </r>
       <r>   -6.7938    1.0000 </r>
       <r>   -6.7046    1.0000 </r>
       <r>   -6.6830    1.0000 </r>
       <r>   -6.4383    1.0000 </r>
       <r>   -6.4061    1.0000 </r>
       <r>   -6.3228    1.0000 </r>
       <r>   -6.3088    1.0000 </r>
       <r>   -6.3081    1.0000 </r>
       <r>   -6.3059    1.0000 </r>
       <r>   -6.3016    1.0000 </r>
       <r>   -6.2874    1.0000 </r>
       <r>   -6.2727    1.0000 </r>
       <r>   -6.2717    1.0000 </r>
       <r>   -6.2705    1.0000 </r>
       <r>   -6.2680    1.0000 </r>
       <r>   -6.2160    1.0000 </r>
       <r>   -6.2157    1.0000 </r>
       <r>   -6.2137    1.0000 </r>
       <r>   -6.2035    1.0000 </r>
       <r>   -6.1976    1.0000 </r>
       <r>   -6.1959    1.0000 </r>
       <r>   -6.1591    1.0000 </r>
       <r>   -6.1589    1.0000 </r>
       <r>   -6.1486    1.0000 </r>
       <r>   -6.1485    1.0000 </r>
       <r>   -6.0725    1.0000 </r>
       <r>   -6.0709    1.0000 </r>
       <r>   -5.9336    1.0000 </r>
       <r>   -5.9313    1.0000 </r>
       <r>   -5.9072    1.0000 </r>
       <r>   -5.9044    1.0000 </r>
       <r>   -5.8438    1.0000 </r>
       <r>   -5.7896    1.0000 </r>
       <r>   -5.7815    1.0000 </r>
       <r>   -5.7743    1.0000 </r>
       <r>   -5.7689    1.0000 </r>
       <r>   -5.7654    1.0000 </r>
       <r>   -5.7643    1.0000 </r>
       <r>   -5.7639    1.0000 </r>
       <r>   -5.7626    1.0000 </r>
       <r>   -5.7567    1.0000 </r>
       <r>   -5.7518    1.0000 </r>
       <r>   -5.7508    1.0000 </r>
       <r>   -5.7425    1.0000 </r>
       <r>   -5.6846    1.0000 </r>
       <r>   -5.6545    1.0000 </r>
       <r>   -5.6419    1.0000 </r>
       <r>   -5.6231    1.0000 </r>
       <r>   -5.6230    1.0000 </r>
       <r>   -5.6195    1.0000 </r>
       <r>   -5.6194    1.0000 </r>
       <r>   -5.2291    1.0000 </r>
       <r>   -5.2273    1.0000 </r>
       <r>   -5.2261    1.0000 </r>
       <r>   -5.2237    1.0000 </r>
       <r>   -5.2230    1.0000 </r>
       <r>   -5.2214    1.0000 </r>
       <r>   -5.2208    1.0000 </r>
       <r>   -5.2202    1.0000 </r>
       <r>   -5.2186    1.0000 </r>
       <r>   -5.2182    1.0000 </r>
       <r>   -5.2167    1.0000 </r>
       <r>   -5.2142    1.0000 </r>
       <r>   -5.1151    1.0000 </r>
       <r>   -5.1107    1.0000 </r>
       <r>   -5.0908    1.0000 </r>
       <r>   -5.0906    1.0000 </r>
       <r>   -5.0878    1.0000 </r>
       <r>   -5.0877    1.0000 </r>
       <r>   -5.0873    1.0000 </r>
       <r>   -5.0870    1.0000 </r>
       <r>   -5.0260    1.0000 </r>
       <r>   -4.9210    1.0000 </r>
       <r>   -4.8318    1.0000 </r>
       <r>   -4.6118    1.0000 </r>
       <r>   -4.5543    1.0000 </r>
       <r>   -4.5411    1.0000 </r>
       <r>   -4.4773    1.0000 </r>
       <r>   -4.4741    1.0000 </r>
       <r>   -4.4726    1.0000 </r>
       <r>   -4.4707    1.0000 </r>
       <r>   -4.4699    1.0000 </r>
       <r>   -4.4697    1.0000 </r>
       <r>   -4.4669    1.0000 </r>
       <r>   -4.4641    1.0000 </r>
       <r>   -4.3414    1.0000 </r>
       <r>   -4.3411    1.0000 </r>
       <r>   -4.3407    1.0000 </r>
       <r>   -4.3406    1.0000 </r>
       <r>   -4.3191    1.0000 </r>
       <r>   -4.3164    1.0000 </r>
       <r>   -4.2019    1.0000 </r>
       <r>   -4.0978    1.0000 </r>
       <r>   -4.0890    1.0000 </r>
       <r>   -4.0875    1.0000 </r>
       <r>   -4.0855    1.0000 </r>
       <r>   -4.0843    1.0000 </r>
       <r>   -4.0739    1.0000 </r>
       <r>   -4.0732    1.0000 </r>
       <r>   -4.0714    1.0000 </r>
       <r>   -4.0694    1.0000 </r>
       <r>   -4.0287    1.0000 </r>
       <r>   -3.9503    1.0000 </r>
       <r>   -3.9502    1.0000 </r>
       <r>   -3.9464    1.0000 </r>
       <r>   -3.9464    1.0000 </r>
       <r>   -3.9091    1.0000 </r>
       <r>   -3.8652    1.0000 </r>
       <r>   -3.7860    1.0000 </r>
       <r>   -3.7505    1.0000 </r>
       <r>   -3.6246    1.0000 </r>
       <r>   -3.6239    1.0000 </r>
       <r>   -3.6164    1.0000 </r>
       <r>   -3.6155    1.0000 </r>
       <r>   -3.6031    1.0000 </r>
       <r>   -3.6020    1.0000 </r>
       <r>   -3.5979    1.0000 </r>
       <r>   -3.5965    1.0000 </r>
       <r>   -3.5155    1.0000 </r>
       <r>   -3.4799    1.0000 </r>
       <r>   -3.4796    1.0000 </r>
       <r>   -3.4781    1.0000 </r>
       <r>   -3.4738    1.0000 </r>
       <r>   -3.4737    1.0000 </r>
       <r>   -3.4685    1.0000 </r>
       <r>   -3.4680    1.0000 </r>
       <r>   -3.4648    1.0000 </r>
       <r>   -3.4640    1.0000 </r>
       <r>   -3.4505    1.0000 </r>
       <r>   -3.3495    1.0000 </r>
       <r>   -3.3383    1.0000 </r>
       <r>   -3.3382    1.0000 </r>
       <r>   -3.1561    1.0000 </r>
       <r>   -3.1314    1.0000 </r>
       <r>   -3.0976    1.0000 </r>
       <r>   -3.0775    1.0000 </r>
       <r>   -3.0748    1.0000 </r>
       <r>   -3.0701    1.0000 </r>
       <r>   -3.0694    1.0000 </r>
       <r>   -2.9929    1.0000 </r>
       <r>   -2.9383    1.0000 </r>
       <r>   -2.9375    1.0000 </r>
       <r>   -2.9328    1.0000 </r>
       <r>   -2.8560    1.0000 </r>
       <r>   -2.8121    1.0000 </r>
       <r>   -2.7787    1.0000 </r>
       <r>   -2.7708    1.0000 </r>
       <r>   -2.7700    1.0000 </r>
       <r>   -2.7564    1.0000 </r>
       <r>   -2.7527    1.0000 </r>
       <r>   -2.7362    1.0000 </r>
       <r>   -2.7262    1.0000 </r>
       <r>   -2.6833    1.0000 </r>
       <r>   -2.6784    1.0000 </r>
       <r>   -2.6688    1.0000 </r>
       <r>   -2.6667    1.0000 </r>
       <r>   -2.6661    1.0000 </r>
       <r>   -2.5441    1.0000 </r>
       <r>   -2.5437    1.0000 </r>
       <r>   -2.5233    1.0000 </r>
       <r>   -2.5229    1.0000 </r>
       <r>   -2.5124    1.0000 </r>
       <r>   -2.4609    1.0000 </r>
       <r>   -2.4256    1.0000 </r>
       <r>   -2.4153    1.0000 </r>
       <r>   -2.3848    1.0000 </r>
       <r>   -2.3801    1.0000 </r>
       <r>   -2.3757    1.0000 </r>
       <r>   -2.3744    1.0000 </r>
       <r>   -2.3735    1.0000 </r>
       <r>   -2.3719    1.0000 </r>
       <r>   -2.3710    1.0000 </r>
       <r>   -2.3698    1.0000 </r>
       <r>   -2.3673    1.0000 </r>
       <r>   -2.3603    1.0000 </r>
       <r>   -2.3581    1.0000 </r>
       <r>   -2.3552    1.0000 </r>
       <r>   -2.3287    1.0000 </r>
       <r>   -2.2675    1.0000 </r>
       <r>   -2.2410    1.0000 </r>
       <r>   -2.2406    1.0000 </r>
       <r>   -2.2402    1.0000 </r>
       <r>   -2.2399    1.0000 </r>
       <r>   -2.2117    1.0000 </r>
       <r>   -2.1749    1.0000 </r>
       <r>   -2.1450    1.0000 </r>
       <r>   -2.1296    1.0000 </r>
       <r>   -2.0917    1.0000 </r>
       <r>   -2.0893    1.0000 </r>
       <r>   -2.0888    1.0000 </r>
       <r>   -2.0883    1.0000 </r>
       <r>   -2.0546    1.0000 </r>
       <r>   -2.0542    1.0000 </r>
       <r>   -2.0533    1.0000 </r>
       <r>   -2.0500    1.0000 </r>
       <r>   -2.0416    1.0000 </r>
       <r>   -2.0308    1.0000 </r>
       <r>   -2.0107    1.0000 </r>
       <r>   -2.0106    1.0000 </r>
       <r>   -1.9827    1.0000 </r>
       <r>   -1.9433    1.0000 </r>
       <r>   -1.9433    1.0000 </r>
       <r>   -1.9327    1.0000 </r>
       <r>   -1.9326    1.0000 </r>
       <r>   -1.8963    1.0000 </r>
       <r>   -1.8695    1.0000 </r>
       <r>   -1.8682    1.0000 </r>
       <r>   -1.8670    1.0000 </r>
       <r>   -1.8656    1.0000 </r>
       <r>   -1.8573    1.0000 </r>
       <r>   -1.8555    1.0000 </r>
       <r>   -1.8241    1.0000 </r>
       <r>   -1.8205    1.0000 </r>
       <r>   -1.8167    1.0000 </r>
       <r>   -1.8141    1.0000 </r>
       <r>   -1.7870    1.0000 </r>
       <r>   -1.7781    1.0000 </r>
       <r>   -1.7772    1.0000 </r>
       <r>   -1.7761    1.0000 </r>
       <r>   -1.7759    1.0000 </r>
       <r>   -1.7755    1.0000 </r>
       <r>   -1.7752    1.0000 </r>
       <r>   -1.7739    1.0000 </r>
       <r>   -1.7701    1.0000 </r>
       <r>   -1.7167    1.0000 </r>
       <r>   -1.7093    1.0000 </r>
       <r>   -1.7086    1.0000 </r>
       <r>   -1.6963    1.0000 </r>
       <r>   -1.6603    1.0000 </r>
       <r>   -1.6508    1.0000 </r>
       <r>   -1.6452    1.0000 </r>
       <r>   -1.6452    1.0000 </r>
       <r>   -1.6448    1.0000 </r>
       <r>   -1.6447    1.0000 </r>
       <r>   -1.6344    1.0000 </r>
       <r>   -1.6162    1.0000 </r>
       <r>   -1.6129    1.0000 </r>
       <r>   -1.6065    1.0000 </r>
       <r>   -1.6027    1.0000 </r>
       <r>   -1.5862    1.0000 </r>
       <r>   -1.5817    1.0000 </r>
       <r>   -1.5802    1.0000 </r>
       <r>   -1.5661    1.0000 </r>
       <r>   -1.5655    1.0000 </r>
       <r>   -1.5583    1.0000 </r>
       <r>   -1.5530    1.0000 </r>
       <r>   -1.5501    1.0000 </r>
       <r>   -1.4910    1.0000 </r>
       <r>   -1.4557    1.0000 </r>
       <r>   -1.4414    1.0000 </r>
       <r>   -1.4312    1.0000 </r>
       <r>   -1.3499    1.0000 </r>
       <r>   -1.3488    1.0000 </r>
       <r>   -1.3394    1.0000 </r>
       <r>   -1.3379    1.0000 </r>
       <r>   -1.2314    1.0000 </r>
       <r>   -1.2288    1.0000 </r>
       <r>   -1.2270    1.0000 </r>
       <r>   -1.2251    1.0000 </r>
       <r>   -1.2113    1.0000 </r>
       <r>   -1.2110    1.0000 </r>
       <r>   -1.2079    1.0000 </r>
       <r>   -1.2055    1.0000 </r>
       <r>   -1.1910    1.0000 </r>
       <r>   -1.0916    1.0000 </r>
       <r>   -1.0914    1.0000 </r>
       <r>   -1.0859    1.0000 </r>
       <r>   -1.0858    1.0000 </r>
       <r>   -1.0521    1.0000 </r>
       <r>   -1.0272    1.0000 </r>
       <r>   -1.0142    1.0000 </r>
       <r>   -0.9787    1.0000 </r>
       <r>   -0.9335    1.0000 </r>
       <r>   -0.8687    1.0000 </r>
       <r>   -0.8463    1.0000 </r>
       <r>   -0.7806    1.0000 </r>
       <r>   -0.7783    1.0000 </r>
       <r>   -0.7575    1.0000 </r>
       <r>   -0.7250    1.0000 </r>
       <r>   -0.7188    1.0000 </r>
       <r>   -0.7134    1.0000 </r>
       <r>   -0.7116    1.0000 </r>
       <r>   -0.7099    1.0000 </r>
       <r>   -0.6776    1.0000 </r>
       <r>   -0.6773    1.0000 </r>
       <r>   -0.6740    1.0000 </r>
       <r>   -0.6725    1.0000 </r>
       <r>   -0.6639    1.0000 </r>
       <r>   -0.6573    1.0000 </r>
       <r>   -0.6563    1.0000 </r>
       <r>   -0.6267    1.0000 </r>
       <r>   -0.5221    1.0000 </r>
       <r>   -0.5173    1.0000 </r>
       <r>   -0.5157    1.0000 </r>
       <r>   -0.5147    1.0000 </r>
       <r>   -0.4624    1.0000 </r>
       <r>   -0.4598    1.0000 </r>
       <r>   -0.4590    1.0000 </r>
       <r>   -0.4566    1.0000 </r>
       <r>   -0.4550    1.0000 </r>
       <r>   -0.4533    1.0000 </r>
       <r>   -0.4513    1.0000 </r>
       <r>   -0.4489    1.0000 </r>
       <r>   -0.4400    1.0000 </r>
       <r>   -0.4130    1.0000 </r>
       <r>   -0.3835    1.0000 </r>
       <r>   -0.3834    1.0000 </r>
       <r>   -0.3833    1.0000 </r>
       <r>   -0.3711    1.0000 </r>
       <r>   -0.3579    1.0000 </r>
       <r>   -0.3551    1.0000 </r>
       <r>   -0.3540    1.0000 </r>
       <r>   -0.3472    1.0000 </r>
       <r>   -0.3429    1.0000 </r>
       <r>   -0.3427    1.0000 </r>
       <r>   -0.3269    1.0000 </r>
       <r>   -0.3263    1.0000 </r>
       <r>   -0.3262    1.0000 </r>
       <r>   -0.3257    1.0000 </r>
       <r>   -0.2803    1.0000 </r>
       <r>   -0.2255    1.0000 </r>
       <r>   -0.2249    1.0000 </r>
       <r>   -0.1260    1.0000 </r>
       <r>   -0.0463    1.0000 </r>
       <r>    0.0028    1.0000 </r>
       <r>    0.0423    1.0000 </r>
       <r>    0.1173    1.0000 </r>
       <r>    0.1518    1.0000 </r>
       <r>    0.1547    1.0000 </r>
       <r>    0.1668    1.0000 </r>
       <r>    0.1865    1.0000 </r>
       <r>    0.1989    1.0000 </r>
       <r>    0.2110    1.0000 </r>
       <r>    0.2128    1.0000 </r>
       <r>    0.2188    1.0000 </r>
       <r>    0.2207    1.0000 </r>
       <r>    0.2387    1.0000 </r>
       <r>    0.2422    1.0000 </r>
       <r>    0.2864    1.0000 </r>
       <r>    0.3096    1.0000 </r>
       <r>    0.3159    1.0000 </r>
       <r>    0.3431    1.0000 </r>
       <r>    0.3443    1.0000 </r>
       <r>    0.3496    1.0000 </r>
       <r>    0.3552    1.0000 </r>
       <r>    0.3655    1.0000 </r>
       <r>    0.3762    1.0000 </r>
       <r>    0.3943    1.0000 </r>
       <r>    0.4533    1.0000 </r>
       <r>    0.4565    1.0000 </r>
       <r>    0.4589    1.0000 </r>
       <r>    0.4624    1.0000 </r>
       <r>    0.4650    1.0000 </r>
       <r>    0.4661    1.0000 </r>
       <r>    0.4764    1.0000 </r>
       <r>    0.4774    1.0000 </r>
       <r>    0.5561    1.0000 </r>
       <r>    0.5608    1.0000 </r>
       <r>    0.5659    1.0000 </r>
       <r>    0.5865    1.0000 </r>
       <r>    0.5922    1.0000 </r>
       <r>    0.6846    1.0000 </r>
       <r>    0.6934    1.0000 </r>
       <r>    0.7010    1.0000 </r>
       <r>    0.7032    1.0000 </r>
       <r>    0.7241    1.0000 </r>
       <r>    0.8076    1.0000 </r>
       <r>    0.8098    1.0000 </r>
       <r>    0.8392    1.0000 </r>
       <r>    0.8510    1.0000 </r>
       <r>    0.8558    1.0000 </r>
       <r>    0.8787    1.0000 </r>
       <r>    0.8844    1.0000 </r>
       <r>    0.8853    1.0000 </r>
       <r>    0.9167    1.0000 </r>
       <r>    0.9912    1.0000 </r>
       <r>    0.9919    1.0000 </r>
       <r>    0.9934    1.0000 </r>
       <r>    1.0030    1.0000 </r>
       <r>    1.0194    1.0000 </r>
       <r>    1.0318    1.0000 </r>
       <r>    1.0816    1.0000 </r>
       <r>    1.0974    1.0000 </r>
       <r>    1.2063    1.0000 </r>
       <r>    1.2080    1.0000 </r>
       <r>    1.2152    1.0000 </r>
       <r>    1.2334    1.0000 </r>
       <r>    1.2450    1.0000 </r>
       <r>    1.2462    1.0000 </r>
       <r>    1.2531    1.0000 </r>
       <r>    1.2593    1.0000 </r>
       <r>    1.3152    1.0000 </r>
       <r>    1.3157    1.0000 </r>
       <r>    1.3662    1.0000 </r>
       <r>    1.3668    1.0000 </r>
       <r>    1.4018    1.0000 </r>
       <r>    1.4032    1.0000 </r>
       <r>    1.4418    1.0000 </r>
       <r>    1.4426    1.0000 </r>
       <r>    1.4976    1.0000 </r>
       <r>    1.5018    1.0000 </r>
       <r>    1.5364    1.0000 </r>
       <r>    1.5778    1.0000 </r>
       <r>    1.5886    1.0000 </r>
       <r>    1.5891    1.0000 </r>
       <r>    1.7635    1.0000 </r>
       <r>    1.7688    1.0000 </r>
       <r>    1.8451    1.0000 </r>
       <r>    1.8556    1.0000 </r>
       <r>    1.8588    1.0000 </r>
       <r>    1.8605    1.0000 </r>
       <r>    1.9184    1.0000 </r>
       <r>    1.9265    1.0000 </r>
       <r>    1.9542    1.0000 </r>
       <r>    1.9600    1.0000 </r>
       <r>    1.9795    1.0000 </r>
       <r>    1.9801    1.0000 </r>
       <r>    2.0239    1.0000 </r>
       <r>    2.0246    1.0000 </r>
       <r>    2.0624    1.0000 </r>
       <r>    2.0673    1.0000 </r>
       <r>    2.0974    1.0000 </r>
       <r>    2.0990    1.0000 </r>
       <r>    2.2229    1.0000 </r>
       <r>    2.2309    1.0000 </r>
       <r>    2.3990    1.0000 </r>
       <r>    2.4000    1.0000 </r>
       <r>    2.4038    1.0000 </r>
       <r>    2.4063    1.0000 </r>
       <r>    4.6604    1.0000 </r>
       <r>    5.8837    0.0000 </r>
       <r>    6.6164    0.0000 </r>
       <r>    6.6368    0.0000 </r>
       <r>    6.6370    0.0000 </r>
       <r>    6.8799    0.0000 </r>
       <r>    6.9261    0.0000 </r>
       <r>    6.9917    0.0000 </r>
       <r>    7.0039    0.0000 </r>
       <r>    7.0784    0.0000 </r>
       <r>    7.0882    0.0000 </r>
       <r>    7.1515    0.0000 </r>
       <r>    7.2108    0.0000 </r>
       <r>    7.2125    0.0000 </r>
       <r>    7.2287    0.0000 </r>
       <r>    7.2427    0.0000 </r>
       <r>    7.2808    0.0000 </r>
       <r>    7.2952    0.0000 </r>
       <r>    7.3059    0.0000 </r>
       <r>    7.3268    0.0000 </r>
       <r>    7.3343    0.0000 </r>
       <r>    7.3380    0.0000 </r>
       <r>    7.3434    0.0000 </r>
       <r>    7.3438    0.0000 </r>
       <r>    7.3612    0.0000 </r>
       <r>    7.3624    0.0000 </r>
       <r>    7.3841    0.0000 </r>
       <r>    7.3844    0.0000 </r>
       <r>    7.3908    0.0000 </r>
       <r>    7.3948    0.0000 </r>
       <r>    7.4293    0.0000 </r>
       <r>    7.4324    0.0000 </r>
       <r>    7.4591    0.0000 </r>
       <r>    7.6860    0.0000 </r>
       <r>    7.7393    0.0000 </r>
       <r>    7.7416    0.0000 </r>
       <r>    7.7451    0.0000 </r>
       <r>    7.7919    0.0000 </r>
       <r>    7.8211    0.0000 </r>
       <r>    7.8451    0.0000 </r>
       <r>    7.8750    0.0000 </r>
       <r>    7.8896    0.0000 </r>
       <r>    7.9072    0.0000 </r>
       <r>    7.9141    0.0000 </r>
       <r>    7.9192    0.0000 </r>
       <r>    7.9425    0.0000 </r>
       <r>    7.9672    0.0000 </r>
       <r>    8.0633    0.0000 </r>
       <r>    8.1115    0.0000 </r>
       <r>    8.1668    0.0000 </r>
       <r>    8.1696    0.0000 </r>
       <r>    8.1705    0.0000 </r>
       <r>    8.1846    0.0000 </r>
       <r>    8.2080    0.0000 </r>
       <r>    8.2216    0.0000 </r>
       <r>    8.2231    0.0000 </r>
       <r>    8.2329    0.0000 </r>
       <r>    8.2403    0.0000 </r>
       <r>    8.2550    0.0000 </r>
       <r>    8.2828    0.0000 </r>
       <r>    8.3927    0.0000 </r>
       <r>    8.5606    0.0000 </r>
       <r>    8.5806    0.0000 </r>
       <r>    8.5908    0.0000 </r>
       <r>    8.6332    0.0000 </r>
       <r>    8.6341    0.0000 </r>
       <r>    8.6445    0.0000 </r>
       <r>    8.6612    0.0000 </r>
       <r>    8.6682    0.0000 </r>
       <r>    8.6800    0.0000 </r>
       <r>    8.6875    0.0000 </r>
       <r>    8.6884    0.0000 </r>
       <r>    8.7315    0.0000 </r>
       <r>    8.8813    0.0000 </r>
       <r>    8.9560    0.0000 </r>
       <r>    8.9909    0.0000 </r>
       <r>    8.9970    0.0000 </r>
       <r>    9.0087    0.0000 </r>
       <r>    9.0558    0.0000 </r>
       <r>    9.1249    0.0000 </r>
       <r>    9.2092    0.0000 </r>
       <r>    9.2407    0.0000 </r>
       <r>    9.2654    0.0000 </r>
       <r>    9.2676    0.0000 </r>
       <r>    9.2682    0.0000 </r>
       <r>    9.2800    0.0000 </r>
       <r>    9.2948    0.0000 </r>
       <r>    9.2987    0.0000 </r>
       <r>    9.3044    0.0000 </r>
       <r>    9.3194    0.0000 </r>
       <r>    9.3254    0.0000 </r>
       <r>    9.3279    0.0000 </r>
       <r>    9.3289    0.0000 </r>
       <r>    9.3556    0.0000 </r>
       <r>    9.3976    0.0000 </r>
       <r>    9.4733    0.0000 </r>
       <r>    9.6106    0.0000 </r>
       <r>    9.6270    0.0000 </r>
       <r>    9.6814    0.0000 </r>
       <r>    9.6895    0.0000 </r>
       <r>    9.6913    0.0000 </r>
       <r>    9.7176    0.0000 </r>
       <r>    9.8763    0.0000 </r>
       <r>   10.0641    0.0000 </r>
       <r>   10.0891    0.0000 </r>
       <r>   10.0902    0.0000 </r>
       <r>   10.1010    0.0000 </r>
       <r>   10.1415    0.0000 </r>
       <r>   10.1714    0.0000 </r>
       <r>   10.1746    0.0000 </r>
       <r>   10.1884    0.0000 </r>
       <r>   10.1977    0.0000 </r>
       <r>   10.2270    0.0000 </r>
       <r>   10.2351    0.0000 </r>
       <r>   10.2827    0.0000 </r>
       <r>   10.3011    0.0000 </r>
       <r>   10.3043    0.0000 </r>
       <r>   10.3759    0.0000 </r>
       <r>   10.3798    0.0000 </r>
       <r>   10.3895    0.0000 </r>
       <r>   10.3936    0.0000 </r>
       <r>   10.4128    0.0000 </r>
       <r>   10.4363    0.0000 </r>
       <r>   10.4425    0.0000 </r>
       <r>   10.4658    0.0000 </r>
       <r>   10.5073    0.0000 </r>
       <r>   10.5270    0.0000 </r>
       <r>   10.6257    0.0000 </r>
       <r>   10.6677    0.0000 </r>
       <r>   10.7198    0.0000 </r>
       <r>   10.7217    0.0000 </r>
       <r>   10.7230    0.0000 </r>
       <r>   10.7310    0.0000 </r>
       <r>   10.7530    0.0000 </r>
       <r>   10.7584    0.0000 </r>
       <r>   10.7634    0.0000 </r>
       <r>   10.7833    0.0000 </r>
       <r>   10.7873    0.0000 </r>
       <r>   10.7923    0.0000 </r>
       <r>   10.8136    0.0000 </r>
       <r>   10.8143    0.0000 </r>
       <r>   11.2392    0.0000 </r>
       <r>   11.2567    0.0000 </r>
       <r>   11.5030    0.0000 </r>
       <r>   11.6136    0.0000 </r>
       <r>   11.6450    0.0000 </r>
       <r>   11.6725    0.0000 </r>
       <r>   11.7133    0.0000 </r>
       <r>   11.7400    0.0000 </r>
       <r>   11.7650    0.0000 </r>
       <r>   11.7982    0.0000 </r>
       <r>   12.2546    0.0000 </r>
      </set>
      <set comment="kpoint 5">
       <r>  -17.2952    1.0000 </r>
       <r>  -15.7211    1.0000 </r>
       <r>  -15.7208    1.0000 </r>
       <r>  -15.5734    1.0000 </r>
       <r>  -15.3960    1.0000 </r>
       <r>  -15.3107    1.0000 </r>
       <r>  -15.1587    1.0000 </r>
       <r>  -15.1585    1.0000 </r>
       <r>  -15.1578    1.0000 </r>
       <r>  -15.0708    1.0000 </r>
       <r>  -14.8896    1.0000 </r>
       <r>  -14.8652    1.0000 </r>
       <r>  -14.8647    1.0000 </r>
       <r>  -14.8499    1.0000 </r>
       <r>  -14.8437    1.0000 </r>
       <r>  -14.8428    1.0000 </r>
       <r>  -14.8377    1.0000 </r>
       <r>  -14.8352    1.0000 </r>
       <r>  -14.8262    1.0000 </r>
       <r>  -14.7637    1.0000 </r>
       <r>  -14.7611    1.0000 </r>
       <r>  -14.7429    1.0000 </r>
       <r>  -14.7210    1.0000 </r>
       <r>  -14.7209    1.0000 </r>
       <r>  -14.6452    1.0000 </r>
       <r>  -14.6342    1.0000 </r>
       <r>  -14.6337    1.0000 </r>
       <r>  -14.6192    1.0000 </r>
       <r>  -14.6180    1.0000 </r>
       <r>  -14.6122    1.0000 </r>
       <r>  -14.5612    1.0000 </r>
       <r>  -14.2539    1.0000 </r>
       <r>  -14.2537    1.0000 </r>
       <r>  -14.2425    1.0000 </r>
       <r>  -13.9158    1.0000 </r>
       <r>  -13.9151    1.0000 </r>
       <r>  -13.8547    1.0000 </r>
       <r>  -13.8484    1.0000 </r>
       <r>  -13.8458    1.0000 </r>
       <r>  -13.8431    1.0000 </r>
       <r>  -13.8390    1.0000 </r>
       <r>  -13.8386    1.0000 </r>
       <r>  -13.8349    1.0000 </r>
       <r>  -13.8132    1.0000 </r>
       <r>  -13.7967    1.0000 </r>
       <r>  -13.7954    1.0000 </r>
       <r>  -13.7820    1.0000 </r>
       <r>  -13.7796    1.0000 </r>
       <r>  -13.7777    1.0000 </r>
       <r>  -13.7519    1.0000 </r>
       <r>  -13.7512    1.0000 </r>
       <r>  -13.7505    1.0000 </r>
       <r>  -13.6398    1.0000 </r>
       <r>  -13.6387    1.0000 </r>
       <r>  -13.6380    1.0000 </r>
       <r>  -13.6363    1.0000 </r>
       <r>  -13.6362    1.0000 </r>
       <r>  -13.6349    1.0000 </r>
       <r>  -13.3982    1.0000 </r>
       <r>  -13.3972    1.0000 </r>
       <r>  -13.3946    1.0000 </r>
       <r>  -13.3934    1.0000 </r>
       <r>  -13.3920    1.0000 </r>
       <r>  -13.3912    1.0000 </r>
       <r>  -13.3736    1.0000 </r>
       <r>  -13.3711    1.0000 </r>
       <r>  -13.3570    1.0000 </r>
       <r>  -13.3507    1.0000 </r>
       <r>  -13.3495    1.0000 </r>
       <r>  -13.3485    1.0000 </r>
       <r>  -13.2685    1.0000 </r>
       <r>  -13.2679    1.0000 </r>
       <r>  -13.2052    1.0000 </r>
       <r>  -13.2047    1.0000 </r>
       <r>  -13.2042    1.0000 </r>
       <r>  -13.2038    1.0000 </r>
       <r>  -13.2033    1.0000 </r>
       <r>  -13.2033    1.0000 </r>
       <r>  -12.8947    1.0000 </r>
       <r>  -12.8585    1.0000 </r>
       <r>  -12.8585    1.0000 </r>
       <r>  -12.7737    1.0000 </r>
       <r>  -12.6758    1.0000 </r>
       <r>  -12.5895    1.0000 </r>
       <r>  -12.5894    1.0000 </r>
       <r>  -12.5884    1.0000 </r>
       <r>  -12.5328    1.0000 </r>
       <r>  -12.5326    1.0000 </r>
       <r>  -12.4969    1.0000 </r>
       <r>  -12.4968    1.0000 </r>
       <r>  -12.4675    1.0000 </r>
       <r>  -12.3550    1.0000 </r>
       <r>  -12.3409    1.0000 </r>
       <r>  -12.3362    1.0000 </r>
       <r>  -12.3235    1.0000 </r>
       <r>  -12.3216    1.0000 </r>
       <r>  -12.3173    1.0000 </r>
       <r>  -12.3129    1.0000 </r>
       <r>  -12.3123    1.0000 </r>
       <r>  -12.3055    1.0000 </r>
       <r>  -12.3047    1.0000 </r>
       <r>  -12.2955    1.0000 </r>
       <r>  -12.2948    1.0000 </r>
       <r>  -12.2892    1.0000 </r>
       <r>  -12.2881    1.0000 </r>
       <r>  -12.2876    1.0000 </r>
       <r>  -12.2836    1.0000 </r>
       <r>  -12.2775    1.0000 </r>
       <r>  -12.2759    1.0000 </r>
       <r>  -12.2698    1.0000 </r>
       <r>  -12.2683    1.0000 </r>
       <r>  -12.2670    1.0000 </r>
       <r>  -12.2600    1.0000 </r>
       <r>  -12.2554    1.0000 </r>
       <r>  -12.2540    1.0000 </r>
       <r>  -12.1923    1.0000 </r>
       <r>  -12.1915    1.0000 </r>
       <r>  -12.1911    1.0000 </r>
       <r>  -12.1834    1.0000 </r>
       <r>  -12.1829    1.0000 </r>
       <r>  -12.1809    1.0000 </r>
       <r>  -12.1589    1.0000 </r>
       <r>  -12.1585    1.0000 </r>
       <r>  -12.1544    1.0000 </r>
       <r>  -12.1541    1.0000 </r>
       <r>  -12.1518    1.0000 </r>
       <r>  -12.1515    1.0000 </r>
       <r>  -12.1438    1.0000 </r>
       <r>  -12.1435    1.0000 </r>
       <r>  -12.1426    1.0000 </r>
       <r>  -12.1415    1.0000 </r>
       <r>  -12.1391    1.0000 </r>
       <r>  -12.1390    1.0000 </r>
       <r>  -12.0616    1.0000 </r>
       <r>  -12.0616    1.0000 </r>
       <r>  -12.0615    1.0000 </r>
       <r>  -11.9612    1.0000 </r>
       <r>  -11.9612    1.0000 </r>
       <r>  -11.5959    1.0000 </r>
       <r>  -11.5944    1.0000 </r>
       <r>  -11.5939    1.0000 </r>
       <r>  -11.5911    1.0000 </r>
       <r>  -11.4688    1.0000 </r>
       <r>  -11.4688    1.0000 </r>
       <r>   -8.3743    1.0000 </r>
       <r>   -7.3298    1.0000 </r>
       <r>   -7.3296    1.0000 </r>
       <r>   -6.6091    1.0000 </r>
       <r>   -6.6091    1.0000 </r>
       <r>   -6.5436    1.0000 </r>
       <r>   -6.5263    1.0000 </r>
       <r>   -6.5259    1.0000 </r>
       <r>   -6.5249    1.0000 </r>
       <r>   -6.5211    1.0000 </r>
       <r>   -6.5196    1.0000 </r>
       <r>   -6.5103    1.0000 </r>
       <r>   -6.4874    1.0000 </r>
       <r>   -6.3900    1.0000 </r>
       <r>   -6.3899    1.0000 </r>
       <r>   -6.3899    1.0000 </r>
       <r>   -6.3165    1.0000 </r>
       <r>   -6.3165    1.0000 </r>
       <r>   -6.0963    1.0000 </r>
       <r>   -6.0961    1.0000 </r>
       <r>   -6.0294    1.0000 </r>
       <r>   -6.0290    1.0000 </r>
       <r>   -6.0063    1.0000 </r>
       <r>   -5.9871    1.0000 </r>
       <r>   -5.9065    1.0000 </r>
       <r>   -5.9064    1.0000 </r>
       <r>   -5.7234    1.0000 </r>
       <r>   -5.7175    1.0000 </r>
       <r>   -5.7141    1.0000 </r>
       <r>   -5.7127    1.0000 </r>
       <r>   -5.7114    1.0000 </r>
       <r>   -5.7086    1.0000 </r>
       <r>   -5.7041    1.0000 </r>
       <r>   -5.7024    1.0000 </r>
       <r>   -5.6938    1.0000 </r>
       <r>   -5.6890    1.0000 </r>
       <r>   -5.6872    1.0000 </r>
       <r>   -5.6851    1.0000 </r>
       <r>   -5.6826    1.0000 </r>
       <r>   -5.6808    1.0000 </r>
       <r>   -5.6782    1.0000 </r>
       <r>   -5.6755    1.0000 </r>
       <r>   -5.6712    1.0000 </r>
       <r>   -5.6709    1.0000 </r>
       <r>   -5.6688    1.0000 </r>
       <r>   -5.6685    1.0000 </r>
       <r>   -5.6647    1.0000 </r>
       <r>   -5.6642    1.0000 </r>
       <r>   -5.6611    1.0000 </r>
       <r>   -5.6601    1.0000 </r>
       <r>   -5.5806    1.0000 </r>
       <r>   -5.5799    1.0000 </r>
       <r>   -5.5593    1.0000 </r>
       <r>   -5.5588    1.0000 </r>
       <r>   -5.5586    1.0000 </r>
       <r>   -5.5579    1.0000 </r>
       <r>   -5.5547    1.0000 </r>
       <r>   -5.5540    1.0000 </r>
       <r>   -5.5539    1.0000 </r>
       <r>   -5.5535    1.0000 </r>
       <r>   -5.5504    1.0000 </r>
       <r>   -5.5504    1.0000 </r>
       <r>   -5.5469    1.0000 </r>
       <r>   -5.5469    1.0000 </r>
       <r>   -5.5468    1.0000 </r>
       <r>   -5.5464    1.0000 </r>
       <r>   -5.4183    1.0000 </r>
       <r>   -5.4182    1.0000 </r>
       <r>   -5.3697    1.0000 </r>
       <r>   -5.2475    1.0000 </r>
       <r>   -5.1471    1.0000 </r>
       <r>   -5.1470    1.0000 </r>
       <r>   -4.9933    1.0000 </r>
       <r>   -4.9234    1.0000 </r>
       <r>   -4.9233    1.0000 </r>
       <r>   -4.8739    1.0000 </r>
       <r>   -4.7462    1.0000 </r>
       <r>   -4.7460    1.0000 </r>
       <r>   -4.7458    1.0000 </r>
       <r>   -4.7456    1.0000 </r>
       <r>   -4.6191    1.0000 </r>
       <r>   -4.6191    1.0000 </r>
       <r>   -4.4814    1.0000 </r>
       <r>   -4.4805    1.0000 </r>
       <r>   -4.4794    1.0000 </r>
       <r>   -4.4768    1.0000 </r>
       <r>   -4.4761    1.0000 </r>
       <r>   -4.4754    1.0000 </r>
       <r>   -4.4724    1.0000 </r>
       <r>   -4.4715    1.0000 </r>
       <r>   -4.4706    1.0000 </r>
       <r>   -4.4690    1.0000 </r>
       <r>   -4.4674    1.0000 </r>
       <r>   -4.4667    1.0000 </r>
       <r>   -4.3392    1.0000 </r>
       <r>   -4.3390    1.0000 </r>
       <r>   -4.3389    1.0000 </r>
       <r>   -4.3389    1.0000 </r>
       <r>   -4.3388    1.0000 </r>
       <r>   -4.3386    1.0000 </r>
       <r>   -4.3036    1.0000 </r>
       <r>   -4.0494    1.0000 </r>
       <r>   -3.9423    1.0000 </r>
       <r>   -3.9421    1.0000 </r>
       <r>   -3.6299    1.0000 </r>
       <r>   -3.6298    1.0000 </r>
       <r>   -3.6150    1.0000 </r>
       <r>   -3.5985    1.0000 </r>
       <r>   -3.5595    1.0000 </r>
       <r>   -3.5192    1.0000 </r>
       <r>   -3.5190    1.0000 </r>
       <r>   -3.5123    1.0000 </r>
       <r>   -3.3592    1.0000 </r>
       <r>   -3.3201    1.0000 </r>
       <r>   -3.3200    1.0000 </r>
       <r>   -3.3060    1.0000 </r>
       <r>   -3.3058    1.0000 </r>
       <r>   -3.2528    1.0000 </r>
       <r>   -3.2526    1.0000 </r>
       <r>   -3.2204    1.0000 </r>
       <r>   -3.1820    1.0000 </r>
       <r>   -3.1732    1.0000 </r>
       <r>   -3.1731    1.0000 </r>
       <r>   -3.1030    1.0000 </r>
       <r>   -3.0994    1.0000 </r>
       <r>   -3.0978    1.0000 </r>
       <r>   -3.0973    1.0000 </r>
       <r>   -3.0971    1.0000 </r>
       <r>   -3.0970    1.0000 </r>
       <r>   -3.0965    1.0000 </r>
       <r>   -3.0963    1.0000 </r>
       <r>   -3.0958    1.0000 </r>
       <r>   -3.0954    1.0000 </r>
       <r>   -3.0940    1.0000 </r>
       <r>   -3.0907    1.0000 </r>
       <r>   -3.0211    1.0000 </r>
       <r>   -3.0197    1.0000 </r>
       <r>   -2.9690    1.0000 </r>
       <r>   -2.9689    1.0000 </r>
       <r>   -2.9689    1.0000 </r>
       <r>   -2.9687    1.0000 </r>
       <r>   -2.9687    1.0000 </r>
       <r>   -2.9686    1.0000 </r>
       <r>   -2.9666    1.0000 </r>
       <r>   -2.9308    1.0000 </r>
       <r>   -2.9277    1.0000 </r>
       <r>   -2.9240    1.0000 </r>
       <r>   -2.9231    1.0000 </r>
       <r>   -2.9220    1.0000 </r>
       <r>   -2.9203    1.0000 </r>
       <r>   -2.9153    1.0000 </r>
       <r>   -2.9142    1.0000 </r>
       <r>   -2.9086    1.0000 </r>
       <r>   -2.9040    1.0000 </r>
       <r>   -2.9015    1.0000 </r>
       <r>   -2.8954    1.0000 </r>
       <r>   -2.8937    1.0000 </r>
       <r>   -2.8915    1.0000 </r>
       <r>   -2.8877    1.0000 </r>
       <r>   -2.8850    1.0000 </r>
       <r>   -2.8813    1.0000 </r>
       <r>   -2.8808    1.0000 </r>
       <r>   -2.8791    1.0000 </r>
       <r>   -2.8787    1.0000 </r>
       <r>   -2.8747    1.0000 </r>
       <r>   -2.8738    1.0000 </r>
       <r>   -2.8718    1.0000 </r>
       <r>   -2.8705    1.0000 </r>
       <r>   -2.8616    1.0000 </r>
       <r>   -2.8303    1.0000 </r>
       <r>   -2.8297    1.0000 </r>
       <r>   -2.8031    1.0000 </r>
       <r>   -2.8015    1.0000 </r>
       <r>   -2.7922    1.0000 </r>
       <r>   -2.7725    1.0000 </r>
       <r>   -2.7724    1.0000 </r>
       <r>   -2.7722    1.0000 </r>
       <r>   -2.7711    1.0000 </r>
       <r>   -2.7677    1.0000 </r>
       <r>   -2.7676    1.0000 </r>
       <r>   -2.7624    1.0000 </r>
       <r>   -2.7624    1.0000 </r>
       <r>   -2.7594    1.0000 </r>
       <r>   -2.7590    1.0000 </r>
       <r>   -2.7583    1.0000 </r>
       <r>   -2.7583    1.0000 </r>
       <r>   -2.4069    1.0000 </r>
       <r>   -2.2444    1.0000 </r>
       <r>   -2.2443    1.0000 </r>
       <r>   -2.2175    1.0000 </r>
       <r>   -2.1193    1.0000 </r>
       <r>   -2.0978    1.0000 </r>
       <r>   -2.0919    1.0000 </r>
       <r>   -2.0917    1.0000 </r>
       <r>   -2.0876    1.0000 </r>
       <r>   -2.0226    1.0000 </r>
       <r>   -2.0219    1.0000 </r>
       <r>   -1.9513    1.0000 </r>
       <r>   -1.9512    1.0000 </r>
       <r>   -1.9016    1.0000 </r>
       <r>   -1.7161    1.0000 </r>
       <r>   -1.7146    1.0000 </r>
       <r>   -1.7138    1.0000 </r>
       <r>   -1.7109    1.0000 </r>
       <r>   -1.7100    1.0000 </r>
       <r>   -1.7086    1.0000 </r>
       <r>   -1.6906    1.0000 </r>
       <r>   -1.6900    1.0000 </r>
       <r>   -1.6823    1.0000 </r>
       <r>   -1.6649    1.0000 </r>
       <r>   -1.6387    1.0000 </r>
       <r>   -1.6380    1.0000 </r>
       <r>   -1.5940    1.0000 </r>
       <r>   -1.5929    1.0000 </r>
       <r>   -1.5807    1.0000 </r>
       <r>   -1.5806    1.0000 </r>
       <r>   -1.5806    1.0000 </r>
       <r>   -1.5747    1.0000 </r>
       <r>   -1.5746    1.0000 </r>
       <r>   -1.5694    1.0000 </r>
       <r>   -1.5481    1.0000 </r>
       <r>   -1.5230    1.0000 </r>
       <r>   -1.5229    1.0000 </r>
       <r>   -1.5073    1.0000 </r>
       <r>   -1.5045    1.0000 </r>
       <r>   -1.5028    1.0000 </r>
       <r>   -1.5019    1.0000 </r>
       <r>   -1.4993    1.0000 </r>
       <r>   -1.4991    1.0000 </r>
       <r>   -1.4981    1.0000 </r>
       <r>   -1.4927    1.0000 </r>
       <r>   -1.4915    1.0000 </r>
       <r>   -1.4913    1.0000 </r>
       <r>   -1.4907    1.0000 </r>
       <r>   -1.4899    1.0000 </r>
       <r>   -1.4887    1.0000 </r>
       <r>   -1.4873    1.0000 </r>
       <r>   -1.4848    1.0000 </r>
       <r>   -1.4815    1.0000 </r>
       <r>   -1.4455    1.0000 </r>
       <r>   -1.4441    1.0000 </r>
       <r>   -1.4316    1.0000 </r>
       <r>   -1.4311    1.0000 </r>
       <r>   -1.4297    1.0000 </r>
       <r>   -1.3886    1.0000 </r>
       <r>   -1.3790    1.0000 </r>
       <r>   -1.3782    1.0000 </r>
       <r>   -1.3742    1.0000 </r>
       <r>   -1.3715    1.0000 </r>
       <r>   -1.3712    1.0000 </r>
       <r>   -1.3638    1.0000 </r>
       <r>   -1.3637    1.0000 </r>
       <r>   -1.3629    1.0000 </r>
       <r>   -1.3596    1.0000 </r>
       <r>   -1.3596    1.0000 </r>
       <r>   -1.3595    1.0000 </r>
       <r>   -1.2388    1.0000 </r>
       <r>   -1.2233    1.0000 </r>
       <r>   -1.2229    1.0000 </r>
       <r>   -1.1559    1.0000 </r>
       <r>   -1.1525    1.0000 </r>
       <r>   -1.1516    1.0000 </r>
       <r>   -1.1506    1.0000 </r>
       <r>   -1.1501    1.0000 </r>
       <r>   -1.1495    1.0000 </r>
       <r>   -1.1493    1.0000 </r>
       <r>   -1.1487    1.0000 </r>
       <r>   -1.1482    1.0000 </r>
       <r>   -1.1474    1.0000 </r>
       <r>   -1.1472    1.0000 </r>
       <r>   -1.1460    1.0000 </r>
       <r>   -1.1450    1.0000 </r>
       <r>   -1.1413    1.0000 </r>
       <r>   -1.1253    1.0000 </r>
       <r>   -1.1054    1.0000 </r>
       <r>   -1.0195    1.0000 </r>
       <r>   -1.0194    1.0000 </r>
       <r>   -1.0193    1.0000 </r>
       <r>   -1.0191    1.0000 </r>
       <r>   -1.0189    1.0000 </r>
       <r>   -1.0189    1.0000 </r>
       <r>   -1.0091    1.0000 </r>
       <r>   -1.0082    1.0000 </r>
       <r>   -0.9945    1.0000 </r>
       <r>   -0.8639    1.0000 </r>
       <r>   -0.8612    1.0000 </r>
       <r>   -0.8597    1.0000 </r>
       <r>   -0.8526    1.0000 </r>
       <r>   -0.8514    1.0000 </r>
       <r>   -0.8496    1.0000 </r>
       <r>   -0.8436    1.0000 </r>
       <r>   -0.8412    1.0000 </r>
       <r>   -0.8347    1.0000 </r>
       <r>   -0.8340    1.0000 </r>
       <r>   -0.8313    1.0000 </r>
       <r>   -0.8250    1.0000 </r>
       <r>   -0.7530    1.0000 </r>
       <r>   -0.7469    1.0000 </r>
       <r>   -0.7453    1.0000 </r>
       <r>   -0.7440    1.0000 </r>
       <r>   -0.7426    1.0000 </r>
       <r>   -0.7418    1.0000 </r>
       <r>   -0.7231    1.0000 </r>
       <r>   -0.7213    1.0000 </r>
       <r>   -0.7211    1.0000 </r>
       <r>   -0.7155    1.0000 </r>
       <r>   -0.7153    1.0000 </r>
       <r>   -0.7126    1.0000 </r>
       <r>   -0.4627    1.0000 </r>
       <r>   -0.4605    1.0000 </r>
       <r>   -0.4256    1.0000 </r>
       <r>   -0.3415    1.0000 </r>
       <r>   -0.3394    1.0000 </r>
       <r>   -0.3386    1.0000 </r>
       <r>   -0.3351    1.0000 </r>
       <r>   -0.2587    1.0000 </r>
       <r>   -0.2587    1.0000 </r>
       <r>   -0.1363    1.0000 </r>
       <r>   -0.1273    1.0000 </r>
       <r>   -0.1261    1.0000 </r>
       <r>   -0.1224    1.0000 </r>
       <r>   -0.1222    1.0000 </r>
       <r>   -0.1196    1.0000 </r>
       <r>   -0.0882    1.0000 </r>
       <r>   -0.0880    1.0000 </r>
       <r>   -0.0385    1.0000 </r>
       <r>    0.0033    1.0000 </r>
       <r>    0.0043    1.0000 </r>
       <r>    0.1441    1.0000 </r>
       <r>    0.2121    1.0000 </r>
       <r>    0.2148    1.0000 </r>
       <r>    0.2166    1.0000 </r>
       <r>    0.2182    1.0000 </r>
       <r>    0.2192    1.0000 </r>
       <r>    0.2219    1.0000 </r>
       <r>    0.2222    1.0000 </r>
       <r>    0.2239    1.0000 </r>
       <r>    0.2288    1.0000 </r>
       <r>    0.2335    1.0000 </r>
       <r>    0.2372    1.0000 </r>
       <r>    0.2383    1.0000 </r>
       <r>    0.2414    1.0000 </r>
       <r>    0.2454    1.0000 </r>
       <r>    0.2491    1.0000 </r>
       <r>    0.3434    1.0000 </r>
       <r>    0.3447    1.0000 </r>
       <r>    0.3536    1.0000 </r>
       <r>    0.3551    1.0000 </r>
       <r>    0.3553    1.0000 </r>
       <r>    0.3605    1.0000 </r>
       <r>    0.3606    1.0000 </r>
       <r>    0.3632    1.0000 </r>
       <r>    0.4275    1.0000 </r>
       <r>    0.4358    1.0000 </r>
       <r>    0.4375    1.0000 </r>
       <r>    0.4379    1.0000 </r>
       <r>    0.4393    1.0000 </r>
       <r>    0.4405    1.0000 </r>
       <r>    0.4510    1.0000 </r>
       <r>    0.5743    1.0000 </r>
       <r>    0.6355    1.0000 </r>
       <r>    0.6363    1.0000 </r>
       <r>    0.7156    1.0000 </r>
       <r>    0.7165    1.0000 </r>
       <r>    0.7437    1.0000 </r>
       <r>    0.7437    1.0000 </r>
       <r>    0.7451    1.0000 </r>
       <r>    0.7766    1.0000 </r>
       <r>    0.7821    1.0000 </r>
       <r>    0.7826    1.0000 </r>
       <r>    0.9008    1.0000 </r>
       <r>    0.9216    1.0000 </r>
       <r>    0.9249    1.0000 </r>
       <r>    0.9260    1.0000 </r>
       <r>    0.9415    1.0000 </r>
       <r>    0.9420    1.0000 </r>
       <r>    0.9444    1.0000 </r>
       <r>    0.9448    1.0000 </r>
       <r>    0.9486    1.0000 </r>
       <r>    0.9524    1.0000 </r>
       <r>    0.9535    1.0000 </r>
       <r>    0.9635    1.0000 </r>
       <r>    0.9645    1.0000 </r>
       <r>    0.9651    1.0000 </r>
       <r>    0.9673    1.0000 </r>
       <r>    1.1310    1.0000 </r>
       <r>    1.1337    1.0000 </r>
       <r>    1.1341    1.0000 </r>
       <r>    1.1375    1.0000 </r>
       <r>    1.1812    1.0000 </r>
       <r>    1.1823    1.0000 </r>
       <r>    1.1828    1.0000 </r>
       <r>    1.2614    1.0000 </r>
       <r>    1.2614    1.0000 </r>
       <r>    1.4093    1.0000 </r>
       <r>    1.4101    1.0000 </r>
       <r>    1.4878    1.0000 </r>
       <r>    1.5408    1.0000 </r>
       <r>    1.5830    1.0000 </r>
       <r>    1.5849    1.0000 </r>
       <r>    1.6161    1.0000 </r>
       <r>    1.6176    1.0000 </r>
       <r>    1.6468    1.0000 </r>
       <r>    1.6663    1.0000 </r>
       <r>    1.6670    1.0000 </r>
       <r>    1.6682    1.0000 </r>
       <r>    1.7240    1.0000 </r>
       <r>    1.7245    1.0000 </r>
       <r>    1.7270    1.0000 </r>
       <r>    1.7634    1.0000 </r>
       <r>    1.7859    1.0000 </r>
       <r>    1.7894    1.0000 </r>
       <r>    1.7902    1.0000 </r>
       <r>    1.8041    1.0000 </r>
       <r>    1.8047    1.0000 </r>
       <r>    1.8134    1.0000 </r>
       <r>    1.8144    1.0000 </r>
       <r>    1.8237    1.0000 </r>
       <r>    1.8246    1.0000 </r>
       <r>    1.8255    1.0000 </r>
       <r>    1.8276    1.0000 </r>
       <r>    1.8940    1.0000 </r>
       <r>    1.8944    1.0000 </r>
       <r>    1.8946    1.0000 </r>
       <r>    2.0441    1.0000 </r>
       <r>    2.0441    1.0000 </r>
       <r>    2.3641    1.0000 </r>
       <r>    2.3728    1.0000 </r>
       <r>    2.3760    1.0000 </r>
       <r>    2.3793    1.0000 </r>
       <r>    2.5006    1.0000 </r>
       <r>    2.5006    1.0000 </r>
       <r>    4.6585    1.0000 </r>
       <r>    5.9118    0.0000 </r>
       <r>    6.4832    0.0000 </r>
       <r>    6.4836    0.0000 </r>
       <r>    6.6870    0.0000 </r>
       <r>    6.7482    0.0000 </r>
       <r>    6.8609    0.0000 </r>
       <r>    6.8618    0.0000 </r>
       <r>    6.8654    0.0000 </r>
       <r>    7.1107    0.0000 </r>
       <r>    7.1831    0.0000 </r>
       <r>    7.1833    0.0000 </r>
       <r>    7.1882    0.0000 </r>
       <r>    7.1883    0.0000 </r>
       <r>    7.2627    0.0000 </r>
       <r>    7.2632    0.0000 </r>
       <r>    7.3167    0.0000 </r>
       <r>    7.3168    0.0000 </r>
       <r>    7.3524    0.0000 </r>
       <r>    7.4111    0.0000 </r>
       <r>    7.4113    0.0000 </r>
       <r>    7.5192    0.0000 </r>
       <r>    7.5201    0.0000 </r>
       <r>    7.5731    0.0000 </r>
       <r>    7.5789    0.0000 </r>
       <r>    7.5791    0.0000 </r>
       <r>    7.5978    0.0000 </r>
       <r>    7.6293    0.0000 </r>
       <r>    7.6311    0.0000 </r>
       <r>    7.6346    0.0000 </r>
       <r>    7.6925    0.0000 </r>
       <r>    7.6941    0.0000 </r>
       <r>    7.7137    0.0000 </r>
       <r>    7.7231    0.0000 </r>
       <r>    7.7248    0.0000 </r>
       <r>    7.7267    0.0000 </r>
       <r>    7.7430    0.0000 </r>
       <r>    7.7437    0.0000 </r>
       <r>    7.7497    0.0000 </r>
       <r>    7.7542    0.0000 </r>
       <r>    7.7572    0.0000 </r>
       <r>    7.7574    0.0000 </r>
       <r>    7.8175    0.0000 </r>
       <r>    7.8180    0.0000 </r>
       <r>    7.8189    0.0000 </r>
       <r>    8.0141    0.0000 </r>
       <r>    8.0816    0.0000 </r>
       <r>    8.0829    0.0000 </r>
       <r>    8.0972    0.0000 </r>
       <r>    8.1458    0.0000 </r>
       <r>    8.1471    0.0000 </r>
       <r>    8.1851    0.0000 </r>
       <r>    8.1869    0.0000 </r>
       <r>    8.2152    0.0000 </r>
       <r>    8.2216    0.0000 </r>
       <r>    8.2218    0.0000 </r>
       <r>    8.2285    0.0000 </r>
       <r>    8.3065    0.0000 </r>
       <r>    8.3190    0.0000 </r>
       <r>    8.3199    0.0000 </r>
       <r>    8.3235    0.0000 </r>
       <r>    8.3314    0.0000 </r>
       <r>    8.3423    0.0000 </r>
       <r>    8.3434    0.0000 </r>
       <r>    8.3483    0.0000 </r>
       <r>    8.3489    0.0000 </r>
       <r>    8.3625    0.0000 </r>
       <r>    8.3636    0.0000 </r>
       <r>    8.3637    0.0000 </r>
       <r>    8.3639    0.0000 </r>
       <r>    8.3658    0.0000 </r>
       <r>    8.8092    0.0000 </r>
       <r>    8.8852    0.0000 </r>
       <r>    8.8853    0.0000 </r>
       <r>    9.0807    0.0000 </r>
       <r>    9.0818    0.0000 </r>
       <r>    9.0820    0.0000 </r>
       <r>    9.0823    0.0000 </r>
       <r>    9.1297    0.0000 </r>
       <r>    9.1299    0.0000 </r>
       <r>    9.1326    0.0000 </r>
       <r>    9.1574    0.0000 </r>
       <r>    9.1702    0.0000 </r>
       <r>    9.1963    0.0000 </r>
       <r>    9.1971    0.0000 </r>
       <r>    9.2191    0.0000 </r>
       <r>    9.2266    0.0000 </r>
       <r>    9.2278    0.0000 </r>
       <r>    9.2409    0.0000 </r>
       <r>    9.2734    0.0000 </r>
       <r>    9.2742    0.0000 </r>
       <r>    9.3892    0.0000 </r>
       <r>    9.3899    0.0000 </r>
       <r>    9.3907    0.0000 </r>
       <r>    9.4329    0.0000 </r>
       <r>    9.5268    0.0000 </r>
       <r>    9.5272    0.0000 </r>
       <r>    9.6647    0.0000 </r>
       <r>    9.7647    0.0000 </r>
       <r>    9.7651    0.0000 </r>
       <r>    9.7889    0.0000 </r>
       <r>    9.7896    0.0000 </r>
       <r>    9.7997    0.0000 </r>
       <r>    9.9509    0.0000 </r>
       <r>    9.9519    0.0000 </r>
       <r>    9.9520    0.0000 </r>
       <r>    9.9722    0.0000 </r>
       <r>    9.9743    0.0000 </r>
       <r>    9.9745    0.0000 </r>
       <r>   10.0709    0.0000 </r>
       <r>   10.1261    0.0000 </r>
       <r>   10.1265    0.0000 </r>
       <r>   10.1445    0.0000 </r>
       <r>   10.1446    0.0000 </r>
       <r>   10.1684    0.0000 </r>
       <r>   10.1824    0.0000 </r>
       <r>   10.1831    0.0000 </r>
       <r>   10.1916    0.0000 </r>
       <r>   10.1959    0.0000 </r>
       <r>   10.1972    0.0000 </r>
       <r>   10.2724    0.0000 </r>
       <r>   10.5404    0.0000 </r>
       <r>   10.6162    0.0000 </r>
       <r>   10.6167    0.0000 </r>
       <r>   10.6401    0.0000 </r>
       <r>   10.6405    0.0000 </r>
       <r>   10.6629    0.0000 </r>
       <r>   10.8073    0.0000 </r>
       <r>   10.8144    0.0000 </r>
       <r>   10.8153    0.0000 </r>
       <r>   10.8193    0.0000 </r>
       <r>   10.8196    0.0000 </r>
       <r>   10.8215    0.0000 </r>
       <r>   11.3186    0.0000 </r>
       <r>   11.3255    0.0000 </r>
       <r>   11.3438    0.0000 </r>
       <r>   11.4123    0.0000 </r>
       <r>   11.4465    0.0000 </r>
       <r>   11.5060    0.0000 </r>
       <r>   11.5106    0.0000 </r>
       <r>   11.5443    0.0000 </r>
       <r>   11.5655    0.0000 </r>
       <r>   11.6124    0.0000 </r>
       <r>   11.6298    0.0000 </r>
       <r>   11.6699    0.0000 </r>
       <r>   11.7019    0.0000 </r>
       <r>   11.7446    0.0000 </r>
       <r>   11.7585    0.0000 </r>
       <r>   11.7739    0.0000 </r>
       <r>   11.7984    0.0000 </r>
       <r>   11.8276    0.0000 </r>
       <r>   11.8808    0.0000 </r>
      </set>
      <set comment="kpoint 6">
       <r>  -17.2950    1.0000 </r>
       <r>  -15.7760    1.0000 </r>
       <r>  -15.7311    1.0000 </r>
       <r>  -15.4163    1.0000 </r>
       <r>  -15.3051    1.0000 </r>
       <r>  -15.2760    1.0000 </r>
       <r>  -15.2421    1.0000 </r>
       <r>  -15.2064    1.0000 </r>
       <r>  -15.1446    1.0000 </r>
       <r>  -15.0918    1.0000 </r>
       <r>  -15.0612    1.0000 </r>
       <r>  -15.0347    1.0000 </r>
       <r>  -15.0151    1.0000 </r>
       <r>  -14.9853    1.0000 </r>
       <r>  -14.9826    1.0000 </r>
       <r>  -14.9066    1.0000 </r>
       <r>  -14.9001    1.0000 </r>
       <r>  -14.8555    1.0000 </r>
       <r>  -14.7582    1.0000 </r>
       <r>  -14.7571    1.0000 </r>
       <r>  -14.6185    1.0000 </r>
       <r>  -14.5674    1.0000 </r>
       <r>  -14.5514    1.0000 </r>
       <r>  -14.4674    1.0000 </r>
       <r>  -14.4633    1.0000 </r>
       <r>  -14.4597    1.0000 </r>
       <r>  -14.4586    1.0000 </r>
       <r>  -14.4253    1.0000 </r>
       <r>  -14.4033    1.0000 </r>
       <r>  -14.3961    1.0000 </r>
       <r>  -14.3859    1.0000 </r>
       <r>  -14.3435    1.0000 </r>
       <r>  -14.2477    1.0000 </r>
       <r>  -14.2458    1.0000 </r>
       <r>  -14.2434    1.0000 </r>
       <r>  -14.2428    1.0000 </r>
       <r>  -14.2069    1.0000 </r>
       <r>  -14.2064    1.0000 </r>
       <r>  -14.1715    1.0000 </r>
       <r>  -14.1493    1.0000 </r>
       <r>  -14.1114    1.0000 </r>
       <r>  -14.0358    1.0000 </r>
       <r>  -13.9976    1.0000 </r>
       <r>  -13.9973    1.0000 </r>
       <r>  -13.9486    1.0000 </r>
       <r>  -13.7880    1.0000 </r>
       <r>  -13.7434    1.0000 </r>
       <r>  -13.7388    1.0000 </r>
       <r>  -13.7118    1.0000 </r>
       <r>  -13.7114    1.0000 </r>
       <r>  -13.7036    1.0000 </r>
       <r>  -13.6814    1.0000 </r>
       <r>  -13.6578    1.0000 </r>
       <r>  -13.6553    1.0000 </r>
       <r>  -13.6050    1.0000 </r>
       <r>  -13.5333    1.0000 </r>
       <r>  -13.5323    1.0000 </r>
       <r>  -13.5185    1.0000 </r>
       <r>  -13.5184    1.0000 </r>
       <r>  -13.5060    1.0000 </r>
       <r>  -13.3595    1.0000 </r>
       <r>  -13.3380    1.0000 </r>
       <r>  -13.2553    1.0000 </r>
       <r>  -13.2228    1.0000 </r>
       <r>  -13.1099    1.0000 </r>
       <r>  -13.0696    1.0000 </r>
       <r>  -13.0645    1.0000 </r>
       <r>  -13.0623    1.0000 </r>
       <r>  -13.0606    1.0000 </r>
       <r>  -13.0338    1.0000 </r>
       <r>  -13.0273    1.0000 </r>
       <r>  -13.0235    1.0000 </r>
       <r>  -13.0168    1.0000 </r>
       <r>  -12.9736    1.0000 </r>
       <r>  -12.9291    1.0000 </r>
       <r>  -12.8953    1.0000 </r>
       <r>  -12.8920    1.0000 </r>
       <r>  -12.8891    1.0000 </r>
       <r>  -12.8887    1.0000 </r>
       <r>  -12.8789    1.0000 </r>
       <r>  -12.8779    1.0000 </r>
       <r>  -12.8768    1.0000 </r>
       <r>  -12.8759    1.0000 </r>
       <r>  -12.8666    1.0000 </r>
       <r>  -12.8612    1.0000 </r>
       <r>  -12.8559    1.0000 </r>
       <r>  -12.8507    1.0000 </r>
       <r>  -12.8490    1.0000 </r>
       <r>  -12.7156    1.0000 </r>
       <r>  -12.7151    1.0000 </r>
       <r>  -12.7145    1.0000 </r>
       <r>  -12.7144    1.0000 </r>
       <r>  -12.6835    1.0000 </r>
       <r>  -12.6098    1.0000 </r>
       <r>  -12.5984    1.0000 </r>
       <r>  -12.5766    1.0000 </r>
       <r>  -12.5728    1.0000 </r>
       <r>  -12.5512    1.0000 </r>
       <r>  -12.5335    1.0000 </r>
       <r>  -12.4986    1.0000 </r>
       <r>  -12.4378    1.0000 </r>
       <r>  -12.4293    1.0000 </r>
       <r>  -12.4245    1.0000 </r>
       <r>  -12.4228    1.0000 </r>
       <r>  -12.3423    1.0000 </r>
       <r>  -12.3384    1.0000 </r>
       <r>  -12.3218    1.0000 </r>
       <r>  -12.3172    1.0000 </r>
       <r>  -12.2463    1.0000 </r>
       <r>  -12.2450    1.0000 </r>
       <r>  -12.2367    1.0000 </r>
       <r>  -12.2325    1.0000 </r>
       <r>  -12.2190    1.0000 </r>
       <r>  -12.2181    1.0000 </r>
       <r>  -12.2082    1.0000 </r>
       <r>  -12.2053    1.0000 </r>
       <r>  -12.1764    1.0000 </r>
       <r>  -12.1763    1.0000 </r>
       <r>  -12.1702    1.0000 </r>
       <r>  -12.1699    1.0000 </r>
       <r>  -12.0958    1.0000 </r>
       <r>  -12.0957    1.0000 </r>
       <r>  -12.0890    1.0000 </r>
       <r>  -12.0872    1.0000 </r>
       <r>  -12.0872    1.0000 </r>
       <r>  -12.0849    1.0000 </r>
       <r>  -11.9521    1.0000 </r>
       <r>  -11.9492    1.0000 </r>
       <r>  -11.9462    1.0000 </r>
       <r>  -11.9436    1.0000 </r>
       <r>  -11.8163    1.0000 </r>
       <r>  -11.8155    1.0000 </r>
       <r>  -11.8088    1.0000 </r>
       <r>  -11.8063    1.0000 </r>
       <r>  -11.8050    1.0000 </r>
       <r>  -11.7982    1.0000 </r>
       <r>  -11.7850    1.0000 </r>
       <r>  -11.7847    1.0000 </r>
       <r>  -11.7795    1.0000 </r>
       <r>  -11.7793    1.0000 </r>
       <r>  -11.6684    1.0000 </r>
       <r>  -11.6684    1.0000 </r>
       <r>  -11.6613    1.0000 </r>
       <r>  -11.6612    1.0000 </r>
       <r>   -8.3642    1.0000 </r>
       <r>   -7.2848    1.0000 </r>
       <r>   -7.2717    1.0000 </r>
       <r>   -6.7940    1.0000 </r>
       <r>   -6.7050    1.0000 </r>
       <r>   -6.6831    1.0000 </r>
       <r>   -6.4380    1.0000 </r>
       <r>   -6.4061    1.0000 </r>
       <r>   -6.3219    1.0000 </r>
       <r>   -6.3095    1.0000 </r>
       <r>   -6.3065    1.0000 </r>
       <r>   -6.3044    1.0000 </r>
       <r>   -6.2997    1.0000 </r>
       <r>   -6.2866    1.0000 </r>
       <r>   -6.2756    1.0000 </r>
       <r>   -6.2747    1.0000 </r>
       <r>   -6.2689    1.0000 </r>
       <r>   -6.2684    1.0000 </r>
       <r>   -6.2174    1.0000 </r>
       <r>   -6.2151    1.0000 </r>
       <r>   -6.2127    1.0000 </r>
       <r>   -6.2070    1.0000 </r>
       <r>   -6.1961    1.0000 </r>
       <r>   -6.1946    1.0000 </r>
       <r>   -6.1589    1.0000 </r>
       <r>   -6.1588    1.0000 </r>
       <r>   -6.1492    1.0000 </r>
       <r>   -6.1491    1.0000 </r>
       <r>   -6.0727    1.0000 </r>
       <r>   -6.0712    1.0000 </r>
       <r>   -5.9349    1.0000 </r>
       <r>   -5.9275    1.0000 </r>
       <r>   -5.9109    1.0000 </r>
       <r>   -5.9035    1.0000 </r>
       <r>   -5.8440    1.0000 </r>
       <r>   -5.7895    1.0000 </r>
       <r>   -5.7819    1.0000 </r>
       <r>   -5.7718    1.0000 </r>
       <r>   -5.7695    1.0000 </r>
       <r>   -5.7687    1.0000 </r>
       <r>   -5.7642    1.0000 </r>
       <r>   -5.7620    1.0000 </r>
       <r>   -5.7588    1.0000 </r>
       <r>   -5.7574    1.0000 </r>
       <r>   -5.7573    1.0000 </r>
       <r>   -5.7507    1.0000 </r>
       <r>   -5.7392    1.0000 </r>
       <r>   -5.6844    1.0000 </r>
       <r>   -5.6542    1.0000 </r>
       <r>   -5.6418    1.0000 </r>
       <r>   -5.6232    1.0000 </r>
       <r>   -5.6231    1.0000 </r>
       <r>   -5.6200    1.0000 </r>
       <r>   -5.6199    1.0000 </r>
       <r>   -5.2320    1.0000 </r>
       <r>   -5.2272    1.0000 </r>
       <r>   -5.2257    1.0000 </r>
       <r>   -5.2246    1.0000 </r>
       <r>   -5.2241    1.0000 </r>
       <r>   -5.2201    1.0000 </r>
       <r>   -5.2192    1.0000 </r>
       <r>   -5.2186    1.0000 </r>
       <r>   -5.2183    1.0000 </r>
       <r>   -5.2174    1.0000 </r>
       <r>   -5.2170    1.0000 </r>
       <r>   -5.2132    1.0000 </r>
       <r>   -5.1148    1.0000 </r>
       <r>   -5.1107    1.0000 </r>
       <r>   -5.0908    1.0000 </r>
       <r>   -5.0907    1.0000 </r>
       <r>   -5.0879    1.0000 </r>
       <r>   -5.0878    1.0000 </r>
       <r>   -5.0875    1.0000 </r>
       <r>   -5.0874    1.0000 </r>
       <r>   -5.0261    1.0000 </r>
       <r>   -4.9210    1.0000 </r>
       <r>   -4.8318    1.0000 </r>
       <r>   -4.6117    1.0000 </r>
       <r>   -4.5546    1.0000 </r>
       <r>   -4.5413    1.0000 </r>
       <r>   -4.4773    1.0000 </r>
       <r>   -4.4738    1.0000 </r>
       <r>   -4.4731    1.0000 </r>
       <r>   -4.4708    1.0000 </r>
       <r>   -4.4700    1.0000 </r>
       <r>   -4.4694    1.0000 </r>
       <r>   -4.4674    1.0000 </r>
       <r>   -4.4660    1.0000 </r>
       <r>   -4.3414    1.0000 </r>
       <r>   -4.3412    1.0000 </r>
       <r>   -4.3408    1.0000 </r>
       <r>   -4.3407    1.0000 </r>
       <r>   -4.3164    1.0000 </r>
       <r>   -4.2905    1.0000 </r>
       <r>   -4.2019    1.0000 </r>
       <r>   -4.0979    1.0000 </r>
       <r>   -4.0886    1.0000 </r>
       <r>   -4.0874    1.0000 </r>
       <r>   -4.0845    1.0000 </r>
       <r>   -4.0836    1.0000 </r>
       <r>   -4.0746    1.0000 </r>
       <r>   -4.0744    1.0000 </r>
       <r>   -4.0714    1.0000 </r>
       <r>   -4.0704    1.0000 </r>
       <r>   -4.0288    1.0000 </r>
       <r>   -3.9501    1.0000 </r>
       <r>   -3.9501    1.0000 </r>
       <r>   -3.9467    1.0000 </r>
       <r>   -3.9466    1.0000 </r>
       <r>   -3.9090    1.0000 </r>
       <r>   -3.8652    1.0000 </r>
       <r>   -3.7857    1.0000 </r>
       <r>   -3.6243    1.0000 </r>
       <r>   -3.6204    1.0000 </r>
       <r>   -3.6163    1.0000 </r>
       <r>   -3.6129    1.0000 </r>
       <r>   -3.6082    1.0000 </r>
       <r>   -3.6036    1.0000 </r>
       <r>   -3.6020    1.0000 </r>
       <r>   -3.5984    1.0000 </r>
       <r>   -3.5979    1.0000 </r>
       <r>   -3.4797    1.0000 </r>
       <r>   -3.4796    1.0000 </r>
       <r>   -3.4782    1.0000 </r>
       <r>   -3.4742    1.0000 </r>
       <r>   -3.4741    1.0000 </r>
       <r>   -3.4679    1.0000 </r>
       <r>   -3.4672    1.0000 </r>
       <r>   -3.4657    1.0000 </r>
       <r>   -3.4649    1.0000 </r>
       <r>   -3.3909    1.0000 </r>
       <r>   -3.3585    1.0000 </r>
       <r>   -3.3473    1.0000 </r>
       <r>   -3.3399    1.0000 </r>
       <r>   -3.3389    1.0000 </r>
       <r>   -3.3382    1.0000 </r>
       <r>   -3.3379    1.0000 </r>
       <r>   -3.1563    1.0000 </r>
       <r>   -3.0976    1.0000 </r>
       <r>   -3.0780    1.0000 </r>
       <r>   -3.0737    1.0000 </r>
       <r>   -3.0718    1.0000 </r>
       <r>   -3.0657    1.0000 </r>
       <r>   -3.0036    1.0000 </r>
       <r>   -2.9996    1.0000 </r>
       <r>   -2.9920    1.0000 </r>
       <r>   -2.9384    1.0000 </r>
       <r>   -2.9376    1.0000 </r>
       <r>   -2.8563    1.0000 </r>
       <r>   -2.8430    1.0000 </r>
       <r>   -2.7702    1.0000 </r>
       <r>   -2.7667    1.0000 </r>
       <r>   -2.7564    1.0000 </r>
       <r>   -2.7265    1.0000 </r>
       <r>   -2.6769    1.0000 </r>
       <r>   -2.6739    1.0000 </r>
       <r>   -2.6723    1.0000 </r>
       <r>   -2.6628    1.0000 </r>
       <r>   -2.6426    1.0000 </r>
       <r>   -2.5485    1.0000 </r>
       <r>   -2.5456    1.0000 </r>
       <r>   -2.5452    1.0000 </r>
       <r>   -2.5178    1.0000 </r>
       <r>   -2.4674    1.0000 </r>
       <r>   -2.3929    1.0000 </r>
       <r>   -2.3875    1.0000 </r>
       <r>   -2.3788    1.0000 </r>
       <r>   -2.3750    1.0000 </r>
       <r>   -2.3739    1.0000 </r>
       <r>   -2.3720    1.0000 </r>
       <r>   -2.3712    1.0000 </r>
       <r>   -2.3708    1.0000 </r>
       <r>   -2.3702    1.0000 </r>
       <r>   -2.3672    1.0000 </r>
       <r>   -2.3661    1.0000 </r>
       <r>   -2.3477    1.0000 </r>
       <r>   -2.2874    1.0000 </r>
       <r>   -2.2631    1.0000 </r>
       <r>   -2.2575    1.0000 </r>
       <r>   -2.2411    1.0000 </r>
       <r>   -2.2407    1.0000 </r>
       <r>   -2.2404    1.0000 </r>
       <r>   -2.2402    1.0000 </r>
       <r>   -2.2371    1.0000 </r>
       <r>   -2.2085    1.0000 </r>
       <r>   -2.2081    1.0000 </r>
       <r>   -2.1999    1.0000 </r>
       <r>   -2.1647    1.0000 </r>
       <r>   -2.1586    1.0000 </r>
       <r>   -2.1436    1.0000 </r>
       <r>   -2.1258    1.0000 </r>
       <r>   -2.0991    1.0000 </r>
       <r>   -2.0937    1.0000 </r>
       <r>   -2.0907    1.0000 </r>
       <r>   -2.0871    1.0000 </r>
       <r>   -2.0851    1.0000 </r>
       <r>   -2.0578    1.0000 </r>
       <r>   -2.0573    1.0000 </r>
       <r>   -2.0510    1.0000 </r>
       <r>   -2.0508    1.0000 </r>
       <r>   -2.0099    1.0000 </r>
       <r>   -1.9646    1.0000 </r>
       <r>   -1.9431    1.0000 </r>
       <r>   -1.9430    1.0000 </r>
       <r>   -1.9353    1.0000 </r>
       <r>   -1.9331    1.0000 </r>
       <r>   -1.9330    1.0000 </r>
       <r>   -1.9311    1.0000 </r>
       <r>   -1.9067    1.0000 </r>
       <r>   -1.9053    1.0000 </r>
       <r>   -1.8961    1.0000 </r>
       <r>   -1.8828    1.0000 </r>
       <r>   -1.8642    1.0000 </r>
       <r>   -1.8615    1.0000 </r>
       <r>   -1.8596    1.0000 </r>
       <r>   -1.8589    1.0000 </r>
       <r>   -1.8571    1.0000 </r>
       <r>   -1.8567    1.0000 </r>
       <r>   -1.8556    1.0000 </r>
       <r>   -1.8532    1.0000 </r>
       <r>   -1.7806    1.0000 </r>
       <r>   -1.7787    1.0000 </r>
       <r>   -1.7775    1.0000 </r>
       <r>   -1.7766    1.0000 </r>
       <r>   -1.7747    1.0000 </r>
       <r>   -1.7740    1.0000 </r>
       <r>   -1.7722    1.0000 </r>
       <r>   -1.7694    1.0000 </r>
       <r>   -1.7456    1.0000 </r>
       <r>   -1.7437    1.0000 </r>
       <r>   -1.7415    1.0000 </r>
       <r>   -1.7411    1.0000 </r>
       <r>   -1.7152    1.0000 </r>
       <r>   -1.7085    1.0000 </r>
       <r>   -1.6887    1.0000 </r>
       <r>   -1.6616    1.0000 </r>
       <r>   -1.6452    1.0000 </r>
       <r>   -1.6451    1.0000 </r>
       <r>   -1.6448    1.0000 </r>
       <r>   -1.6447    1.0000 </r>
       <r>   -1.6100    1.0000 </r>
       <r>   -1.6086    1.0000 </r>
       <r>   -1.5861    1.0000 </r>
       <r>   -1.5836    1.0000 </r>
       <r>   -1.5793    1.0000 </r>
       <r>   -1.5598    1.0000 </r>
       <r>   -1.5550    1.0000 </r>
       <r>   -1.5500    1.0000 </r>
       <r>   -1.4642    1.0000 </r>
       <r>   -1.4490    1.0000 </r>
       <r>   -1.4410    1.0000 </r>
       <r>   -1.4316    1.0000 </r>
       <r>   -1.2647    1.0000 </r>
       <r>   -1.2564    1.0000 </r>
       <r>   -1.2527    1.0000 </r>
       <r>   -1.2356    1.0000 </r>
       <r>   -1.2350    1.0000 </r>
       <r>   -1.2258    1.0000 </r>
       <r>   -1.2224    1.0000 </r>
       <r>   -1.2099    1.0000 </r>
       <r>   -1.2076    1.0000 </r>
       <r>   -1.2067    1.0000 </r>
       <r>   -1.2050    1.0000 </r>
       <r>   -1.1940    1.0000 </r>
       <r>   -1.1883    1.0000 </r>
       <r>   -1.1879    1.0000 </r>
       <r>   -1.1855    1.0000 </r>
       <r>   -1.1594    1.0000 </r>
       <r>   -1.1198    1.0000 </r>
       <r>   -1.0878    1.0000 </r>
       <r>   -1.0877    1.0000 </r>
       <r>   -1.0825    1.0000 </r>
       <r>   -1.0824    1.0000 </r>
       <r>   -1.0562    1.0000 </r>
       <r>   -1.0158    1.0000 </r>
       <r>   -0.9341    1.0000 </r>
       <r>   -0.9301    1.0000 </r>
       <r>   -0.9160    1.0000 </r>
       <r>   -0.9100    1.0000 </r>
       <r>   -0.9086    1.0000 </r>
       <r>   -0.8571    1.0000 </r>
       <r>   -0.8451    1.0000 </r>
       <r>   -0.8346    1.0000 </r>
       <r>   -0.7762    1.0000 </r>
       <r>   -0.7322    1.0000 </r>
       <r>   -0.7085    1.0000 </r>
       <r>   -0.7063    1.0000 </r>
       <r>   -0.6564    1.0000 </r>
       <r>   -0.6396    1.0000 </r>
       <r>   -0.5974    1.0000 </r>
       <r>   -0.5948    1.0000 </r>
       <r>   -0.5304    1.0000 </r>
       <r>   -0.5201    1.0000 </r>
       <r>   -0.5173    1.0000 </r>
       <r>   -0.5161    1.0000 </r>
       <r>   -0.5139    1.0000 </r>
       <r>   -0.4629    1.0000 </r>
       <r>   -0.4600    1.0000 </r>
       <r>   -0.4577    1.0000 </r>
       <r>   -0.4559    1.0000 </r>
       <r>   -0.4544    1.0000 </r>
       <r>   -0.4523    1.0000 </r>
       <r>   -0.4487    1.0000 </r>
       <r>   -0.4476    1.0000 </r>
       <r>   -0.4184    1.0000 </r>
       <r>   -0.3835    1.0000 </r>
       <r>   -0.3835    1.0000 </r>
       <r>   -0.3764    1.0000 </r>
       <r>   -0.3524    1.0000 </r>
       <r>   -0.3497    1.0000 </r>
       <r>   -0.3471    1.0000 </r>
       <r>   -0.3457    1.0000 </r>
       <r>   -0.3265    1.0000 </r>
       <r>   -0.3260    1.0000 </r>
       <r>   -0.3258    1.0000 </r>
       <r>   -0.3254    1.0000 </r>
       <r>   -0.2803    1.0000 </r>
       <r>   -0.2642    1.0000 </r>
       <r>   -0.2639    1.0000 </r>
       <r>   -0.2586    1.0000 </r>
       <r>   -0.2559    1.0000 </r>
       <r>   -0.2544    1.0000 </r>
       <r>   -0.2520    1.0000 </r>
       <r>   -0.2251    1.0000 </r>
       <r>   -0.2243    1.0000 </r>
       <r>   -0.2176    1.0000 </r>
       <r>   -0.2130    1.0000 </r>
       <r>   -0.1418    1.0000 </r>
       <r>   -0.1405    1.0000 </r>
       <r>   -0.0465    1.0000 </r>
       <r>   -0.0097    1.0000 </r>
       <r>    0.0016    1.0000 </r>
       <r>    0.0096    1.0000 </r>
       <r>    0.0114    1.0000 </r>
       <r>    0.0181    1.0000 </r>
       <r>    0.0182    1.0000 </r>
       <r>    0.0348    1.0000 </r>
       <r>    0.0349    1.0000 </r>
       <r>    0.0503    1.0000 </r>
       <r>    0.1874    1.0000 </r>
       <r>    0.2773    1.0000 </r>
       <r>    0.3160    1.0000 </r>
       <r>    0.3394    1.0000 </r>
       <r>    0.3412    1.0000 </r>
       <r>    0.3444    1.0000 </r>
       <r>    0.3493    1.0000 </r>
       <r>    0.3518    1.0000 </r>
       <r>    0.3950    1.0000 </r>
       <r>    0.4206    1.0000 </r>
       <r>    0.4765    1.0000 </r>
       <r>    0.4774    1.0000 </r>
       <r>    0.4880    1.0000 </r>
       <r>    0.5104    1.0000 </r>
       <r>    0.5574    1.0000 </r>
       <r>    0.5597    1.0000 </r>
       <r>    0.5656    1.0000 </r>
       <r>    0.5767    1.0000 </r>
       <r>    0.5871    1.0000 </r>
       <r>    0.5887    1.0000 </r>
       <r>    0.6143    1.0000 </r>
       <r>    0.6294    1.0000 </r>
       <r>    0.6521    1.0000 </r>
       <r>    0.6941    1.0000 </r>
       <r>    0.7033    1.0000 </r>
       <r>    0.7283    1.0000 </r>
       <r>    0.7287    1.0000 </r>
       <r>    0.8536    1.0000 </r>
       <r>    0.8552    1.0000 </r>
       <r>    0.8570    1.0000 </r>
       <r>    0.8621    1.0000 </r>
       <r>    0.8638    1.0000 </r>
       <r>    0.8654    1.0000 </r>
       <r>    0.8661    1.0000 </r>
       <r>    0.8742    1.0000 </r>
       <r>    0.8755    1.0000 </r>
       <r>    0.8760    1.0000 </r>
       <r>    0.8836    1.0000 </r>
       <r>    0.8858    1.0000 </r>
       <r>    0.8924    1.0000 </r>
       <r>    0.8940    1.0000 </r>
       <r>    0.9053    1.0000 </r>
       <r>    0.9057    1.0000 </r>
       <r>    0.9938    1.0000 </r>
       <r>    1.0028    1.0000 </r>
       <r>    1.0562    1.0000 </r>
       <r>    1.0651    1.0000 </r>
       <r>    1.0780    1.0000 </r>
       <r>    1.0786    1.0000 </r>
       <r>    1.0947    1.0000 </r>
       <r>    1.0957    1.0000 </r>
       <r>    1.1011    1.0000 </r>
       <r>    1.1087    1.0000 </r>
       <r>    1.1093    1.0000 </r>
       <r>    1.2438    1.0000 </r>
       <r>    1.2592    1.0000 </r>
       <r>    1.3040    1.0000 </r>
       <r>    1.4337    1.0000 </r>
       <r>    1.4471    1.0000 </r>
       <r>    1.4564    1.0000 </r>
       <r>    1.4627    1.0000 </r>
       <r>    1.5932    1.0000 </r>
       <r>    1.6014    1.0000 </r>
       <r>    1.6031    1.0000 </r>
       <r>    1.6059    1.0000 </r>
       <r>    1.6138    1.0000 </r>
       <r>    1.6217    1.0000 </r>
       <r>    1.6520    1.0000 </r>
       <r>    1.6662    1.0000 </r>
       <r>    1.7130    1.0000 </r>
       <r>    1.7136    1.0000 </r>
       <r>    1.7669    1.0000 </r>
       <r>    1.7731    1.0000 </r>
       <r>    1.8429    1.0000 </r>
       <r>    1.8513    1.0000 </r>
       <r>    1.8543    1.0000 </r>
       <r>    1.8629    1.0000 </r>
       <r>    1.8670    1.0000 </r>
       <r>    1.8709    1.0000 </r>
       <r>    1.8787    1.0000 </r>
       <r>    1.8789    1.0000 </r>
       <r>    1.9869    1.0000 </r>
       <r>    2.0015    1.0000 </r>
       <r>    2.1873    1.0000 </r>
       <r>    2.1888    1.0000 </r>
       <r>    2.1958    1.0000 </r>
       <r>    2.1999    1.0000 </r>
       <r>    2.2063    1.0000 </r>
       <r>    2.2109    1.0000 </r>
       <r>    2.3789    1.0000 </r>
       <r>    2.3819    1.0000 </r>
       <r>    2.3893    1.0000 </r>
       <r>    2.3894    1.0000 </r>
       <r>    4.6547    1.0000 </r>
       <r>    5.9185    0.0000 </r>
       <r>    6.6048    0.0000 </r>
       <r>    6.6224    0.0000 </r>
       <r>    6.6269    0.0000 </r>
       <r>    6.8743    0.0000 </r>
       <r>    6.9349    0.0000 </r>
       <r>    7.0016    0.0000 </r>
       <r>    7.0142    0.0000 </r>
       <r>    7.0436    0.0000 </r>
       <r>    7.0542    0.0000 </r>
       <r>    7.0684    0.0000 </r>
       <r>    7.0811    0.0000 </r>
       <r>    7.1061    0.0000 </r>
       <r>    7.1145    0.0000 </r>
       <r>    7.1454    0.0000 </r>
       <r>    7.1466    0.0000 </r>
       <r>    7.2314    0.0000 </r>
       <r>    7.2652    0.0000 </r>
       <r>    7.2657    0.0000 </r>
       <r>    7.2862    0.0000 </r>
       <r>    7.2863    0.0000 </r>
       <r>    7.4216    0.0000 </r>
       <r>    7.4481    0.0000 </r>
       <r>    7.4563    0.0000 </r>
       <r>    7.4754    0.0000 </r>
       <r>    7.4829    0.0000 </r>
       <r>    7.5677    0.0000 </r>
       <r>    7.5724    0.0000 </r>
       <r>    7.6154    0.0000 </r>
       <r>    7.6460    0.0000 </r>
       <r>    7.6605    0.0000 </r>
       <r>    7.6644    0.0000 </r>
       <r>    7.6652    0.0000 </r>
       <r>    7.6673    0.0000 </r>
       <r>    7.6828    0.0000 </r>
       <r>    7.7022    0.0000 </r>
       <r>    7.7326    0.0000 </r>
       <r>    7.7356    0.0000 </r>
       <r>    7.7820    0.0000 </r>
       <r>    7.8437    0.0000 </r>
       <r>    7.8760    0.0000 </r>
       <r>    7.8968    0.0000 </r>
       <r>    7.9694    0.0000 </r>
       <r>    7.9765    0.0000 </r>
       <r>    8.0056    0.0000 </r>
       <r>    8.0063    0.0000 </r>
       <r>    8.0822    0.0000 </r>
       <r>    8.0965    0.0000 </r>
       <r>    8.0988    0.0000 </r>
       <r>    8.1902    0.0000 </r>
       <r>    8.2098    0.0000 </r>
       <r>    8.2341    0.0000 </r>
       <r>    8.2813    0.0000 </r>
       <r>    8.3352    0.0000 </r>
       <r>    8.3376    0.0000 </r>
       <r>    8.3620    0.0000 </r>
       <r>    8.4658    0.0000 </r>
       <r>    8.4789    0.0000 </r>
       <r>    8.4887    0.0000 </r>
       <r>    8.4943    0.0000 </r>
       <r>    8.4970    0.0000 </r>
       <r>    8.5079    0.0000 </r>
       <r>    8.5102    0.0000 </r>
       <r>    8.5110    0.0000 </r>
       <r>    8.5325    0.0000 </r>
       <r>    8.5581    0.0000 </r>
       <r>    8.5630    0.0000 </r>
       <r>    8.6269    0.0000 </r>
       <r>    8.7572    0.0000 </r>
       <r>    8.8112    0.0000 </r>
       <r>    8.8785    0.0000 </r>
       <r>    8.8975    0.0000 </r>
       <r>    8.9152    0.0000 </r>
       <r>    8.9642    0.0000 </r>
       <r>    9.0016    0.0000 </r>
       <r>    9.0084    0.0000 </r>
       <r>    9.0165    0.0000 </r>
       <r>    9.0176    0.0000 </r>
       <r>    9.0224    0.0000 </r>
       <r>    9.0295    0.0000 </r>
       <r>    9.0920    0.0000 </r>
       <r>    9.1312    0.0000 </r>
       <r>    9.1622    0.0000 </r>
       <r>    9.1649    0.0000 </r>
       <r>    9.1772    0.0000 </r>
       <r>    9.2077    0.0000 </r>
       <r>    9.2088    0.0000 </r>
       <r>    9.2106    0.0000 </r>
       <r>    9.3000    0.0000 </r>
       <r>    9.3151    0.0000 </r>
       <r>    9.3991    0.0000 </r>
       <r>    9.4263    0.0000 </r>
       <r>    9.4419    0.0000 </r>
       <r>    9.4464    0.0000 </r>
       <r>    9.5809    0.0000 </r>
       <r>    9.6000    0.0000 </r>
       <r>    9.6028    0.0000 </r>
       <r>    9.6066    0.0000 </r>
       <r>    9.6076    0.0000 </r>
       <r>    9.6121    0.0000 </r>
       <r>    9.6352    0.0000 </r>
       <r>    9.6714    0.0000 </r>
       <r>    9.7064    0.0000 </r>
       <r>    9.7100    0.0000 </r>
       <r>    9.7291    0.0000 </r>
       <r>    9.7365    0.0000 </r>
       <r>    9.7728    0.0000 </r>
       <r>    9.8174    0.0000 </r>
       <r>    9.8252    0.0000 </r>
       <r>    9.9224    0.0000 </r>
       <r>    9.9250    0.0000 </r>
       <r>    9.9364    0.0000 </r>
       <r>    9.9650    0.0000 </r>
       <r>    9.9676    0.0000 </r>
       <r>   10.0295    0.0000 </r>
       <r>   10.0647    0.0000 </r>
       <r>   10.1004    0.0000 </r>
       <r>   10.1008    0.0000 </r>
       <r>   10.3002    0.0000 </r>
       <r>   10.3390    0.0000 </r>
       <r>   10.4250    0.0000 </r>
       <r>   10.4253    0.0000 </r>
       <r>   10.5249    0.0000 </r>
       <r>   10.5261    0.0000 </r>
       <r>   10.5488    0.0000 </r>
       <r>   10.5520    0.0000 </r>
       <r>   10.8643    0.0000 </r>
       <r>   10.9848    0.0000 </r>
       <r>   11.2068    0.0000 </r>
       <r>   11.2099    0.0000 </r>
       <r>   11.2811    0.0000 </r>
       <r>   11.4036    0.0000 </r>
       <r>   11.4116    0.0000 </r>
       <r>   11.4333    0.0000 </r>
       <r>   11.4636    0.0000 </r>
       <r>   11.4920    0.0000 </r>
       <r>   11.5302    0.0000 </r>
       <r>   11.5754    0.0000 </r>
       <r>   11.5817    0.0000 </r>
       <r>   11.5872    0.0000 </r>
       <r>   11.5998    0.0000 </r>
       <r>   11.6188    0.0000 </r>
       <r>   11.6483    0.0000 </r>
       <r>   11.7077    0.0000 </r>
       <r>   11.7394    0.0000 </r>
       <r>   11.8055    0.0000 </r>
       <r>   11.8675    0.0000 </r>
       <r>   11.9314    0.0000 </r>
       <r>   11.9653    0.0000 </r>
       <r>   11.9940    0.0000 </r>
       <r>   12.0569    0.0000 </r>
      </set>
      <set comment="kpoint 7">
       <r>  -17.2950    1.0000 </r>
       <r>  -15.7760    1.0000 </r>
       <r>  -15.7310    1.0000 </r>
       <r>  -15.4171    1.0000 </r>
       <r>  -15.3048    1.0000 </r>
       <r>  -15.2768    1.0000 </r>
       <r>  -15.2411    1.0000 </r>
       <r>  -15.2070    1.0000 </r>
       <r>  -15.1435    1.0000 </r>
       <r>  -15.0917    1.0000 </r>
       <r>  -15.0606    1.0000 </r>
       <r>  -15.0350    1.0000 </r>
       <r>  -15.0145    1.0000 </r>
       <r>  -14.9843    1.0000 </r>
       <r>  -14.9841    1.0000 </r>
       <r>  -14.9076    1.0000 </r>
       <r>  -14.8999    1.0000 </r>
       <r>  -14.8555    1.0000 </r>
       <r>  -14.7584    1.0000 </r>
       <r>  -14.7571    1.0000 </r>
       <r>  -14.6187    1.0000 </r>
       <r>  -14.5677    1.0000 </r>
       <r>  -14.5516    1.0000 </r>
       <r>  -14.4672    1.0000 </r>
       <r>  -14.4643    1.0000 </r>
       <r>  -14.4596    1.0000 </r>
       <r>  -14.4575    1.0000 </r>
       <r>  -14.4256    1.0000 </r>
       <r>  -14.4036    1.0000 </r>
       <r>  -14.3958    1.0000 </r>
       <r>  -14.3844    1.0000 </r>
       <r>  -14.3442    1.0000 </r>
       <r>  -14.2474    1.0000 </r>
       <r>  -14.2463    1.0000 </r>
       <r>  -14.2433    1.0000 </r>
       <r>  -14.2424    1.0000 </r>
       <r>  -14.2073    1.0000 </r>
       <r>  -14.2064    1.0000 </r>
       <r>  -14.1722    1.0000 </r>
       <r>  -14.1486    1.0000 </r>
       <r>  -14.1117    1.0000 </r>
       <r>  -14.0355    1.0000 </r>
       <r>  -13.9976    1.0000 </r>
       <r>  -13.9974    1.0000 </r>
       <r>  -13.9483    1.0000 </r>
       <r>  -13.7885    1.0000 </r>
       <r>  -13.7434    1.0000 </r>
       <r>  -13.7413    1.0000 </r>
       <r>  -13.7111    1.0000 </r>
       <r>  -13.7099    1.0000 </r>
       <r>  -13.7043    1.0000 </r>
       <r>  -13.6829    1.0000 </r>
       <r>  -13.6570    1.0000 </r>
       <r>  -13.6534    1.0000 </r>
       <r>  -13.6048    1.0000 </r>
       <r>  -13.5335    1.0000 </r>
       <r>  -13.5331    1.0000 </r>
       <r>  -13.5181    1.0000 </r>
       <r>  -13.5177    1.0000 </r>
       <r>  -13.5057    1.0000 </r>
       <r>  -13.3596    1.0000 </r>
       <r>  -13.3380    1.0000 </r>
       <r>  -13.2553    1.0000 </r>
       <r>  -13.2230    1.0000 </r>
       <r>  -13.1105    1.0000 </r>
       <r>  -13.0705    1.0000 </r>
       <r>  -13.0652    1.0000 </r>
       <r>  -13.0617    1.0000 </r>
       <r>  -13.0592    1.0000 </r>
       <r>  -13.0341    1.0000 </r>
       <r>  -13.0275    1.0000 </r>
       <r>  -13.0213    1.0000 </r>
       <r>  -13.0179    1.0000 </r>
       <r>  -12.9739    1.0000 </r>
       <r>  -12.9293    1.0000 </r>
       <r>  -12.8942    1.0000 </r>
       <r>  -12.8937    1.0000 </r>
       <r>  -12.8892    1.0000 </r>
       <r>  -12.8873    1.0000 </r>
       <r>  -12.8787    1.0000 </r>
       <r>  -12.8779    1.0000 </r>
       <r>  -12.8768    1.0000 </r>
       <r>  -12.8767    1.0000 </r>
       <r>  -12.8664    1.0000 </r>
       <r>  -12.8597    1.0000 </r>
       <r>  -12.8575    1.0000 </r>
       <r>  -12.8510    1.0000 </r>
       <r>  -12.8487    1.0000 </r>
       <r>  -12.7154    1.0000 </r>
       <r>  -12.7154    1.0000 </r>
       <r>  -12.7146    1.0000 </r>
       <r>  -12.7143    1.0000 </r>
       <r>  -12.6838    1.0000 </r>
       <r>  -12.6098    1.0000 </r>
       <r>  -12.5999    1.0000 </r>
       <r>  -12.5781    1.0000 </r>
       <r>  -12.5718    1.0000 </r>
       <r>  -12.5499    1.0000 </r>
       <r>  -12.5331    1.0000 </r>
       <r>  -12.4978    1.0000 </r>
       <r>  -12.4377    1.0000 </r>
       <r>  -12.4295    1.0000 </r>
       <r>  -12.4247    1.0000 </r>
       <r>  -12.4225    1.0000 </r>
       <r>  -12.3422    1.0000 </r>
       <r>  -12.3403    1.0000 </r>
       <r>  -12.3220    1.0000 </r>
       <r>  -12.3190    1.0000 </r>
       <r>  -12.2492    1.0000 </r>
       <r>  -12.2446    1.0000 </r>
       <r>  -12.2388    1.0000 </r>
       <r>  -12.2318    1.0000 </r>
       <r>  -12.2174    1.0000 </r>
       <r>  -12.2166    1.0000 </r>
       <r>  -12.2045    1.0000 </r>
       <r>  -12.2038    1.0000 </r>
       <r>  -12.1764    1.0000 </r>
       <r>  -12.1762    1.0000 </r>
       <r>  -12.1707    1.0000 </r>
       <r>  -12.1705    1.0000 </r>
       <r>  -12.0962    1.0000 </r>
       <r>  -12.0959    1.0000 </r>
       <r>  -12.0888    1.0000 </r>
       <r>  -12.0870    1.0000 </r>
       <r>  -12.0865    1.0000 </r>
       <r>  -12.0846    1.0000 </r>
       <r>  -11.9528    1.0000 </r>
       <r>  -11.9479    1.0000 </r>
       <r>  -11.9471    1.0000 </r>
       <r>  -11.9424    1.0000 </r>
       <r>  -11.8166    1.0000 </r>
       <r>  -11.8156    1.0000 </r>
       <r>  -11.8092    1.0000 </r>
       <r>  -11.8078    1.0000 </r>
       <r>  -11.8053    1.0000 </r>
       <r>  -11.8042    1.0000 </r>
       <r>  -11.7845    1.0000 </r>
       <r>  -11.7832    1.0000 </r>
       <r>  -11.7789    1.0000 </r>
       <r>  -11.7752    1.0000 </r>
       <r>  -11.6687    1.0000 </r>
       <r>  -11.6686    1.0000 </r>
       <r>  -11.6610    1.0000 </r>
       <r>  -11.6609    1.0000 </r>
       <r>   -8.3642    1.0000 </r>
       <r>   -7.2850    1.0000 </r>
       <r>   -7.2715    1.0000 </r>
       <r>   -6.7939    1.0000 </r>
       <r>   -6.7047    1.0000 </r>
       <r>   -6.6829    1.0000 </r>
       <r>   -6.4381    1.0000 </r>
       <r>   -6.4062    1.0000 </r>
       <r>   -6.3226    1.0000 </r>
       <r>   -6.3102    1.0000 </r>
       <r>   -6.3084    1.0000 </r>
       <r>   -6.3049    1.0000 </r>
       <r>   -6.3003    1.0000 </r>
       <r>   -6.2873    1.0000 </r>
       <r>   -6.2753    1.0000 </r>
       <r>   -6.2729    1.0000 </r>
       <r>   -6.2686    1.0000 </r>
       <r>   -6.2647    1.0000 </r>
       <r>   -6.2178    1.0000 </r>
       <r>   -6.2154    1.0000 </r>
       <r>   -6.2128    1.0000 </r>
       <r>   -6.2068    1.0000 </r>
       <r>   -6.1954    1.0000 </r>
       <r>   -6.1953    1.0000 </r>
       <r>   -6.1593    1.0000 </r>
       <r>   -6.1591    1.0000 </r>
       <r>   -6.1488    1.0000 </r>
       <r>   -6.1488    1.0000 </r>
       <r>   -6.0727    1.0000 </r>
       <r>   -6.0711    1.0000 </r>
       <r>   -5.9367    1.0000 </r>
       <r>   -5.9291    1.0000 </r>
       <r>   -5.9101    1.0000 </r>
       <r>   -5.9025    1.0000 </r>
       <r>   -5.8439    1.0000 </r>
       <r>   -5.7898    1.0000 </r>
       <r>   -5.7816    1.0000 </r>
       <r>   -5.7720    1.0000 </r>
       <r>   -5.7702    1.0000 </r>
       <r>   -5.7698    1.0000 </r>
       <r>   -5.7643    1.0000 </r>
       <r>   -5.7622    1.0000 </r>
       <r>   -5.7587    1.0000 </r>
       <r>   -5.7581    1.0000 </r>
       <r>   -5.7567    1.0000 </r>
       <r>   -5.7497    1.0000 </r>
       <r>   -5.7385    1.0000 </r>
       <r>   -5.6844    1.0000 </r>
       <r>   -5.6540    1.0000 </r>
       <r>   -5.6417    1.0000 </r>
       <r>   -5.6234    1.0000 </r>
       <r>   -5.6233    1.0000 </r>
       <r>   -5.6199    1.0000 </r>
       <r>   -5.6197    1.0000 </r>
       <r>   -5.2301    1.0000 </r>
       <r>   -5.2293    1.0000 </r>
       <r>   -5.2252    1.0000 </r>
       <r>   -5.2244    1.0000 </r>
       <r>   -5.2232    1.0000 </r>
       <r>   -5.2216    1.0000 </r>
       <r>   -5.2192    1.0000 </r>
       <r>   -5.2186    1.0000 </r>
       <r>   -5.2183    1.0000 </r>
       <r>   -5.2173    1.0000 </r>
       <r>   -5.2162    1.0000 </r>
       <r>   -5.2109    1.0000 </r>
       <r>   -5.1148    1.0000 </r>
       <r>   -5.1105    1.0000 </r>
       <r>   -5.0908    1.0000 </r>
       <r>   -5.0907    1.0000 </r>
       <r>   -5.0879    1.0000 </r>
       <r>   -5.0879    1.0000 </r>
       <r>   -5.0874    1.0000 </r>
       <r>   -5.0874    1.0000 </r>
       <r>   -5.0261    1.0000 </r>
       <r>   -4.9211    1.0000 </r>
       <r>   -4.8319    1.0000 </r>
       <r>   -4.6118    1.0000 </r>
       <r>   -4.5544    1.0000 </r>
       <r>   -4.5411    1.0000 </r>
       <r>   -4.4784    1.0000 </r>
       <r>   -4.4748    1.0000 </r>
       <r>   -4.4730    1.0000 </r>
       <r>   -4.4708    1.0000 </r>
       <r>   -4.4703    1.0000 </r>
       <r>   -4.4698    1.0000 </r>
       <r>   -4.4678    1.0000 </r>
       <r>   -4.4657    1.0000 </r>
       <r>   -4.3415    1.0000 </r>
       <r>   -4.3412    1.0000 </r>
       <r>   -4.3408    1.0000 </r>
       <r>   -4.3407    1.0000 </r>
       <r>   -4.3164    1.0000 </r>
       <r>   -4.2905    1.0000 </r>
       <r>   -4.2020    1.0000 </r>
       <r>   -4.0979    1.0000 </r>
       <r>   -4.0897    1.0000 </r>
       <r>   -4.0880    1.0000 </r>
       <r>   -4.0852    1.0000 </r>
       <r>   -4.0838    1.0000 </r>
       <r>   -4.0744    1.0000 </r>
       <r>   -4.0738    1.0000 </r>
       <r>   -4.0708    1.0000 </r>
       <r>   -4.0696    1.0000 </r>
       <r>   -4.0287    1.0000 </r>
       <r>   -3.9503    1.0000 </r>
       <r>   -3.9502    1.0000 </r>
       <r>   -3.9465    1.0000 </r>
       <r>   -3.9465    1.0000 </r>
       <r>   -3.9092    1.0000 </r>
       <r>   -3.8653    1.0000 </r>
       <r>   -3.7860    1.0000 </r>
       <r>   -3.6246    1.0000 </r>
       <r>   -3.6211    1.0000 </r>
       <r>   -3.6166    1.0000 </r>
       <r>   -3.6147    1.0000 </r>
       <r>   -3.6074    1.0000 </r>
       <r>   -3.6026    1.0000 </r>
       <r>   -3.6009    1.0000 </r>
       <r>   -3.5966    1.0000 </r>
       <r>   -3.5954    1.0000 </r>
       <r>   -3.4798    1.0000 </r>
       <r>   -3.4797    1.0000 </r>
       <r>   -3.4784    1.0000 </r>
       <r>   -3.4739    1.0000 </r>
       <r>   -3.4739    1.0000 </r>
       <r>   -3.4689    1.0000 </r>
       <r>   -3.4679    1.0000 </r>
       <r>   -3.4658    1.0000 </r>
       <r>   -3.4656    1.0000 </r>
       <r>   -3.3915    1.0000 </r>
       <r>   -3.3578    1.0000 </r>
       <r>   -3.3470    1.0000 </r>
       <r>   -3.3403    1.0000 </r>
       <r>   -3.3397    1.0000 </r>
       <r>   -3.3382    1.0000 </r>
       <r>   -3.3381    1.0000 </r>
       <r>   -3.1563    1.0000 </r>
       <r>   -3.0976    1.0000 </r>
       <r>   -3.0775    1.0000 </r>
       <r>   -3.0729    1.0000 </r>
       <r>   -3.0720    1.0000 </r>
       <r>   -3.0652    1.0000 </r>
       <r>   -3.0041    1.0000 </r>
       <r>   -2.9994    1.0000 </r>
       <r>   -2.9917    1.0000 </r>
       <r>   -2.9385    1.0000 </r>
       <r>   -2.9376    1.0000 </r>
       <r>   -2.8562    1.0000 </r>
       <r>   -2.8424    1.0000 </r>
       <r>   -2.7701    1.0000 </r>
       <r>   -2.7669    1.0000 </r>
       <r>   -2.7564    1.0000 </r>
       <r>   -2.7265    1.0000 </r>
       <r>   -2.6786    1.0000 </r>
       <r>   -2.6747    1.0000 </r>
       <r>   -2.6724    1.0000 </r>
       <r>   -2.6630    1.0000 </r>
       <r>   -2.6413    1.0000 </r>
       <r>   -2.5485    1.0000 </r>
       <r>   -2.5456    1.0000 </r>
       <r>   -2.5453    1.0000 </r>
       <r>   -2.5177    1.0000 </r>
       <r>   -2.4674    1.0000 </r>
       <r>   -2.3927    1.0000 </r>
       <r>   -2.3873    1.0000 </r>
       <r>   -2.3782    1.0000 </r>
       <r>   -2.3749    1.0000 </r>
       <r>   -2.3728    1.0000 </r>
       <r>   -2.3722    1.0000 </r>
       <r>   -2.3713    1.0000 </r>
       <r>   -2.3704    1.0000 </r>
       <r>   -2.3692    1.0000 </r>
       <r>   -2.3676    1.0000 </r>
       <r>   -2.3635    1.0000 </r>
       <r>   -2.3480    1.0000 </r>
       <r>   -2.2876    1.0000 </r>
       <r>   -2.2624    1.0000 </r>
       <r>   -2.2577    1.0000 </r>
       <r>   -2.2411    1.0000 </r>
       <r>   -2.2407    1.0000 </r>
       <r>   -2.2404    1.0000 </r>
       <r>   -2.2401    1.0000 </r>
       <r>   -2.2370    1.0000 </r>
       <r>   -2.2083    1.0000 </r>
       <r>   -2.2080    1.0000 </r>
       <r>   -2.1999    1.0000 </r>
       <r>   -2.1649    1.0000 </r>
       <r>   -2.1588    1.0000 </r>
       <r>   -2.1441    1.0000 </r>
       <r>   -2.1262    1.0000 </r>
       <r>   -2.0987    1.0000 </r>
       <r>   -2.0950    1.0000 </r>
       <r>   -2.0923    1.0000 </r>
       <r>   -2.0873    1.0000 </r>
       <r>   -2.0866    1.0000 </r>
       <r>   -2.0576    1.0000 </r>
       <r>   -2.0561    1.0000 </r>
       <r>   -2.0509    1.0000 </r>
       <r>   -2.0491    1.0000 </r>
       <r>   -2.0105    1.0000 </r>
       <r>   -1.9653    1.0000 </r>
       <r>   -1.9434    1.0000 </r>
       <r>   -1.9434    1.0000 </r>
       <r>   -1.9366    1.0000 </r>
       <r>   -1.9327    1.0000 </r>
       <r>   -1.9327    1.0000 </r>
       <r>   -1.9307    1.0000 </r>
       <r>   -1.9063    1.0000 </r>
       <r>   -1.9052    1.0000 </r>
       <r>   -1.8959    1.0000 </r>
       <r>   -1.8840    1.0000 </r>
       <r>   -1.8638    1.0000 </r>
       <r>   -1.8607    1.0000 </r>
       <r>   -1.8601    1.0000 </r>
       <r>   -1.8591    1.0000 </r>
       <r>   -1.8586    1.0000 </r>
       <r>   -1.8565    1.0000 </r>
       <r>   -1.8559    1.0000 </r>
       <r>   -1.8528    1.0000 </r>
       <r>   -1.7807    1.0000 </r>
       <r>   -1.7786    1.0000 </r>
       <r>   -1.7774    1.0000 </r>
       <r>   -1.7768    1.0000 </r>
       <r>   -1.7752    1.0000 </r>
       <r>   -1.7741    1.0000 </r>
       <r>   -1.7725    1.0000 </r>
       <r>   -1.7715    1.0000 </r>
       <r>   -1.7456    1.0000 </r>
       <r>   -1.7436    1.0000 </r>
       <r>   -1.7414    1.0000 </r>
       <r>   -1.7411    1.0000 </r>
       <r>   -1.7152    1.0000 </r>
       <r>   -1.7084    1.0000 </r>
       <r>   -1.6883    1.0000 </r>
       <r>   -1.6621    1.0000 </r>
       <r>   -1.6452    1.0000 </r>
       <r>   -1.6452    1.0000 </r>
       <r>   -1.6448    1.0000 </r>
       <r>   -1.6448    1.0000 </r>
       <r>   -1.6095    1.0000 </r>
       <r>   -1.6094    1.0000 </r>
       <r>   -1.5857    1.0000 </r>
       <r>   -1.5847    1.0000 </r>
       <r>   -1.5803    1.0000 </r>
       <r>   -1.5595    1.0000 </r>
       <r>   -1.5535    1.0000 </r>
       <r>   -1.5468    1.0000 </r>
       <r>   -1.4637    1.0000 </r>
       <r>   -1.4485    1.0000 </r>
       <r>   -1.4414    1.0000 </r>
       <r>   -1.4312    1.0000 </r>
       <r>   -1.2642    1.0000 </r>
       <r>   -1.2572    1.0000 </r>
       <r>   -1.2540    1.0000 </r>
       <r>   -1.2351    1.0000 </r>
       <r>   -1.2346    1.0000 </r>
       <r>   -1.2273    1.0000 </r>
       <r>   -1.2243    1.0000 </r>
       <r>   -1.2100    1.0000 </r>
       <r>   -1.2080    1.0000 </r>
       <r>   -1.2068    1.0000 </r>
       <r>   -1.2053    1.0000 </r>
       <r>   -1.1940    1.0000 </r>
       <r>   -1.1888    1.0000 </r>
       <r>   -1.1874    1.0000 </r>
       <r>   -1.1847    1.0000 </r>
       <r>   -1.1577    1.0000 </r>
       <r>   -1.1196    1.0000 </r>
       <r>   -1.0880    1.0000 </r>
       <r>   -1.0879    1.0000 </r>
       <r>   -1.0823    1.0000 </r>
       <r>   -1.0821    1.0000 </r>
       <r>   -1.0562    1.0000 </r>
       <r>   -1.0161    1.0000 </r>
       <r>   -0.9348    1.0000 </r>
       <r>   -0.9299    1.0000 </r>
       <r>   -0.9169    1.0000 </r>
       <r>   -0.9097    1.0000 </r>
       <r>   -0.9082    1.0000 </r>
       <r>   -0.8572    1.0000 </r>
       <r>   -0.8452    1.0000 </r>
       <r>   -0.8349    1.0000 </r>
       <r>   -0.7764    1.0000 </r>
       <r>   -0.7330    1.0000 </r>
       <r>   -0.7082    1.0000 </r>
       <r>   -0.7069    1.0000 </r>
       <r>   -0.6560    1.0000 </r>
       <r>   -0.6390    1.0000 </r>
       <r>   -0.5971    1.0000 </r>
       <r>   -0.5952    1.0000 </r>
       <r>   -0.5294    1.0000 </r>
       <r>   -0.5196    1.0000 </r>
       <r>   -0.5170    1.0000 </r>
       <r>   -0.5154    1.0000 </r>
       <r>   -0.5109    1.0000 </r>
       <r>   -0.4638    1.0000 </r>
       <r>   -0.4592    1.0000 </r>
       <r>   -0.4572    1.0000 </r>
       <r>   -0.4562    1.0000 </r>
       <r>   -0.4536    1.0000 </r>
       <r>   -0.4530    1.0000 </r>
       <r>   -0.4513    1.0000 </r>
       <r>   -0.4477    1.0000 </r>
       <r>   -0.4178    1.0000 </r>
       <r>   -0.3835    1.0000 </r>
       <r>   -0.3835    1.0000 </r>
       <r>   -0.3765    1.0000 </r>
       <r>   -0.3516    1.0000 </r>
       <r>   -0.3489    1.0000 </r>
       <r>   -0.3469    1.0000 </r>
       <r>   -0.3422    1.0000 </r>
       <r>   -0.3266    1.0000 </r>
       <r>   -0.3260    1.0000 </r>
       <r>   -0.3258    1.0000 </r>
       <r>   -0.3254    1.0000 </r>
       <r>   -0.2800    1.0000 </r>
       <r>   -0.2649    1.0000 </r>
       <r>   -0.2641    1.0000 </r>
       <r>   -0.2585    1.0000 </r>
       <r>   -0.2556    1.0000 </r>
       <r>   -0.2535    1.0000 </r>
       <r>   -0.2518    1.0000 </r>
       <r>   -0.2251    1.0000 </r>
       <r>   -0.2242    1.0000 </r>
       <r>   -0.2183    1.0000 </r>
       <r>   -0.2140    1.0000 </r>
       <r>   -0.1417    1.0000 </r>
       <r>   -0.1398    1.0000 </r>
       <r>   -0.0463    1.0000 </r>
       <r>   -0.0096    1.0000 </r>
       <r>    0.0003    1.0000 </r>
       <r>    0.0082    1.0000 </r>
       <r>    0.0111    1.0000 </r>
       <r>    0.0178    1.0000 </r>
       <r>    0.0191    1.0000 </r>
       <r>    0.0355    1.0000 </r>
       <r>    0.0362    1.0000 </r>
       <r>    0.0498    1.0000 </r>
       <r>    0.1868    1.0000 </r>
       <r>    0.2771    1.0000 </r>
       <r>    0.3163    1.0000 </r>
       <r>    0.3377    1.0000 </r>
       <r>    0.3386    1.0000 </r>
       <r>    0.3443    1.0000 </r>
       <r>    0.3492    1.0000 </r>
       <r>    0.3513    1.0000 </r>
       <r>    0.3945    1.0000 </r>
       <r>    0.4201    1.0000 </r>
       <r>    0.4765    1.0000 </r>
       <r>    0.4774    1.0000 </r>
       <r>    0.4875    1.0000 </r>
       <r>    0.5112    1.0000 </r>
       <r>    0.5554    1.0000 </r>
       <r>    0.5579    1.0000 </r>
       <r>    0.5659    1.0000 </r>
       <r>    0.5757    1.0000 </r>
       <r>    0.5863    1.0000 </r>
       <r>    0.5883    1.0000 </r>
       <r>    0.6154    1.0000 </r>
       <r>    0.6302    1.0000 </r>
       <r>    0.6538    1.0000 </r>
       <r>    0.6938    1.0000 </r>
       <r>    0.7036    1.0000 </r>
       <r>    0.7278    1.0000 </r>
       <r>    0.7284    1.0000 </r>
       <r>    0.8532    1.0000 </r>
       <r>    0.8551    1.0000 </r>
       <r>    0.8568    1.0000 </r>
       <r>    0.8619    1.0000 </r>
       <r>    0.8647    1.0000 </r>
       <r>    0.8656    1.0000 </r>
       <r>    0.8670    1.0000 </r>
       <r>    0.8737    1.0000 </r>
       <r>    0.8742    1.0000 </r>
       <r>    0.8760    1.0000 </r>
       <r>    0.8845    1.0000 </r>
       <r>    0.8901    1.0000 </r>
       <r>    0.8931    1.0000 </r>
       <r>    0.8944    1.0000 </r>
       <r>    0.9042    1.0000 </r>
       <r>    0.9065    1.0000 </r>
       <r>    0.9934    1.0000 </r>
       <r>    1.0031    1.0000 </r>
       <r>    1.0576    1.0000 </r>
       <r>    1.0635    1.0000 </r>
       <r>    1.0783    1.0000 </r>
       <r>    1.0787    1.0000 </r>
       <r>    1.0941    1.0000 </r>
       <r>    1.0944    1.0000 </r>
       <r>    1.1013    1.0000 </r>
       <r>    1.1088    1.0000 </r>
       <r>    1.1107    1.0000 </r>
       <r>    1.2442    1.0000 </r>
       <r>    1.2584    1.0000 </r>
       <r>    1.3047    1.0000 </r>
       <r>    1.4335    1.0000 </r>
       <r>    1.4465    1.0000 </r>
       <r>    1.4572    1.0000 </r>
       <r>    1.4625    1.0000 </r>
       <r>    1.5917    1.0000 </r>
       <r>    1.6011    1.0000 </r>
       <r>    1.6026    1.0000 </r>
       <r>    1.6064    1.0000 </r>
       <r>    1.6138    1.0000 </r>
       <r>    1.6218    1.0000 </r>
       <r>    1.6522    1.0000 </r>
       <r>    1.6643    1.0000 </r>
       <r>    1.7133    1.0000 </r>
       <r>    1.7158    1.0000 </r>
       <r>    1.7672    1.0000 </r>
       <r>    1.7723    1.0000 </r>
       <r>    1.8433    1.0000 </r>
       <r>    1.8507    1.0000 </r>
       <r>    1.8531    1.0000 </r>
       <r>    1.8624    1.0000 </r>
       <r>    1.8666    1.0000 </r>
       <r>    1.8715    1.0000 </r>
       <r>    1.8789    1.0000 </r>
       <r>    1.8801    1.0000 </r>
       <r>    1.9865    1.0000 </r>
       <r>    2.0031    1.0000 </r>
       <r>    2.1876    1.0000 </r>
       <r>    2.1897    1.0000 </r>
       <r>    2.1957    1.0000 </r>
       <r>    2.2005    1.0000 </r>
       <r>    2.2058    1.0000 </r>
       <r>    2.2096    1.0000 </r>
       <r>    2.3788    1.0000 </r>
       <r>    2.3812    1.0000 </r>
       <r>    2.3895    1.0000 </r>
       <r>    2.3899    1.0000 </r>
       <r>    4.6547    1.0000 </r>
       <r>    5.9185    0.0000 </r>
       <r>    6.6049    0.0000 </r>
       <r>    6.6220    0.0000 </r>
       <r>    6.6271    0.0000 </r>
       <r>    6.8747    0.0000 </r>
       <r>    6.9355    0.0000 </r>
       <r>    7.0007    0.0000 </r>
       <r>    7.0143    0.0000 </r>
       <r>    7.0428    0.0000 </r>
       <r>    7.0544    0.0000 </r>
       <r>    7.0684    0.0000 </r>
       <r>    7.0807    0.0000 </r>
       <r>    7.1065    0.0000 </r>
       <r>    7.1136    0.0000 </r>
       <r>    7.1460    0.0000 </r>
       <r>    7.1482    0.0000 </r>
       <r>    7.2307    0.0000 </r>
       <r>    7.2645    0.0000 </r>
       <r>    7.2649    0.0000 </r>
       <r>    7.2865    0.0000 </r>
       <r>    7.2868    0.0000 </r>
       <r>    7.4230    0.0000 </r>
       <r>    7.4485    0.0000 </r>
       <r>    7.4563    0.0000 </r>
       <r>    7.4756    0.0000 </r>
       <r>    7.4825    0.0000 </r>
       <r>    7.5662    0.0000 </r>
       <r>    7.5726    0.0000 </r>
       <r>    7.6149    0.0000 </r>
       <r>    7.6447    0.0000 </r>
       <r>    7.6605    0.0000 </r>
       <r>    7.6647    0.0000 </r>
       <r>    7.6653    0.0000 </r>
       <r>    7.6673    0.0000 </r>
       <r>    7.6831    0.0000 </r>
       <r>    7.7019    0.0000 </r>
       <r>    7.7320    0.0000 </r>
       <r>    7.7355    0.0000 </r>
       <r>    7.7821    0.0000 </r>
       <r>    7.8444    0.0000 </r>
       <r>    7.8754    0.0000 </r>
       <r>    7.8981    0.0000 </r>
       <r>    7.9692    0.0000 </r>
       <r>    7.9754    0.0000 </r>
       <r>    8.0062    0.0000 </r>
       <r>    8.0075    0.0000 </r>
       <r>    8.0816    0.0000 </r>
       <r>    8.0975    0.0000 </r>
       <r>    8.0990    0.0000 </r>
       <r>    8.1904    0.0000 </r>
       <r>    8.2098    0.0000 </r>
       <r>    8.2340    0.0000 </r>
       <r>    8.2807    0.0000 </r>
       <r>    8.3364    0.0000 </r>
       <r>    8.3376    0.0000 </r>
       <r>    8.3622    0.0000 </r>
       <r>    8.4659    0.0000 </r>
       <r>    8.4789    0.0000 </r>
       <r>    8.4888    0.0000 </r>
       <r>    8.4948    0.0000 </r>
       <r>    8.4970    0.0000 </r>
       <r>    8.5071    0.0000 </r>
       <r>    8.5103    0.0000 </r>
       <r>    8.5113    0.0000 </r>
       <r>    8.5326    0.0000 </r>
       <r>    8.5575    0.0000 </r>
       <r>    8.5626    0.0000 </r>
       <r>    8.6276    0.0000 </r>
       <r>    8.7567    0.0000 </r>
       <r>    8.8113    0.0000 </r>
       <r>    8.8784    0.0000 </r>
       <r>    8.8975    0.0000 </r>
       <r>    8.9158    0.0000 </r>
       <r>    8.9640    0.0000 </r>
       <r>    9.0018    0.0000 </r>
       <r>    9.0086    0.0000 </r>
       <r>    9.0160    0.0000 </r>
       <r>    9.0180    0.0000 </r>
       <r>    9.0220    0.0000 </r>
       <r>    9.0290    0.0000 </r>
       <r>    9.0916    0.0000 </r>
       <r>    9.1311    0.0000 </r>
       <r>    9.1625    0.0000 </r>
       <r>    9.1656    0.0000 </r>
       <r>    9.1771    0.0000 </r>
       <r>    9.2075    0.0000 </r>
       <r>    9.2089    0.0000 </r>
       <r>    9.2098    0.0000 </r>
       <r>    9.2997    0.0000 </r>
       <r>    9.3157    0.0000 </r>
       <r>    9.3987    0.0000 </r>
       <r>    9.4249    0.0000 </r>
       <r>    9.4417    0.0000 </r>
       <r>    9.4468    0.0000 </r>
       <r>    9.5810    0.0000 </r>
       <r>    9.5997    0.0000 </r>
       <r>    9.6024    0.0000 </r>
       <r>    9.6068    0.0000 </r>
       <r>    9.6076    0.0000 </r>
       <r>    9.6124    0.0000 </r>
       <r>    9.6348    0.0000 </r>
       <r>    9.6715    0.0000 </r>
       <r>    9.7070    0.0000 </r>
       <r>    9.7097    0.0000 </r>
       <r>    9.7295    0.0000 </r>
       <r>    9.7361    0.0000 </r>
       <r>    9.7725    0.0000 </r>
       <r>    9.8165    0.0000 </r>
       <r>    9.8251    0.0000 </r>
       <r>    9.9223    0.0000 </r>
       <r>    9.9247    0.0000 </r>
       <r>    9.9363    0.0000 </r>
       <r>    9.9656    0.0000 </r>
       <r>    9.9681    0.0000 </r>
       <r>   10.0291    0.0000 </r>
       <r>   10.0652    0.0000 </r>
       <r>   10.1006    0.0000 </r>
       <r>   10.1011    0.0000 </r>
       <r>   10.3002    0.0000 </r>
       <r>   10.3387    0.0000 </r>
       <r>   10.4260    0.0000 </r>
       <r>   10.4261    0.0000 </r>
       <r>   10.5246    0.0000 </r>
       <r>   10.5256    0.0000 </r>
       <r>   10.5497    0.0000 </r>
       <r>   10.5527    0.0000 </r>
       <r>   10.8612    0.0000 </r>
       <r>   10.9834    0.0000 </r>
       <r>   11.2067    0.0000 </r>
       <r>   11.2128    0.0000 </r>
       <r>   11.2758    0.0000 </r>
       <r>   11.4026    0.0000 </r>
       <r>   11.4123    0.0000 </r>
       <r>   11.4348    0.0000 </r>
       <r>   11.4703    0.0000 </r>
       <r>   11.5010    0.0000 </r>
       <r>   11.5252    0.0000 </r>
       <r>   11.5397    0.0000 </r>
       <r>   11.5758    0.0000 </r>
       <r>   11.5895    0.0000 </r>
       <r>   11.5995    0.0000 </r>
       <r>   11.6102    0.0000 </r>
       <r>   11.6231    0.0000 </r>
       <r>   11.6685    0.0000 </r>
       <r>   11.7452    0.0000 </r>
       <r>   11.8001    0.0000 </r>
       <r>   11.8507    0.0000 </r>
       <r>   11.8735    0.0000 </r>
       <r>   11.9230    0.0000 </r>
       <r>   12.0044    0.0000 </r>
       <r>   12.0322    0.0000 </r>
      </set>
      <set comment="kpoint 8">
       <r>  -17.2950    1.0000 </r>
       <r>  -15.7758    1.0000 </r>
       <r>  -15.7312    1.0000 </r>
       <r>  -15.4171    1.0000 </r>
       <r>  -15.3046    1.0000 </r>
       <r>  -15.2769    1.0000 </r>
       <r>  -15.2410    1.0000 </r>
       <r>  -15.2070    1.0000 </r>
       <r>  -15.1435    1.0000 </r>
       <r>  -15.0917    1.0000 </r>
       <r>  -15.0608    1.0000 </r>
       <r>  -15.0350    1.0000 </r>
       <r>  -15.0145    1.0000 </r>
       <r>  -14.9844    1.0000 </r>
       <r>  -14.9840    1.0000 </r>
       <r>  -14.9076    1.0000 </r>
       <r>  -14.8999    1.0000 </r>
       <r>  -14.8553    1.0000 </r>
       <r>  -14.7584    1.0000 </r>
       <r>  -14.7571    1.0000 </r>
       <r>  -14.6189    1.0000 </r>
       <r>  -14.5676    1.0000 </r>
       <r>  -14.5519    1.0000 </r>
       <r>  -14.4673    1.0000 </r>
       <r>  -14.4641    1.0000 </r>
       <r>  -14.4600    1.0000 </r>
       <r>  -14.4571    1.0000 </r>
       <r>  -14.4246    1.0000 </r>
       <r>  -14.4050    1.0000 </r>
       <r>  -14.3944    1.0000 </r>
       <r>  -14.3857    1.0000 </r>
       <r>  -14.3436    1.0000 </r>
       <r>  -14.2475    1.0000 </r>
       <r>  -14.2461    1.0000 </r>
       <r>  -14.2434    1.0000 </r>
       <r>  -14.2423    1.0000 </r>
       <r>  -14.2072    1.0000 </r>
       <r>  -14.2064    1.0000 </r>
       <r>  -14.1719    1.0000 </r>
       <r>  -14.1488    1.0000 </r>
       <r>  -14.1115    1.0000 </r>
       <r>  -14.0355    1.0000 </r>
       <r>  -13.9976    1.0000 </r>
       <r>  -13.9974    1.0000 </r>
       <r>  -13.9483    1.0000 </r>
       <r>  -13.7884    1.0000 </r>
       <r>  -13.7432    1.0000 </r>
       <r>  -13.7417    1.0000 </r>
       <r>  -13.7112    1.0000 </r>
       <r>  -13.7099    1.0000 </r>
       <r>  -13.7041    1.0000 </r>
       <r>  -13.6834    1.0000 </r>
       <r>  -13.6568    1.0000 </r>
       <r>  -13.6538    1.0000 </r>
       <r>  -13.6049    1.0000 </r>
       <r>  -13.5335    1.0000 </r>
       <r>  -13.5332    1.0000 </r>
       <r>  -13.5181    1.0000 </r>
       <r>  -13.5178    1.0000 </r>
       <r>  -13.5057    1.0000 </r>
       <r>  -13.3597    1.0000 </r>
       <r>  -13.3380    1.0000 </r>
       <r>  -13.2553    1.0000 </r>
       <r>  -13.2230    1.0000 </r>
       <r>  -13.1102    1.0000 </r>
       <r>  -13.0701    1.0000 </r>
       <r>  -13.0652    1.0000 </r>
       <r>  -13.0617    1.0000 </r>
       <r>  -13.0591    1.0000 </r>
       <r>  -13.0350    1.0000 </r>
       <r>  -13.0249    1.0000 </r>
       <r>  -13.0232    1.0000 </r>
       <r>  -13.0169    1.0000 </r>
       <r>  -12.9742    1.0000 </r>
       <r>  -12.9293    1.0000 </r>
       <r>  -12.8943    1.0000 </r>
       <r>  -12.8938    1.0000 </r>
       <r>  -12.8891    1.0000 </r>
       <r>  -12.8875    1.0000 </r>
       <r>  -12.8786    1.0000 </r>
       <r>  -12.8779    1.0000 </r>
       <r>  -12.8769    1.0000 </r>
       <r>  -12.8765    1.0000 </r>
       <r>  -12.8665    1.0000 </r>
       <r>  -12.8597    1.0000 </r>
       <r>  -12.8576    1.0000 </r>
       <r>  -12.8508    1.0000 </r>
       <r>  -12.8489    1.0000 </r>
       <r>  -12.7155    1.0000 </r>
       <r>  -12.7154    1.0000 </r>
       <r>  -12.7146    1.0000 </r>
       <r>  -12.7144    1.0000 </r>
       <r>  -12.6838    1.0000 </r>
       <r>  -12.6099    1.0000 </r>
       <r>  -12.5997    1.0000 </r>
       <r>  -12.5778    1.0000 </r>
       <r>  -12.5716    1.0000 </r>
       <r>  -12.5496    1.0000 </r>
       <r>  -12.5328    1.0000 </r>
       <r>  -12.4980    1.0000 </r>
       <r>  -12.4377    1.0000 </r>
       <r>  -12.4295    1.0000 </r>
       <r>  -12.4247    1.0000 </r>
       <r>  -12.4224    1.0000 </r>
       <r>  -12.3424    1.0000 </r>
       <r>  -12.3406    1.0000 </r>
       <r>  -12.3221    1.0000 </r>
       <r>  -12.3193    1.0000 </r>
       <r>  -12.2494    1.0000 </r>
       <r>  -12.2446    1.0000 </r>
       <r>  -12.2389    1.0000 </r>
       <r>  -12.2316    1.0000 </r>
       <r>  -12.2174    1.0000 </r>
       <r>  -12.2169    1.0000 </r>
       <r>  -12.2048    1.0000 </r>
       <r>  -12.2043    1.0000 </r>
       <r>  -12.1765    1.0000 </r>
       <r>  -12.1761    1.0000 </r>
       <r>  -12.1707    1.0000 </r>
       <r>  -12.1705    1.0000 </r>
       <r>  -12.0961    1.0000 </r>
       <r>  -12.0959    1.0000 </r>
       <r>  -12.0887    1.0000 </r>
       <r>  -12.0868    1.0000 </r>
       <r>  -12.0868    1.0000 </r>
       <r>  -12.0846    1.0000 </r>
       <r>  -11.9524    1.0000 </r>
       <r>  -11.9477    1.0000 </r>
       <r>  -11.9470    1.0000 </r>
       <r>  -11.9421    1.0000 </r>
       <r>  -11.8166    1.0000 </r>
       <r>  -11.8155    1.0000 </r>
       <r>  -11.8093    1.0000 </r>
       <r>  -11.8078    1.0000 </r>
       <r>  -11.8053    1.0000 </r>
       <r>  -11.8041    1.0000 </r>
       <r>  -11.7844    1.0000 </r>
       <r>  -11.7833    1.0000 </r>
       <r>  -11.7788    1.0000 </r>
       <r>  -11.7754    1.0000 </r>
       <r>  -11.6687    1.0000 </r>
       <r>  -11.6686    1.0000 </r>
       <r>  -11.6610    1.0000 </r>
       <r>  -11.6609    1.0000 </r>
       <r>   -8.3642    1.0000 </r>
       <r>   -7.2848    1.0000 </r>
       <r>   -7.2717    1.0000 </r>
       <r>   -6.7938    1.0000 </r>
       <r>   -6.7046    1.0000 </r>
       <r>   -6.6830    1.0000 </r>
       <r>   -6.4383    1.0000 </r>
       <r>   -6.4062    1.0000 </r>
       <r>   -6.3227    1.0000 </r>
       <r>   -6.3099    1.0000 </r>
       <r>   -6.3094    1.0000 </r>
       <r>   -6.3045    1.0000 </r>
       <r>   -6.3008    1.0000 </r>
       <r>   -6.2871    1.0000 </r>
       <r>   -6.2749    1.0000 </r>
       <r>   -6.2733    1.0000 </r>
       <r>   -6.2682    1.0000 </r>
       <r>   -6.2662    1.0000 </r>
       <r>   -6.2171    1.0000 </r>
       <r>   -6.2153    1.0000 </r>
       <r>   -6.2127    1.0000 </r>
       <r>   -6.2063    1.0000 </r>
       <r>   -6.1951    1.0000 </r>
       <r>   -6.1950    1.0000 </r>
       <r>   -6.1593    1.0000 </r>
       <r>   -6.1591    1.0000 </r>
       <r>   -6.1488    1.0000 </r>
       <r>   -6.1487    1.0000 </r>
       <r>   -6.0727    1.0000 </r>
       <r>   -6.0711    1.0000 </r>
       <r>   -5.9361    1.0000 </r>
       <r>   -5.9286    1.0000 </r>
       <r>   -5.9097    1.0000 </r>
       <r>   -5.9018    1.0000 </r>
       <r>   -5.8438    1.0000 </r>
       <r>   -5.7898    1.0000 </r>
       <r>   -5.7816    1.0000 </r>
       <r>   -5.7722    1.0000 </r>
       <r>   -5.7706    1.0000 </r>
       <r>   -5.7694    1.0000 </r>
       <r>   -5.7641    1.0000 </r>
       <r>   -5.7625    1.0000 </r>
       <r>   -5.7584    1.0000 </r>
       <r>   -5.7580    1.0000 </r>
       <r>   -5.7568    1.0000 </r>
       <r>   -5.7504    1.0000 </r>
       <r>   -5.7384    1.0000 </r>
       <r>   -5.6844    1.0000 </r>
       <r>   -5.6541    1.0000 </r>
       <r>   -5.6417    1.0000 </r>
       <r>   -5.6234    1.0000 </r>
       <r>   -5.6233    1.0000 </r>
       <r>   -5.6198    1.0000 </r>
       <r>   -5.6197    1.0000 </r>
       <r>   -5.2304    1.0000 </r>
       <r>   -5.2295    1.0000 </r>
       <r>   -5.2254    1.0000 </r>
       <r>   -5.2245    1.0000 </r>
       <r>   -5.2234    1.0000 </r>
       <r>   -5.2224    1.0000 </r>
       <r>   -5.2193    1.0000 </r>
       <r>   -5.2187    1.0000 </r>
       <r>   -5.2184    1.0000 </r>
       <r>   -5.2173    1.0000 </r>
       <r>   -5.2157    1.0000 </r>
       <r>   -5.2135    1.0000 </r>
       <r>   -5.1148    1.0000 </r>
       <r>   -5.1106    1.0000 </r>
       <r>   -5.0908    1.0000 </r>
       <r>   -5.0907    1.0000 </r>
       <r>   -5.0879    1.0000 </r>
       <r>   -5.0879    1.0000 </r>
       <r>   -5.0874    1.0000 </r>
       <r>   -5.0874    1.0000 </r>
       <r>   -5.0261    1.0000 </r>
       <r>   -4.9211    1.0000 </r>
       <r>   -4.8319    1.0000 </r>
       <r>   -4.6118    1.0000 </r>
       <r>   -4.5543    1.0000 </r>
       <r>   -4.5411    1.0000 </r>
       <r>   -4.4771    1.0000 </r>
       <r>   -4.4739    1.0000 </r>
       <r>   -4.4727    1.0000 </r>
       <r>   -4.4706    1.0000 </r>
       <r>   -4.4700    1.0000 </r>
       <r>   -4.4697    1.0000 </r>
       <r>   -4.4671    1.0000 </r>
       <r>   -4.4642    1.0000 </r>
       <r>   -4.3414    1.0000 </r>
       <r>   -4.3412    1.0000 </r>
       <r>   -4.3408    1.0000 </r>
       <r>   -4.3406    1.0000 </r>
       <r>   -4.3165    1.0000 </r>
       <r>   -4.2905    1.0000 </r>
       <r>   -4.2020    1.0000 </r>
       <r>   -4.0979    1.0000 </r>
       <r>   -4.0893    1.0000 </r>
       <r>   -4.0880    1.0000 </r>
       <r>   -4.0852    1.0000 </r>
       <r>   -4.0838    1.0000 </r>
       <r>   -4.0744    1.0000 </r>
       <r>   -4.0736    1.0000 </r>
       <r>   -4.0709    1.0000 </r>
       <r>   -4.0689    1.0000 </r>
       <r>   -4.0287    1.0000 </r>
       <r>   -3.9503    1.0000 </r>
       <r>   -3.9502    1.0000 </r>
       <r>   -3.9465    1.0000 </r>
       <r>   -3.9465    1.0000 </r>
       <r>   -3.9092    1.0000 </r>
       <r>   -3.8653    1.0000 </r>
       <r>   -3.7860    1.0000 </r>
       <r>   -3.6245    1.0000 </r>
       <r>   -3.6231    1.0000 </r>
       <r>   -3.6166    1.0000 </r>
       <r>   -3.6158    1.0000 </r>
       <r>   -3.6077    1.0000 </r>
       <r>   -3.6025    1.0000 </r>
       <r>   -3.6013    1.0000 </r>
       <r>   -3.5977    1.0000 </r>
       <r>   -3.5963    1.0000 </r>
       <r>   -3.4798    1.0000 </r>
       <r>   -3.4797    1.0000 </r>
       <r>   -3.4784    1.0000 </r>
       <r>   -3.4739    1.0000 </r>
       <r>   -3.4739    1.0000 </r>
       <r>   -3.4676    1.0000 </r>
       <r>   -3.4676    1.0000 </r>
       <r>   -3.4654    1.0000 </r>
       <r>   -3.4644    1.0000 </r>
       <r>   -3.3916    1.0000 </r>
       <r>   -3.3578    1.0000 </r>
       <r>   -3.3470    1.0000 </r>
       <r>   -3.3403    1.0000 </r>
       <r>   -3.3397    1.0000 </r>
       <r>   -3.3382    1.0000 </r>
       <r>   -3.3381    1.0000 </r>
       <r>   -3.1563    1.0000 </r>
       <r>   -3.0976    1.0000 </r>
       <r>   -3.0788    1.0000 </r>
       <r>   -3.0738    1.0000 </r>
       <r>   -3.0729    1.0000 </r>
       <r>   -3.0663    1.0000 </r>
       <r>   -3.0041    1.0000 </r>
       <r>   -2.9994    1.0000 </r>
       <r>   -2.9917    1.0000 </r>
       <r>   -2.9385    1.0000 </r>
       <r>   -2.9376    1.0000 </r>
       <r>   -2.8562    1.0000 </r>
       <r>   -2.8421    1.0000 </r>
       <r>   -2.7701    1.0000 </r>
       <r>   -2.7668    1.0000 </r>
       <r>   -2.7563    1.0000 </r>
       <r>   -2.7266    1.0000 </r>
       <r>   -2.6770    1.0000 </r>
       <r>   -2.6739    1.0000 </r>
       <r>   -2.6712    1.0000 </r>
       <r>   -2.6618    1.0000 </r>
       <r>   -2.6420    1.0000 </r>
       <r>   -2.5478    1.0000 </r>
       <r>   -2.5455    1.0000 </r>
       <r>   -2.5452    1.0000 </r>
       <r>   -2.5177    1.0000 </r>
       <r>   -2.4676    1.0000 </r>
       <r>   -2.3926    1.0000 </r>
       <r>   -2.3872    1.0000 </r>
       <r>   -2.3801    1.0000 </r>
       <r>   -2.3763    1.0000 </r>
       <r>   -2.3739    1.0000 </r>
       <r>   -2.3723    1.0000 </r>
       <r>   -2.3711    1.0000 </r>
       <r>   -2.3709    1.0000 </r>
       <r>   -2.3705    1.0000 </r>
       <r>   -2.3677    1.0000 </r>
       <r>   -2.3655    1.0000 </r>
       <r>   -2.3475    1.0000 </r>
       <r>   -2.2876    1.0000 </r>
       <r>   -2.2631    1.0000 </r>
       <r>   -2.2582    1.0000 </r>
       <r>   -2.2411    1.0000 </r>
       <r>   -2.2407    1.0000 </r>
       <r>   -2.2404    1.0000 </r>
       <r>   -2.2401    1.0000 </r>
       <r>   -2.2365    1.0000 </r>
       <r>   -2.2083    1.0000 </r>
       <r>   -2.2080    1.0000 </r>
       <r>   -2.1998    1.0000 </r>
       <r>   -2.1647    1.0000 </r>
       <r>   -2.1590    1.0000 </r>
       <r>   -2.1441    1.0000 </r>
       <r>   -2.1263    1.0000 </r>
       <r>   -2.0986    1.0000 </r>
       <r>   -2.0932    1.0000 </r>
       <r>   -2.0918    1.0000 </r>
       <r>   -2.0869    1.0000 </r>
       <r>   -2.0862    1.0000 </r>
       <r>   -2.0571    1.0000 </r>
       <r>   -2.0557    1.0000 </r>
       <r>   -2.0502    1.0000 </r>
       <r>   -2.0480    1.0000 </r>
       <r>   -2.0105    1.0000 </r>
       <r>   -1.9654    1.0000 </r>
       <r>   -1.9434    1.0000 </r>
       <r>   -1.9434    1.0000 </r>
       <r>   -1.9366    1.0000 </r>
       <r>   -1.9327    1.0000 </r>
       <r>   -1.9327    1.0000 </r>
       <r>   -1.9306    1.0000 </r>
       <r>   -1.9062    1.0000 </r>
       <r>   -1.9055    1.0000 </r>
       <r>   -1.8959    1.0000 </r>
       <r>   -1.8838    1.0000 </r>
       <r>   -1.8633    1.0000 </r>
       <r>   -1.8616    1.0000 </r>
       <r>   -1.8599    1.0000 </r>
       <r>   -1.8588    1.0000 </r>
       <r>   -1.8576    1.0000 </r>
       <r>   -1.8564    1.0000 </r>
       <r>   -1.8554    1.0000 </r>
       <r>   -1.8544    1.0000 </r>
       <r>   -1.7794    1.0000 </r>
       <r>   -1.7788    1.0000 </r>
       <r>   -1.7774    1.0000 </r>
       <r>   -1.7763    1.0000 </r>
       <r>   -1.7747    1.0000 </r>
       <r>   -1.7742    1.0000 </r>
       <r>   -1.7726    1.0000 </r>
       <r>   -1.7695    1.0000 </r>
       <r>   -1.7457    1.0000 </r>
       <r>   -1.7436    1.0000 </r>
       <r>   -1.7413    1.0000 </r>
       <r>   -1.7411    1.0000 </r>
       <r>   -1.7153    1.0000 </r>
       <r>   -1.7084    1.0000 </r>
       <r>   -1.6886    1.0000 </r>
       <r>   -1.6622    1.0000 </r>
       <r>   -1.6452    1.0000 </r>
       <r>   -1.6452    1.0000 </r>
       <r>   -1.6448    1.0000 </r>
       <r>   -1.6447    1.0000 </r>
       <r>   -1.6095    1.0000 </r>
       <r>   -1.6093    1.0000 </r>
       <r>   -1.5869    1.0000 </r>
       <r>   -1.5857    1.0000 </r>
       <r>   -1.5810    1.0000 </r>
       <r>   -1.5595    1.0000 </r>
       <r>   -1.5542    1.0000 </r>
       <r>   -1.5490    1.0000 </r>
       <r>   -1.4636    1.0000 </r>
       <r>   -1.4485    1.0000 </r>
       <r>   -1.4414    1.0000 </r>
       <r>   -1.4312    1.0000 </r>
       <r>   -1.2652    1.0000 </r>
       <r>   -1.2569    1.0000 </r>
       <r>   -1.2537    1.0000 </r>
       <r>   -1.2352    1.0000 </r>
       <r>   -1.2334    1.0000 </r>
       <r>   -1.2257    1.0000 </r>
       <r>   -1.2232    1.0000 </r>
       <r>   -1.2085    1.0000 </r>
       <r>   -1.2075    1.0000 </r>
       <r>   -1.2069    1.0000 </r>
       <r>   -1.2044    1.0000 </r>
       <r>   -1.1937    1.0000 </r>
       <r>   -1.1876    1.0000 </r>
       <r>   -1.1871    1.0000 </r>
       <r>   -1.1838    1.0000 </r>
       <r>   -1.1590    1.0000 </r>
       <r>   -1.1183    1.0000 </r>
       <r>   -1.0880    1.0000 </r>
       <r>   -1.0879    1.0000 </r>
       <r>   -1.0823    1.0000 </r>
       <r>   -1.0821    1.0000 </r>
       <r>   -1.0562    1.0000 </r>
       <r>   -1.0160    1.0000 </r>
       <r>   -0.9348    1.0000 </r>
       <r>   -0.9307    1.0000 </r>
       <r>   -0.9160    1.0000 </r>
       <r>   -0.9098    1.0000 </r>
       <r>   -0.9081    1.0000 </r>
       <r>   -0.8574    1.0000 </r>
       <r>   -0.8451    1.0000 </r>
       <r>   -0.8349    1.0000 </r>
       <r>   -0.7764    1.0000 </r>
       <r>   -0.7319    1.0000 </r>
       <r>   -0.7082    1.0000 </r>
       <r>   -0.7063    1.0000 </r>
       <r>   -0.6560    1.0000 </r>
       <r>   -0.6398    1.0000 </r>
       <r>   -0.5971    1.0000 </r>
       <r>   -0.5953    1.0000 </r>
       <r>   -0.5303    1.0000 </r>
       <r>   -0.5224    1.0000 </r>
       <r>   -0.5178    1.0000 </r>
       <r>   -0.5155    1.0000 </r>
       <r>   -0.5140    1.0000 </r>
       <r>   -0.4621    1.0000 </r>
       <r>   -0.4595    1.0000 </r>
       <r>   -0.4583    1.0000 </r>
       <r>   -0.4564    1.0000 </r>
       <r>   -0.4544    1.0000 </r>
       <r>   -0.4530    1.0000 </r>
       <r>   -0.4507    1.0000 </r>
       <r>   -0.4479    1.0000 </r>
       <r>   -0.4182    1.0000 </r>
       <r>   -0.3835    1.0000 </r>
       <r>   -0.3835    1.0000 </r>
       <r>   -0.3767    1.0000 </r>
       <r>   -0.3532    1.0000 </r>
       <r>   -0.3500    1.0000 </r>
       <r>   -0.3476    1.0000 </r>
       <r>   -0.3465    1.0000 </r>
       <r>   -0.3266    1.0000 </r>
       <r>   -0.3260    1.0000 </r>
       <r>   -0.3258    1.0000 </r>
       <r>   -0.3254    1.0000 </r>
       <r>   -0.2801    1.0000 </r>
       <r>   -0.2644    1.0000 </r>
       <r>   -0.2639    1.0000 </r>
       <r>   -0.2592    1.0000 </r>
       <r>   -0.2551    1.0000 </r>
       <r>   -0.2545    1.0000 </r>
       <r>   -0.2523    1.0000 </r>
       <r>   -0.2251    1.0000 </r>
       <r>   -0.2242    1.0000 </r>
       <r>   -0.2184    1.0000 </r>
       <r>   -0.2141    1.0000 </r>
       <r>   -0.1412    1.0000 </r>
       <r>   -0.1398    1.0000 </r>
       <r>   -0.0464    1.0000 </r>
       <r>   -0.0096    1.0000 </r>
       <r>   -0.0005    1.0000 </r>
       <r>    0.0088    1.0000 </r>
       <r>    0.0114    1.0000 </r>
       <r>    0.0181    1.0000 </r>
       <r>    0.0194    1.0000 </r>
       <r>    0.0356    1.0000 </r>
       <r>    0.0360    1.0000 </r>
       <r>    0.0495    1.0000 </r>
       <r>    0.1868    1.0000 </r>
       <r>    0.2771    1.0000 </r>
       <r>    0.3162    1.0000 </r>
       <r>    0.3399    1.0000 </r>
       <r>    0.3427    1.0000 </r>
       <r>    0.3448    1.0000 </r>
       <r>    0.3496    1.0000 </r>
       <r>    0.3554    1.0000 </r>
       <r>    0.3945    1.0000 </r>
       <r>    0.4208    1.0000 </r>
       <r>    0.4765    1.0000 </r>
       <r>    0.4774    1.0000 </r>
       <r>    0.4871    1.0000 </r>
       <r>    0.5109    1.0000 </r>
       <r>    0.5574    1.0000 </r>
       <r>    0.5599    1.0000 </r>
       <r>    0.5659    1.0000 </r>
       <r>    0.5770    1.0000 </r>
       <r>    0.5877    1.0000 </r>
       <r>    0.5916    1.0000 </r>
       <r>    0.6162    1.0000 </r>
       <r>    0.6283    1.0000 </r>
       <r>    0.6515    1.0000 </r>
       <r>    0.6938    1.0000 </r>
       <r>    0.7036    1.0000 </r>
       <r>    0.7281    1.0000 </r>
       <r>    0.7286    1.0000 </r>
       <r>    0.8509    1.0000 </r>
       <r>    0.8533    1.0000 </r>
       <r>    0.8559    1.0000 </r>
       <r>    0.8615    1.0000 </r>
       <r>    0.8650    1.0000 </r>
       <r>    0.8655    1.0000 </r>
       <r>    0.8665    1.0000 </r>
       <r>    0.8740    1.0000 </r>
       <r>    0.8749    1.0000 </r>
       <r>    0.8760    1.0000 </r>
       <r>    0.8838    1.0000 </r>
       <r>    0.8859    1.0000 </r>
       <r>    0.8933    1.0000 </r>
       <r>    0.8948    1.0000 </r>
       <r>    0.9041    1.0000 </r>
       <r>    0.9063    1.0000 </r>
       <r>    0.9934    1.0000 </r>
       <r>    1.0031    1.0000 </r>
       <r>    1.0581    1.0000 </r>
       <r>    1.0637    1.0000 </r>
       <r>    1.0784    1.0000 </r>
       <r>    1.0787    1.0000 </r>
       <r>    1.0941    1.0000 </r>
       <r>    1.0945    1.0000 </r>
       <r>    1.1008    1.0000 </r>
       <r>    1.1094    1.0000 </r>
       <r>    1.1104    1.0000 </r>
       <r>    1.2440    1.0000 </r>
       <r>    1.2582    1.0000 </r>
       <r>    1.3045    1.0000 </r>
       <r>    1.4331    1.0000 </r>
       <r>    1.4463    1.0000 </r>
       <r>    1.4570    1.0000 </r>
       <r>    1.4623    1.0000 </r>
       <r>    1.5919    1.0000 </r>
       <r>    1.6008    1.0000 </r>
       <r>    1.6028    1.0000 </r>
       <r>    1.6057    1.0000 </r>
       <r>    1.6124    1.0000 </r>
       <r>    1.6230    1.0000 </r>
       <r>    1.6535    1.0000 </r>
       <r>    1.6661    1.0000 </r>
       <r>    1.7140    1.0000 </r>
       <r>    1.7142    1.0000 </r>
       <r>    1.7674    1.0000 </r>
       <r>    1.7724    1.0000 </r>
       <r>    1.8437    1.0000 </r>
       <r>    1.8504    1.0000 </r>
       <r>    1.8535    1.0000 </r>
       <r>    1.8633    1.0000 </r>
       <r>    1.8662    1.0000 </r>
       <r>    1.8717    1.0000 </r>
       <r>    1.8792    1.0000 </r>
       <r>    1.8795    1.0000 </r>
       <r>    1.9864    1.0000 </r>
       <r>    2.0019    1.0000 </r>
       <r>    2.1879    1.0000 </r>
       <r>    2.1893    1.0000 </r>
       <r>    2.1955    1.0000 </r>
       <r>    2.2002    1.0000 </r>
       <r>    2.2059    1.0000 </r>
       <r>    2.2099    1.0000 </r>
       <r>    2.3789    1.0000 </r>
       <r>    2.3811    1.0000 </r>
       <r>    2.3893    1.0000 </r>
       <r>    2.3901    1.0000 </r>
       <r>    4.6547    1.0000 </r>
       <r>    5.9185    0.0000 </r>
       <r>    6.6050    0.0000 </r>
       <r>    6.6223    0.0000 </r>
       <r>    6.6268    0.0000 </r>
       <r>    6.8747    0.0000 </r>
       <r>    6.9349    0.0000 </r>
       <r>    7.0011    0.0000 </r>
       <r>    7.0144    0.0000 </r>
       <r>    7.0437    0.0000 </r>
       <r>    7.0551    0.0000 </r>
       <r>    7.0684    0.0000 </r>
       <r>    7.0807    0.0000 </r>
       <r>    7.1058    0.0000 </r>
       <r>    7.1133    0.0000 </r>
       <r>    7.1454    0.0000 </r>
       <r>    7.1476    0.0000 </r>
       <r>    7.2307    0.0000 </r>
       <r>    7.2646    0.0000 </r>
       <r>    7.2647    0.0000 </r>
       <r>    7.2865    0.0000 </r>
       <r>    7.2869    0.0000 </r>
       <r>    7.4230    0.0000 </r>
       <r>    7.4484    0.0000 </r>
       <r>    7.4555    0.0000 </r>
       <r>    7.4758    0.0000 </r>
       <r>    7.4835    0.0000 </r>
       <r>    7.5677    0.0000 </r>
       <r>    7.5729    0.0000 </r>
       <r>    7.6148    0.0000 </r>
       <r>    7.6456    0.0000 </r>
       <r>    7.6604    0.0000 </r>
       <r>    7.6649    0.0000 </r>
       <r>    7.6652    0.0000 </r>
       <r>    7.6673    0.0000 </r>
       <r>    7.6839    0.0000 </r>
       <r>    7.7018    0.0000 </r>
       <r>    7.7324    0.0000 </r>
       <r>    7.7360    0.0000 </r>
       <r>    7.7819    0.0000 </r>
       <r>    7.8435    0.0000 </r>
       <r>    7.8756    0.0000 </r>
       <r>    7.8972    0.0000 </r>
       <r>    7.9687    0.0000 </r>
       <r>    7.9754    0.0000 </r>
       <r>    8.0053    0.0000 </r>
       <r>    8.0070    0.0000 </r>
       <r>    8.0815    0.0000 </r>
       <r>    8.0969    0.0000 </r>
       <r>    8.0982    0.0000 </r>
       <r>    8.1903    0.0000 </r>
       <r>    8.2099    0.0000 </r>
       <r>    8.2341    0.0000 </r>
       <r>    8.2808    0.0000 </r>
       <r>    8.3357    0.0000 </r>
       <r>    8.3369    0.0000 </r>
       <r>    8.3630    0.0000 </r>
       <r>    8.4658    0.0000 </r>
       <r>    8.4790    0.0000 </r>
       <r>    8.4888    0.0000 </r>
       <r>    8.4943    0.0000 </r>
       <r>    8.4970    0.0000 </r>
       <r>    8.5077    0.0000 </r>
       <r>    8.5098    0.0000 </r>
       <r>    8.5108    0.0000 </r>
       <r>    8.5334    0.0000 </r>
       <r>    8.5574    0.0000 </r>
       <r>    8.5625    0.0000 </r>
       <r>    8.6277    0.0000 </r>
       <r>    8.7567    0.0000 </r>
       <r>    8.8113    0.0000 </r>
       <r>    8.8787    0.0000 </r>
       <r>    8.8975    0.0000 </r>
       <r>    8.9156    0.0000 </r>
       <r>    8.9642    0.0000 </r>
       <r>    9.0012    0.0000 </r>
       <r>    9.0082    0.0000 </r>
       <r>    9.0161    0.0000 </r>
       <r>    9.0181    0.0000 </r>
       <r>    9.0221    0.0000 </r>
       <r>    9.0292    0.0000 </r>
       <r>    9.0917    0.0000 </r>
       <r>    9.1310    0.0000 </r>
       <r>    9.1628    0.0000 </r>
       <r>    9.1651    0.0000 </r>
       <r>    9.1770    0.0000 </r>
       <r>    9.2085    0.0000 </r>
       <r>    9.2088    0.0000 </r>
       <r>    9.2104    0.0000 </r>
       <r>    9.3000    0.0000 </r>
       <r>    9.3153    0.0000 </r>
       <r>    9.3985    0.0000 </r>
       <r>    9.4266    0.0000 </r>
       <r>    9.4431    0.0000 </r>
       <r>    9.4467    0.0000 </r>
       <r>    9.5818    0.0000 </r>
       <r>    9.6000    0.0000 </r>
       <r>    9.6026    0.0000 </r>
       <r>    9.6067    0.0000 </r>
       <r>    9.6083    0.0000 </r>
       <r>    9.6123    0.0000 </r>
       <r>    9.6346    0.0000 </r>
       <r>    9.6711    0.0000 </r>
       <r>    9.7070    0.0000 </r>
       <r>    9.7098    0.0000 </r>
       <r>    9.7296    0.0000 </r>
       <r>    9.7362    0.0000 </r>
       <r>    9.7725    0.0000 </r>
       <r>    9.8165    0.0000 </r>
       <r>    9.8250    0.0000 </r>
       <r>    9.9224    0.0000 </r>
       <r>    9.9247    0.0000 </r>
       <r>    9.9364    0.0000 </r>
       <r>    9.9654    0.0000 </r>
       <r>    9.9679    0.0000 </r>
       <r>   10.0286    0.0000 </r>
       <r>   10.0651    0.0000 </r>
       <r>   10.1001    0.0000 </r>
       <r>   10.1009    0.0000 </r>
       <r>   10.2994    0.0000 </r>
       <r>   10.3384    0.0000 </r>
       <r>   10.4255    0.0000 </r>
       <r>   10.4258    0.0000 </r>
       <r>   10.5242    0.0000 </r>
       <r>   10.5255    0.0000 </r>
       <r>   10.5486    0.0000 </r>
       <r>   10.5521    0.0000 </r>
       <r>   10.8621    0.0000 </r>
       <r>   10.9845    0.0000 </r>
       <r>   11.2067    0.0000 </r>
       <r>   11.2115    0.0000 </r>
       <r>   11.2833    0.0000 </r>
       <r>   11.4042    0.0000 </r>
       <r>   11.4177    0.0000 </r>
       <r>   11.4320    0.0000 </r>
       <r>   11.4423    0.0000 </r>
       <r>   11.4850    0.0000 </r>
       <r>   11.5107    0.0000 </r>
       <r>   11.5350    0.0000 </r>
       <r>   11.5757    0.0000 </r>
       <r>   11.5830    0.0000 </r>
       <r>   11.5924    0.0000 </r>
       <r>   11.6118    0.0000 </r>
       <r>   11.6361    0.0000 </r>
       <r>   11.6685    0.0000 </r>
       <r>   11.7022    0.0000 </r>
       <r>   11.7707    0.0000 </r>
       <r>   11.8237    0.0000 </r>
       <r>   11.8717    0.0000 </r>
       <r>   11.9105    0.0000 </r>
       <r>   11.9617    0.0000 </r>
       <r>   12.0529    0.0000 </r>
      </set>
     </set>
     <set comment="spin 2">
      <set comment="kpoint 1">
       <r>  -17.1676    1.0000 </r>
       <r>  -15.6773    1.0000 </r>
       <r>  -15.6771    1.0000 </r>
       <r>  -15.5707    1.0000 </r>
       <r>  -15.3635    1.0000 </r>
       <r>  -15.3446    1.0000 </r>
       <r>  -15.1574    1.0000 </r>
       <r>  -15.1568    1.0000 </r>
       <r>  -15.1529    1.0000 </r>
       <r>  -15.0715    1.0000 </r>
       <r>  -14.8881    1.0000 </r>
       <r>  -14.8720    1.0000 </r>
       <r>  -14.8714    1.0000 </r>
       <r>  -14.8479    1.0000 </r>
       <r>  -14.8199    1.0000 </r>
       <r>  -14.8195    1.0000 </r>
       <r>  -14.8173    1.0000 </r>
       <r>  -14.8151    1.0000 </r>
       <r>  -14.8000    1.0000 </r>
       <r>  -14.7875    1.0000 </r>
       <r>  -14.7845    1.0000 </r>
       <r>  -14.7737    1.0000 </r>
       <r>  -14.7212    1.0000 </r>
       <r>  -14.7209    1.0000 </r>
       <r>  -14.6480    1.0000 </r>
       <r>  -14.6260    1.0000 </r>
       <r>  -14.6256    1.0000 </r>
       <r>  -14.6139    1.0000 </r>
       <r>  -14.6127    1.0000 </r>
       <r>  -14.6058    1.0000 </r>
       <r>  -14.5446    1.0000 </r>
       <r>  -14.2502    1.0000 </r>
       <r>  -14.2499    1.0000 </r>
       <r>  -14.2410    1.0000 </r>
       <r>  -13.9172    1.0000 </r>
       <r>  -13.9164    1.0000 </r>
       <r>  -13.8636    1.0000 </r>
       <r>  -13.8305    1.0000 </r>
       <r>  -13.8292    1.0000 </r>
       <r>  -13.8260    1.0000 </r>
       <r>  -13.8224    1.0000 </r>
       <r>  -13.8146    1.0000 </r>
       <r>  -13.8120    1.0000 </r>
       <r>  -13.8116    1.0000 </r>
       <r>  -13.8085    1.0000 </r>
       <r>  -13.8066    1.0000 </r>
       <r>  -13.8016    1.0000 </r>
       <r>  -13.8012    1.0000 </r>
       <r>  -13.7963    1.0000 </r>
       <r>  -13.7604    1.0000 </r>
       <r>  -13.7550    1.0000 </r>
       <r>  -13.7547    1.0000 </r>
       <r>  -13.6368    1.0000 </r>
       <r>  -13.6359    1.0000 </r>
       <r>  -13.6351    1.0000 </r>
       <r>  -13.6335    1.0000 </r>
       <r>  -13.6334    1.0000 </r>
       <r>  -13.6322    1.0000 </r>
       <r>  -13.3986    1.0000 </r>
       <r>  -13.3962    1.0000 </r>
       <r>  -13.3877    1.0000 </r>
       <r>  -13.3832    1.0000 </r>
       <r>  -13.3822    1.0000 </r>
       <r>  -13.3815    1.0000 </r>
       <r>  -13.3675    1.0000 </r>
       <r>  -13.3662    1.0000 </r>
       <r>  -13.3637    1.0000 </r>
       <r>  -13.3623    1.0000 </r>
       <r>  -13.3605    1.0000 </r>
       <r>  -13.3588    1.0000 </r>
       <r>  -13.2693    1.0000 </r>
       <r>  -13.2692    1.0000 </r>
       <r>  -13.2036    1.0000 </r>
       <r>  -13.2023    1.0000 </r>
       <r>  -13.2019    1.0000 </r>
       <r>  -13.2016    1.0000 </r>
       <r>  -13.1996    1.0000 </r>
       <r>  -13.1989    1.0000 </r>
       <r>  -12.8862    1.0000 </r>
       <r>  -12.8558    1.0000 </r>
       <r>  -12.8557    1.0000 </r>
       <r>  -12.7716    1.0000 </r>
       <r>  -12.6720    1.0000 </r>
       <r>  -12.5884    1.0000 </r>
       <r>  -12.5881    1.0000 </r>
       <r>  -12.5877    1.0000 </r>
       <r>  -12.5324    1.0000 </r>
       <r>  -12.5322    1.0000 </r>
       <r>  -12.4963    1.0000 </r>
       <r>  -12.4962    1.0000 </r>
       <r>  -12.4671    1.0000 </r>
       <r>  -12.3495    1.0000 </r>
       <r>  -12.3414    1.0000 </r>
       <r>  -12.3342    1.0000 </r>
       <r>  -12.3233    1.0000 </r>
       <r>  -12.3173    1.0000 </r>
       <r>  -12.3160    1.0000 </r>
       <r>  -12.3108    1.0000 </r>
       <r>  -12.3100    1.0000 </r>
       <r>  -12.3081    1.0000 </r>
       <r>  -12.3066    1.0000 </r>
       <r>  -12.3000    1.0000 </r>
       <r>  -12.2989    1.0000 </r>
       <r>  -12.2847    1.0000 </r>
       <r>  -12.2837    1.0000 </r>
       <r>  -12.2816    1.0000 </r>
       <r>  -12.2794    1.0000 </r>
       <r>  -12.2748    1.0000 </r>
       <r>  -12.2738    1.0000 </r>
       <r>  -12.2725    1.0000 </r>
       <r>  -12.2717    1.0000 </r>
       <r>  -12.2706    1.0000 </r>
       <r>  -12.2644    1.0000 </r>
       <r>  -12.2616    1.0000 </r>
       <r>  -12.2598    1.0000 </r>
       <r>  -12.1908    1.0000 </r>
       <r>  -12.1900    1.0000 </r>
       <r>  -12.1898    1.0000 </r>
       <r>  -12.1852    1.0000 </r>
       <r>  -12.1847    1.0000 </r>
       <r>  -12.1821    1.0000 </r>
       <r>  -12.1587    1.0000 </r>
       <r>  -12.1583    1.0000 </r>
       <r>  -12.1540    1.0000 </r>
       <r>  -12.1538    1.0000 </r>
       <r>  -12.1515    1.0000 </r>
       <r>  -12.1511    1.0000 </r>
       <r>  -12.1434    1.0000 </r>
       <r>  -12.1430    1.0000 </r>
       <r>  -12.1421    1.0000 </r>
       <r>  -12.1409    1.0000 </r>
       <r>  -12.1386    1.0000 </r>
       <r>  -12.1384    1.0000 </r>
       <r>  -12.0616    1.0000 </r>
       <r>  -12.0615    1.0000 </r>
       <r>  -12.0614    1.0000 </r>
       <r>  -11.9601    1.0000 </r>
       <r>  -11.9600    1.0000 </r>
       <r>  -11.5957    1.0000 </r>
       <r>  -11.5941    1.0000 </r>
       <r>  -11.5938    1.0000 </r>
       <r>  -11.5909    1.0000 </r>
       <r>  -11.4687    1.0000 </r>
       <r>  -11.4687    1.0000 </r>
       <r>   -8.1777    1.0000 </r>
       <r>   -7.2997    1.0000 </r>
       <r>   -7.2995    1.0000 </r>
       <r>   -6.5944    1.0000 </r>
       <r>   -6.5943    1.0000 </r>
       <r>   -6.5339    1.0000 </r>
       <r>   -6.5255    1.0000 </r>
       <r>   -6.5250    1.0000 </r>
       <r>   -6.5242    1.0000 </r>
       <r>   -6.5214    1.0000 </r>
       <r>   -6.5199    1.0000 </r>
       <r>   -6.5034    1.0000 </r>
       <r>   -6.4698    1.0000 </r>
       <r>   -6.3898    1.0000 </r>
       <r>   -6.3898    1.0000 </r>
       <r>   -6.3897    1.0000 </r>
       <r>   -6.3093    1.0000 </r>
       <r>   -6.3093    1.0000 </r>
       <r>   -6.0935    1.0000 </r>
       <r>   -6.0933    1.0000 </r>
       <r>   -6.0273    1.0000 </r>
       <r>   -6.0269    1.0000 </r>
       <r>   -6.0044    1.0000 </r>
       <r>   -5.9863    1.0000 </r>
       <r>   -5.9061    1.0000 </r>
       <r>   -5.9060    1.0000 </r>
       <r>   -5.7222    1.0000 </r>
       <r>   -5.7151    1.0000 </r>
       <r>   -5.7137    1.0000 </r>
       <r>   -5.7132    1.0000 </r>
       <r>   -5.7123    1.0000 </r>
       <r>   -5.7062    1.0000 </r>
       <r>   -5.7047    1.0000 </r>
       <r>   -5.7043    1.0000 </r>
       <r>   -5.6916    1.0000 </r>
       <r>   -5.6903    1.0000 </r>
       <r>   -5.6861    1.0000 </r>
       <r>   -5.6829    1.0000 </r>
       <r>   -5.6817    1.0000 </r>
       <r>   -5.6807    1.0000 </r>
       <r>   -5.6801    1.0000 </r>
       <r>   -5.6778    1.0000 </r>
       <r>   -5.6686    1.0000 </r>
       <r>   -5.6685    1.0000 </r>
       <r>   -5.6676    1.0000 </r>
       <r>   -5.6669    1.0000 </r>
       <r>   -5.6665    1.0000 </r>
       <r>   -5.6665    1.0000 </r>
       <r>   -5.6631    1.0000 </r>
       <r>   -5.6619    1.0000 </r>
       <r>   -5.5744    1.0000 </r>
       <r>   -5.5737    1.0000 </r>
       <r>   -5.5614    1.0000 </r>
       <r>   -5.5606    1.0000 </r>
       <r>   -5.5592    1.0000 </r>
       <r>   -5.5586    1.0000 </r>
       <r>   -5.5584    1.0000 </r>
       <r>   -5.5577    1.0000 </r>
       <r>   -5.5539    1.0000 </r>
       <r>   -5.5536    1.0000 </r>
       <r>   -5.5503    1.0000 </r>
       <r>   -5.5502    1.0000 </r>
       <r>   -5.5467    1.0000 </r>
       <r>   -5.5467    1.0000 </r>
       <r>   -5.5465    1.0000 </r>
       <r>   -5.5463    1.0000 </r>
       <r>   -5.4176    1.0000 </r>
       <r>   -5.4175    1.0000 </r>
       <r>   -5.3588    1.0000 </r>
       <r>   -5.2305    1.0000 </r>
       <r>   -5.1381    1.0000 </r>
       <r>   -5.1381    1.0000 </r>
       <r>   -4.9856    1.0000 </r>
       <r>   -4.9186    1.0000 </r>
       <r>   -4.9185    1.0000 </r>
       <r>   -4.8706    1.0000 </r>
       <r>   -4.7490    1.0000 </r>
       <r>   -4.7488    1.0000 </r>
       <r>   -4.7424    1.0000 </r>
       <r>   -4.7423    1.0000 </r>
       <r>   -4.6191    1.0000 </r>
       <r>   -4.6190    1.0000 </r>
       <r>   -4.4790    1.0000 </r>
       <r>   -4.4772    1.0000 </r>
       <r>   -4.4758    1.0000 </r>
       <r>   -4.4753    1.0000 </r>
       <r>   -4.4746    1.0000 </r>
       <r>   -4.4737    1.0000 </r>
       <r>   -4.4731    1.0000 </r>
       <r>   -4.4725    1.0000 </r>
       <r>   -4.4724    1.0000 </r>
       <r>   -4.4717    1.0000 </r>
       <r>   -4.4697    1.0000 </r>
       <r>   -4.4686    1.0000 </r>
       <r>   -4.3390    1.0000 </r>
       <r>   -4.3388    1.0000 </r>
       <r>   -4.3388    1.0000 </r>
       <r>   -4.3387    1.0000 </r>
       <r>   -4.3387    1.0000 </r>
       <r>   -4.3384    1.0000 </r>
       <r>   -4.1448    1.0000 </r>
       <r>   -4.0364    1.0000 </r>
       <r>   -3.9238    1.0000 </r>
       <r>   -3.9237    1.0000 </r>
       <r>   -3.6230    1.0000 </r>
       <r>   -3.6229    1.0000 </r>
       <r>   -3.5974    1.0000 </r>
       <r>   -3.5852    1.0000 </r>
       <r>   -3.5820    1.0000 </r>
       <r>   -3.5154    1.0000 </r>
       <r>   -3.5152    1.0000 </r>
       <r>   -3.3536    1.0000 </r>
       <r>   -3.3180    1.0000 </r>
       <r>   -3.3179    1.0000 </r>
       <r>   -3.3150    1.0000 </r>
       <r>   -3.3147    1.0000 </r>
       <r>   -3.3030    1.0000 </r>
       <r>   -3.3028    1.0000 </r>
       <r>   -3.2197    1.0000 </r>
       <r>   -3.1815    1.0000 </r>
       <r>   -3.1724    1.0000 </r>
       <r>   -3.1723    1.0000 </r>
       <r>   -3.1693    1.0000 </r>
       <r>   -3.1679    1.0000 </r>
       <r>   -3.1317    1.0000 </r>
       <r>   -3.1054    1.0000 </r>
       <r>   -3.1030    1.0000 </r>
       <r>   -3.1017    1.0000 </r>
       <r>   -3.1009    1.0000 </r>
       <r>   -3.1003    1.0000 </r>
       <r>   -3.0989    1.0000 </r>
       <r>   -3.0939    1.0000 </r>
       <r>   -3.0928    1.0000 </r>
       <r>   -3.0917    1.0000 </r>
       <r>   -3.0911    1.0000 </r>
       <r>   -3.0901    1.0000 </r>
       <r>   -3.0875    1.0000 </r>
       <r>   -3.0495    1.0000 </r>
       <r>   -2.9688    1.0000 </r>
       <r>   -2.9686    1.0000 </r>
       <r>   -2.9686    1.0000 </r>
       <r>   -2.9685    1.0000 </r>
       <r>   -2.9685    1.0000 </r>
       <r>   -2.9683    1.0000 </r>
       <r>   -2.9621    1.0000 </r>
       <r>   -2.9294    1.0000 </r>
       <r>   -2.9256    1.0000 </r>
       <r>   -2.9237    1.0000 </r>
       <r>   -2.9236    1.0000 </r>
       <r>   -2.9216    1.0000 </r>
       <r>   -2.9183    1.0000 </r>
       <r>   -2.9162    1.0000 </r>
       <r>   -2.9162    1.0000 </r>
       <r>   -2.9067    1.0000 </r>
       <r>   -2.9058    1.0000 </r>
       <r>   -2.8995    1.0000 </r>
       <r>   -2.8971    1.0000 </r>
       <r>   -2.8908    1.0000 </r>
       <r>   -2.8905    1.0000 </r>
       <r>   -2.8892    1.0000 </r>
       <r>   -2.8872    1.0000 </r>
       <r>   -2.8790    1.0000 </r>
       <r>   -2.8790    1.0000 </r>
       <r>   -2.8771    1.0000 </r>
       <r>   -2.8766    1.0000 </r>
       <r>   -2.8766    1.0000 </r>
       <r>   -2.8761    1.0000 </r>
       <r>   -2.8742    1.0000 </r>
       <r>   -2.8721    1.0000 </r>
       <r>   -2.7724    1.0000 </r>
       <r>   -2.7723    1.0000 </r>
       <r>   -2.7721    1.0000 </r>
       <r>   -2.7710    1.0000 </r>
       <r>   -2.7676    1.0000 </r>
       <r>   -2.7675    1.0000 </r>
       <r>   -2.7622    1.0000 </r>
       <r>   -2.7622    1.0000 </r>
       <r>   -2.7593    1.0000 </r>
       <r>   -2.7588    1.0000 </r>
       <r>   -2.7582    1.0000 </r>
       <r>   -2.7582    1.0000 </r>
       <r>   -2.5626    1.0000 </r>
       <r>   -2.4531    1.0000 </r>
       <r>   -2.4526    1.0000 </r>
       <r>   -2.3121    1.0000 </r>
       <r>   -2.3069    1.0000 </r>
       <r>   -2.3061    1.0000 </r>
       <r>   -2.2798    1.0000 </r>
       <r>   -2.2792    1.0000 </r>
       <r>   -2.2665    1.0000 </r>
       <r>   -2.2296    1.0000 </r>
       <r>   -2.2280    1.0000 </r>
       <r>   -2.2180    1.0000 </r>
       <r>   -2.2170    1.0000 </r>
       <r>   -2.2124    1.0000 </r>
       <r>   -2.2098    1.0000 </r>
       <r>   -2.0968    1.0000 </r>
       <r>   -2.0881    1.0000 </r>
       <r>   -2.0880    1.0000 </r>
       <r>   -1.9434    1.0000 </r>
       <r>   -1.9433    1.0000 </r>
       <r>   -1.9031    1.0000 </r>
       <r>   -1.9023    1.0000 </r>
       <r>   -1.8941    1.0000 </r>
       <r>   -1.8913    1.0000 </r>
       <r>   -1.8444    1.0000 </r>
       <r>   -1.7797    1.0000 </r>
       <r>   -1.7792    1.0000 </r>
       <r>   -1.7785    1.0000 </r>
       <r>   -1.7152    1.0000 </r>
       <r>   -1.7133    1.0000 </r>
       <r>   -1.7126    1.0000 </r>
       <r>   -1.7118    1.0000 </r>
       <r>   -1.7111    1.0000 </r>
       <r>   -1.7094    1.0000 </r>
       <r>   -1.5807    1.0000 </r>
       <r>   -1.5807    1.0000 </r>
       <r>   -1.5806    1.0000 </r>
       <r>   -1.5474    1.0000 </r>
       <r>   -1.5426    1.0000 </r>
       <r>   -1.5425    1.0000 </r>
       <r>   -1.5213    1.0000 </r>
       <r>   -1.5212    1.0000 </r>
       <r>   -1.5049    1.0000 </r>
       <r>   -1.5022    1.0000 </r>
       <r>   -1.5010    1.0000 </r>
       <r>   -1.4993    1.0000 </r>
       <r>   -1.4987    1.0000 </r>
       <r>   -1.4982    1.0000 </r>
       <r>   -1.4973    1.0000 </r>
       <r>   -1.4959    1.0000 </r>
       <r>   -1.4958    1.0000 </r>
       <r>   -1.4923    1.0000 </r>
       <r>   -1.4911    1.0000 </r>
       <r>   -1.4896    1.0000 </r>
       <r>   -1.4854    1.0000 </r>
       <r>   -1.4848    1.0000 </r>
       <r>   -1.4772    1.0000 </r>
       <r>   -1.3674    1.0000 </r>
       <r>   -1.3674    1.0000 </r>
       <r>   -1.3673    1.0000 </r>
       <r>   -1.3673    1.0000 </r>
       <r>   -1.3671    1.0000 </r>
       <r>   -1.3671    1.0000 </r>
       <r>   -1.3185    1.0000 </r>
       <r>   -1.3183    1.0000 </r>
       <r>   -1.3121    1.0000 </r>
       <r>   -1.2476    1.0000 </r>
       <r>   -1.2391    1.0000 </r>
       <r>   -1.2389    1.0000 </r>
       <r>   -1.1786    1.0000 </r>
       <r>   -1.1780    1.0000 </r>
       <r>   -1.1758    1.0000 </r>
       <r>   -1.1555    1.0000 </r>
       <r>   -1.1515    1.0000 </r>
       <r>   -1.1509    1.0000 </r>
       <r>   -1.1503    1.0000 </r>
       <r>   -1.1501    1.0000 </r>
       <r>   -1.1500    1.0000 </r>
       <r>   -1.1492    1.0000 </r>
       <r>   -1.1488    1.0000 </r>
       <r>   -1.1483    1.0000 </r>
       <r>   -1.1480    1.0000 </r>
       <r>   -1.1476    1.0000 </r>
       <r>   -1.1468    1.0000 </r>
       <r>   -1.1456    1.0000 </r>
       <r>   -1.1418    1.0000 </r>
       <r>   -1.1338    1.0000 </r>
       <r>   -1.1262    1.0000 </r>
       <r>   -1.1159    1.0000 </r>
       <r>   -1.1146    1.0000 </r>
       <r>   -1.1029    1.0000 </r>
       <r>   -1.0195    1.0000 </r>
       <r>   -1.0194    1.0000 </r>
       <r>   -1.0193    1.0000 </r>
       <r>   -1.0191    1.0000 </r>
       <r>   -1.0190    1.0000 </r>
       <r>   -1.0189    1.0000 </r>
       <r>   -0.9614    1.0000 </r>
       <r>   -0.9607    1.0000 </r>
       <r>   -0.9544    1.0000 </r>
       <r>   -0.9466    1.0000 </r>
       <r>   -0.9326    1.0000 </r>
       <r>   -0.9323    1.0000 </r>
       <r>   -0.8715    1.0000 </r>
       <r>   -0.8687    1.0000 </r>
       <r>   -0.8684    1.0000 </r>
       <r>   -0.8627    1.0000 </r>
       <r>   -0.8537    1.0000 </r>
       <r>   -0.8525    1.0000 </r>
       <r>   -0.8512    1.0000 </r>
       <r>   -0.8507    1.0000 </r>
       <r>   -0.8495    1.0000 </r>
       <r>   -0.8494    1.0000 </r>
       <r>   -0.8465    1.0000 </r>
       <r>   -0.8438    1.0000 </r>
       <r>   -0.8434    1.0000 </r>
       <r>   -0.8413    1.0000 </r>
       <r>   -0.8396    1.0000 </r>
       <r>   -0.8338    1.0000 </r>
       <r>   -0.8307    1.0000 </r>
       <r>   -0.8246    1.0000 </r>
       <r>   -0.7250    1.0000 </r>
       <r>   -0.7239    1.0000 </r>
       <r>   -0.7237    1.0000 </r>
       <r>   -0.7191    1.0000 </r>
       <r>   -0.7189    1.0000 </r>
       <r>   -0.7164    1.0000 </r>
       <r>   -0.4502    1.0000 </r>
       <r>   -0.4494    1.0000 </r>
       <r>   -0.3888    1.0000 </r>
       <r>   -0.3437    1.0000 </r>
       <r>   -0.3432    1.0000 </r>
       <r>   -0.3349    1.0000 </r>
       <r>   -0.3335    1.0000 </r>
       <r>   -0.2574    1.0000 </r>
       <r>   -0.2564    1.0000 </r>
       <r>   -0.2561    1.0000 </r>
       <r>   -0.2490    1.0000 </r>
       <r>   -0.2455    1.0000 </r>
       <r>   -0.2445    1.0000 </r>
       <r>   -0.2417    1.0000 </r>
       <r>   -0.2410    1.0000 </r>
       <r>   -0.0874    1.0000 </r>
       <r>   -0.0873    1.0000 </r>
       <r>   -0.0387    1.0000 </r>
       <r>    0.0309    1.0000 </r>
       <r>    0.0318    1.0000 </r>
       <r>    0.0632    1.0000 </r>
       <r>    0.0861    1.0000 </r>
       <r>    0.0883    1.0000 </r>
       <r>    0.0890    1.0000 </r>
       <r>    0.2124    1.0000 </r>
       <r>    0.2147    1.0000 </r>
       <r>    0.2173    1.0000 </r>
       <r>    0.2183    1.0000 </r>
       <r>    0.2186    1.0000 </r>
       <r>    0.2216    1.0000 </r>
       <r>    0.2253    1.0000 </r>
       <r>    0.2260    1.0000 </r>
       <r>    0.2339    1.0000 </r>
       <r>    0.2377    1.0000 </r>
       <r>    0.2379    1.0000 </r>
       <r>    0.2410    1.0000 </r>
       <r>    0.2460    1.0000 </r>
       <r>    0.2483    1.0000 </r>
       <r>    0.3535    1.0000 </r>
       <r>    0.3550    1.0000 </r>
       <r>    0.3552    1.0000 </r>
       <r>    0.3604    1.0000 </r>
       <r>    0.3605    1.0000 </r>
       <r>    0.3631    1.0000 </r>
       <r>    0.4284    1.0000 </r>
       <r>    0.5244    1.0000 </r>
       <r>    0.5667    1.0000 </r>
       <r>    0.5673    1.0000 </r>
       <r>    0.6142    1.0000 </r>
       <r>    0.6151    1.0000 </r>
       <r>    0.6201    1.0000 </r>
       <r>    0.6226    1.0000 </r>
       <r>    0.6348    1.0000 </r>
       <r>    0.6359    1.0000 </r>
       <r>    0.6413    1.0000 </r>
       <r>    0.6428    1.0000 </r>
       <r>    0.6705    1.0000 </r>
       <r>    0.6807    1.0000 </r>
       <r>    0.6840    1.0000 </r>
       <r>    0.6849    1.0000 </r>
       <r>    0.7450    1.0000 </r>
       <r>    0.7451    1.0000 </r>
       <r>    0.8657    1.0000 </r>
       <r>    0.8661    1.0000 </r>
       <r>    0.8753    1.0000 </r>
       <r>    1.0635    1.0000 </r>
       <r>    1.0639    1.0000 </r>
       <r>    1.1314    1.0000 </r>
       <r>    1.1341    1.0000 </r>
       <r>    1.1342    1.0000 </r>
       <r>    1.1376    1.0000 </r>
       <r>    1.1488    1.0000 </r>
       <r>    1.1685    1.0000 </r>
       <r>    1.1965    1.0000 </r>
       <r>    1.1968    1.0000 </r>
       <r>    1.2375    1.0000 </r>
       <r>    1.2466    1.0000 </r>
       <r>    1.2469    1.0000 </r>
       <r>    1.2615    1.0000 </r>
       <r>    1.2615    1.0000 </r>
       <r>    1.2630    1.0000 </r>
       <r>    1.2715    1.0000 </r>
       <r>    1.2766    1.0000 </r>
       <r>    1.2825    1.0000 </r>
       <r>    1.2840    1.0000 </r>
       <r>    1.2851    1.0000 </r>
       <r>    1.2853    1.0000 </r>
       <r>    1.3010    1.0000 </r>
       <r>    1.3025    1.0000 </r>
       <r>    1.3238    1.0000 </r>
       <r>    1.3258    1.0000 </r>
       <r>    1.3346    1.0000 </r>
       <r>    1.3368    1.0000 </r>
       <r>    1.3414    1.0000 </r>
       <r>    1.3444    1.0000 </r>
       <r>    1.4077    1.0000 </r>
       <r>    1.4079    1.0000 </r>
       <r>    1.4115    1.0000 </r>
       <r>    1.4859    1.0000 </r>
       <r>    1.4869    1.0000 </r>
       <r>    1.4871    1.0000 </r>
       <r>    1.8169    1.0000 </r>
       <r>    1.8176    1.0000 </r>
       <r>    1.8452    1.0000 </r>
       <r>    1.8705    1.0000 </r>
       <r>    1.8987    1.0000 </r>
       <r>    1.8997    1.0000 </r>
       <r>    1.9053    1.0000 </r>
       <r>    1.9062    1.0000 </r>
       <r>    1.9293    1.0000 </r>
       <r>    1.9339    1.0000 </r>
       <r>    1.9351    1.0000 </r>
       <r>    1.9375    1.0000 </r>
       <r>    1.9644    1.0000 </r>
       <r>    1.9647    1.0000 </r>
       <r>    1.9655    1.0000 </r>
       <r>    2.0599    1.0000 </r>
       <r>    2.0601    1.0000 </r>
       <r>    2.3350    1.0000 </r>
       <r>    2.3391    1.0000 </r>
       <r>    2.4122    1.0000 </r>
       <r>    2.4148    1.0000 </r>
       <r>    2.5038    1.0000 </r>
       <r>    2.5038    1.0000 </r>
       <r>    5.5510    0.0000 </r>
       <r>    6.5231    0.0000 </r>
       <r>    6.5235    0.0000 </r>
       <r>    6.7080    0.0000 </r>
       <r>    6.7270    0.0000 </r>
       <r>    6.7313    0.0000 </r>
       <r>    7.0226    0.0000 </r>
       <r>    7.0551    0.0000 </r>
       <r>    7.0554    0.0000 </r>
       <r>    7.0865    0.0000 </r>
       <r>    7.0868    0.0000 </r>
       <r>    7.1691    0.0000 </r>
       <r>    7.1705    0.0000 </r>
       <r>    7.1764    0.0000 </r>
       <r>    7.2613    0.0000 </r>
       <r>    7.2857    0.0000 </r>
       <r>    7.2859    0.0000 </r>
       <r>    7.3118    0.0000 </r>
       <r>    7.3560    0.0000 </r>
       <r>    7.3765    0.0000 </r>
       <r>    7.3769    0.0000 </r>
       <r>    7.4040    0.0000 </r>
       <r>    7.4595    0.0000 </r>
       <r>    7.4598    0.0000 </r>
       <r>    7.5447    0.0000 </r>
       <r>    7.5458    0.0000 </r>
       <r>    7.5930    0.0000 </r>
       <r>    7.5970    0.0000 </r>
       <r>    7.5971    0.0000 </r>
       <r>    7.6087    0.0000 </r>
       <r>    7.7348    0.0000 </r>
       <r>    7.7824    0.0000 </r>
       <r>    7.8153    0.0000 </r>
       <r>    7.8164    0.0000 </r>
       <r>    7.8319    0.0000 </r>
       <r>    7.8475    0.0000 </r>
       <r>    7.8494    0.0000 </r>
       <r>    7.8594    0.0000 </r>
       <r>    7.8598    0.0000 </r>
       <r>    7.8745    0.0000 </r>
       <r>    7.8848    0.0000 </r>
       <r>    7.8854    0.0000 </r>
       <r>    7.8868    0.0000 </r>
       <r>    7.8880    0.0000 </r>
       <r>    7.8904    0.0000 </r>
       <r>    7.9079    0.0000 </r>
       <r>    7.9091    0.0000 </r>
       <r>    7.9091    0.0000 </r>
       <r>    7.9154    0.0000 </r>
       <r>    7.9166    0.0000 </r>
       <r>    7.9170    0.0000 </r>
       <r>    7.9235    0.0000 </r>
       <r>    7.9285    0.0000 </r>
       <r>    7.9341    0.0000 </r>
       <r>    7.9345    0.0000 </r>
       <r>    8.0405    0.0000 </r>
       <r>    8.0432    0.0000 </r>
       <r>    8.0439    0.0000 </r>
       <r>    8.3910    0.0000 </r>
       <r>    8.4302    0.0000 </r>
       <r>    8.4311    0.0000 </r>
       <r>    8.4365    0.0000 </r>
       <r>    8.4416    0.0000 </r>
       <r>    8.4421    0.0000 </r>
       <r>    8.4659    0.0000 </r>
       <r>    8.4669    0.0000 </r>
       <r>    8.4803    0.0000 </r>
       <r>    8.4815    0.0000 </r>
       <r>    8.4997    0.0000 </r>
       <r>    8.5038    0.0000 </r>
       <r>    8.5039    0.0000 </r>
       <r>    8.5067    0.0000 </r>
       <r>    8.5386    0.0000 </r>
       <r>    8.5399    0.0000 </r>
       <r>    8.5679    0.0000 </r>
       <r>    8.7644    0.0000 </r>
       <r>    8.9277    0.0000 </r>
       <r>    9.1722    0.0000 </r>
       <r>    9.1722    0.0000 </r>
       <r>    9.2063    0.0000 </r>
       <r>    9.2064    0.0000 </r>
       <r>    9.2296    0.0000 </r>
       <r>    9.3532    0.0000 </r>
       <r>    9.3543    0.0000 </r>
       <r>    9.5127    0.0000 </r>
       <r>    9.5262    0.0000 </r>
       <r>    9.5267    0.0000 </r>
       <r>    9.5293    0.0000 </r>
       <r>    9.5333    0.0000 </r>
       <r>    9.5335    0.0000 </r>
       <r>    9.5366    0.0000 </r>
       <r>    9.5389    0.0000 </r>
       <r>    9.5389    0.0000 </r>
       <r>    9.5409    0.0000 </r>
       <r>    9.6386    0.0000 </r>
       <r>    9.6412    0.0000 </r>
       <r>    9.8926    0.0000 </r>
       <r>    9.9689    0.0000 </r>
       <r>   10.0491    0.0000 </r>
       <r>   10.1225    0.0000 </r>
       <r>   10.1275    0.0000 </r>
       <r>   10.1395    0.0000 </r>
       <r>   10.1396    0.0000 </r>
       <r>   10.1416    0.0000 </r>
       <r>   10.1492    0.0000 </r>
       <r>   10.1605    0.0000 </r>
       <r>   10.1605    0.0000 </r>
       <r>   10.1694    0.0000 </r>
       <r>   10.1715    0.0000 </r>
       <r>   10.2490    0.0000 </r>
       <r>   10.2597    0.0000 </r>
       <r>   10.2983    0.0000 </r>
       <r>   10.2994    0.0000 </r>
       <r>   10.3287    0.0000 </r>
       <r>   10.3303    0.0000 </r>
       <r>   10.3661    0.0000 </r>
       <r>   10.4427    0.0000 </r>
       <r>   10.4452    0.0000 </r>
       <r>   10.4493    0.0000 </r>
       <r>   10.4632    0.0000 </r>
       <r>   10.4638    0.0000 </r>
       <r>   10.4682    0.0000 </r>
       <r>   10.4939    0.0000 </r>
       <r>   10.5146    0.0000 </r>
       <r>   10.5195    0.0000 </r>
       <r>   10.5206    0.0000 </r>
       <r>   10.5215    0.0000 </r>
       <r>   10.5272    0.0000 </r>
       <r>   10.5737    0.0000 </r>
       <r>   10.5755    0.0000 </r>
       <r>   10.5773    0.0000 </r>
       <r>   10.5780    0.0000 </r>
       <r>   10.5828    0.0000 </r>
       <r>   10.5924    0.0000 </r>
       <r>   10.6023    0.0000 </r>
       <r>   10.6064    0.0000 </r>
       <r>   10.6743    0.0000 </r>
       <r>   10.7158    0.0000 </r>
       <r>   10.8241    0.0000 </r>
       <r>   10.8603    0.0000 </r>
       <r>   10.8772    0.0000 </r>
       <r>   10.8813    0.0000 </r>
       <r>   10.8854    0.0000 </r>
       <r>   10.8898    0.0000 </r>
       <r>   10.9074    0.0000 </r>
       <r>   10.9453    0.0000 </r>
       <r>   10.9498    0.0000 </r>
       <r>   10.9578    0.0000 </r>
       <r>   10.9629    0.0000 </r>
       <r>   10.9714    0.0000 </r>
       <r>   12.0632    0.0000 </r>
       <r>   12.2785    0.0000 </r>
      </set>
      <set comment="kpoint 2">
       <r>  -17.1673    1.0000 </r>
       <r>  -15.7439    1.0000 </r>
       <r>  -15.6895    1.0000 </r>
       <r>  -15.4149    1.0000 </r>
       <r>  -15.2956    1.0000 </r>
       <r>  -15.2495    1.0000 </r>
       <r>  -15.2290    1.0000 </r>
       <r>  -15.1910    1.0000 </r>
       <r>  -15.1884    1.0000 </r>
       <r>  -15.0942    1.0000 </r>
       <r>  -15.0551    1.0000 </r>
       <r>  -15.0255    1.0000 </r>
       <r>  -15.0075    1.0000 </r>
       <r>  -14.9544    1.0000 </r>
       <r>  -14.9447    1.0000 </r>
       <r>  -14.9376    1.0000 </r>
       <r>  -14.9346    1.0000 </r>
       <r>  -14.8536    1.0000 </r>
       <r>  -14.7534    1.0000 </r>
       <r>  -14.7519    1.0000 </r>
       <r>  -14.6160    1.0000 </r>
       <r>  -14.5677    1.0000 </r>
       <r>  -14.5434    1.0000 </r>
       <r>  -14.4577    1.0000 </r>
       <r>  -14.4455    1.0000 </r>
       <r>  -14.4428    1.0000 </r>
       <r>  -14.4288    1.0000 </r>
       <r>  -14.4243    1.0000 </r>
       <r>  -14.4204    1.0000 </r>
       <r>  -14.4158    1.0000 </r>
       <r>  -14.4145    1.0000 </r>
       <r>  -14.3453    1.0000 </r>
       <r>  -14.2467    1.0000 </r>
       <r>  -14.2420    1.0000 </r>
       <r>  -14.2394    1.0000 </r>
       <r>  -14.2392    1.0000 </r>
       <r>  -14.1996    1.0000 </r>
       <r>  -14.1910    1.0000 </r>
       <r>  -14.1670    1.0000 </r>
       <r>  -14.1661    1.0000 </r>
       <r>  -14.1143    1.0000 </r>
       <r>  -14.0344    1.0000 </r>
       <r>  -13.9964    1.0000 </r>
       <r>  -13.9944    1.0000 </r>
       <r>  -13.9383    1.0000 </r>
       <r>  -13.7863    1.0000 </r>
       <r>  -13.7357    1.0000 </r>
       <r>  -13.7114    1.0000 </r>
       <r>  -13.7089    1.0000 </r>
       <r>  -13.7046    1.0000 </r>
       <r>  -13.6966    1.0000 </r>
       <r>  -13.6941    1.0000 </r>
       <r>  -13.6740    1.0000 </r>
       <r>  -13.6736    1.0000 </r>
       <r>  -13.5997    1.0000 </r>
       <r>  -13.5310    1.0000 </r>
       <r>  -13.5301    1.0000 </r>
       <r>  -13.5156    1.0000 </r>
       <r>  -13.5153    1.0000 </r>
       <r>  -13.5022    1.0000 </r>
       <r>  -13.3573    1.0000 </r>
       <r>  -13.3336    1.0000 </r>
       <r>  -13.2538    1.0000 </r>
       <r>  -13.2218    1.0000 </r>
       <r>  -13.1122    1.0000 </r>
       <r>  -13.0599    1.0000 </r>
       <r>  -13.0540    1.0000 </r>
       <r>  -13.0515    1.0000 </r>
       <r>  -13.0427    1.0000 </r>
       <r>  -13.0395    1.0000 </r>
       <r>  -13.0376    1.0000 </r>
       <r>  -13.0351    1.0000 </r>
       <r>  -13.0333    1.0000 </r>
       <r>  -12.9733    1.0000 </r>
       <r>  -12.9258    1.0000 </r>
       <r>  -12.8888    1.0000 </r>
       <r>  -12.8844    1.0000 </r>
       <r>  -12.8815    1.0000 </r>
       <r>  -12.8809    1.0000 </r>
       <r>  -12.8767    1.0000 </r>
       <r>  -12.8736    1.0000 </r>
       <r>  -12.8730    1.0000 </r>
       <r>  -12.8705    1.0000 </r>
       <r>  -12.8690    1.0000 </r>
       <r>  -12.8670    1.0000 </r>
       <r>  -12.8626    1.0000 </r>
       <r>  -12.8610    1.0000 </r>
       <r>  -12.8594    1.0000 </r>
       <r>  -12.7159    1.0000 </r>
       <r>  -12.7140    1.0000 </r>
       <r>  -12.7138    1.0000 </r>
       <r>  -12.7133    1.0000 </r>
       <r>  -12.6801    1.0000 </r>
       <r>  -12.6084    1.0000 </r>
       <r>  -12.5912    1.0000 </r>
       <r>  -12.5837    1.0000 </r>
       <r>  -12.5691    1.0000 </r>
       <r>  -12.5548    1.0000 </r>
       <r>  -12.5330    1.0000 </r>
       <r>  -12.4983    1.0000 </r>
       <r>  -12.4353    1.0000 </r>
       <r>  -12.4309    1.0000 </r>
       <r>  -12.4235    1.0000 </r>
       <r>  -12.4185    1.0000 </r>
       <r>  -12.3354    1.0000 </r>
       <r>  -12.3322    1.0000 </r>
       <r>  -12.3276    1.0000 </r>
       <r>  -12.3234    1.0000 </r>
       <r>  -12.2437    1.0000 </r>
       <r>  -12.2413    1.0000 </r>
       <r>  -12.2391    1.0000 </r>
       <r>  -12.2357    1.0000 </r>
       <r>  -12.2168    1.0000 </r>
       <r>  -12.2154    1.0000 </r>
       <r>  -12.2102    1.0000 </r>
       <r>  -12.2081    1.0000 </r>
       <r>  -12.1766    1.0000 </r>
       <r>  -12.1765    1.0000 </r>
       <r>  -12.1687    1.0000 </r>
       <r>  -12.1686    1.0000 </r>
       <r>  -12.0957    1.0000 </r>
       <r>  -12.0956    1.0000 </r>
       <r>  -12.0885    1.0000 </r>
       <r>  -12.0872    1.0000 </r>
       <r>  -12.0862    1.0000 </r>
       <r>  -12.0838    1.0000 </r>
       <r>  -11.9510    1.0000 </r>
       <r>  -11.9487    1.0000 </r>
       <r>  -11.9460    1.0000 </r>
       <r>  -11.9445    1.0000 </r>
       <r>  -11.8159    1.0000 </r>
       <r>  -11.8153    1.0000 </r>
       <r>  -11.8079    1.0000 </r>
       <r>  -11.8061    1.0000 </r>
       <r>  -11.8055    1.0000 </r>
       <r>  -11.7986    1.0000 </r>
       <r>  -11.7840    1.0000 </r>
       <r>  -11.7838    1.0000 </r>
       <r>  -11.7804    1.0000 </r>
       <r>  -11.7802    1.0000 </r>
       <r>  -11.6683    1.0000 </r>
       <r>  -11.6683    1.0000 </r>
       <r>  -11.6613    1.0000 </r>
       <r>  -11.6612    1.0000 </r>
       <r>   -8.1634    1.0000 </r>
       <r>   -7.2506    1.0000 </r>
       <r>   -7.2361    1.0000 </r>
       <r>   -6.7834    1.0000 </r>
       <r>   -6.6998    1.0000 </r>
       <r>   -6.6789    1.0000 </r>
       <r>   -6.4259    1.0000 </r>
       <r>   -6.4018    1.0000 </r>
       <r>   -6.3173    1.0000 </r>
       <r>   -6.3080    1.0000 </r>
       <r>   -6.3057    1.0000 </r>
       <r>   -6.3045    1.0000 </r>
       <r>   -6.2993    1.0000 </r>
       <r>   -6.2835    1.0000 </r>
       <r>   -6.2732    1.0000 </r>
       <r>   -6.2723    1.0000 </r>
       <r>   -6.2710    1.0000 </r>
       <r>   -6.2707    1.0000 </r>
       <r>   -6.2158    1.0000 </r>
       <r>   -6.2132    1.0000 </r>
       <r>   -6.2130    1.0000 </r>
       <r>   -6.2040    1.0000 </r>
       <r>   -6.1972    1.0000 </r>
       <r>   -6.1923    1.0000 </r>
       <r>   -6.1587    1.0000 </r>
       <r>   -6.1586    1.0000 </r>
       <r>   -6.1490    1.0000 </r>
       <r>   -6.1489    1.0000 </r>
       <r>   -6.0725    1.0000 </r>
       <r>   -6.0710    1.0000 </r>
       <r>   -5.9321    1.0000 </r>
       <r>   -5.9299    1.0000 </r>
       <r>   -5.9072    1.0000 </r>
       <r>   -5.9071    1.0000 </r>
       <r>   -5.8367    1.0000 </r>
       <r>   -5.7893    1.0000 </r>
       <r>   -5.7818    1.0000 </r>
       <r>   -5.7697    1.0000 </r>
       <r>   -5.7674    1.0000 </r>
       <r>   -5.7638    1.0000 </r>
       <r>   -5.7625    1.0000 </r>
       <r>   -5.7609    1.0000 </r>
       <r>   -5.7591    1.0000 </r>
       <r>   -5.7566    1.0000 </r>
       <r>   -5.7524    1.0000 </r>
       <r>   -5.7510    1.0000 </r>
       <r>   -5.7374    1.0000 </r>
       <r>   -5.6804    1.0000 </r>
       <r>   -5.6520    1.0000 </r>
       <r>   -5.6393    1.0000 </r>
       <r>   -5.6228    1.0000 </r>
       <r>   -5.6228    1.0000 </r>
       <r>   -5.6196    1.0000 </r>
       <r>   -5.6196    1.0000 </r>
       <r>   -5.2304    1.0000 </r>
       <r>   -5.2262    1.0000 </r>
       <r>   -5.2240    1.0000 </r>
       <r>   -5.2231    1.0000 </r>
       <r>   -5.2215    1.0000 </r>
       <r>   -5.2212    1.0000 </r>
       <r>   -5.2207    1.0000 </r>
       <r>   -5.2199    1.0000 </r>
       <r>   -5.2188    1.0000 </r>
       <r>   -5.2181    1.0000 </r>
       <r>   -5.2174    1.0000 </r>
       <r>   -5.2137    1.0000 </r>
       <r>   -5.1067    1.0000 </r>
       <r>   -5.0956    1.0000 </r>
       <r>   -5.0908    1.0000 </r>
       <r>   -5.0905    1.0000 </r>
       <r>   -5.0877    1.0000 </r>
       <r>   -5.0875    1.0000 </r>
       <r>   -5.0873    1.0000 </r>
       <r>   -5.0870    1.0000 </r>
       <r>   -5.0084    1.0000 </r>
       <r>   -4.9189    1.0000 </r>
       <r>   -4.8268    1.0000 </r>
       <r>   -4.5974    1.0000 </r>
       <r>   -4.5431    1.0000 </r>
       <r>   -4.5347    1.0000 </r>
       <r>   -4.4770    1.0000 </r>
       <r>   -4.4733    1.0000 </r>
       <r>   -4.4728    1.0000 </r>
       <r>   -4.4707    1.0000 </r>
       <r>   -4.4698    1.0000 </r>
       <r>   -4.4692    1.0000 </r>
       <r>   -4.4671    1.0000 </r>
       <r>   -4.4657    1.0000 </r>
       <r>   -4.3413    1.0000 </r>
       <r>   -4.3411    1.0000 </r>
       <r>   -4.3407    1.0000 </r>
       <r>   -4.3406    1.0000 </r>
       <r>   -4.3118    1.0000 </r>
       <r>   -4.1904    1.0000 </r>
       <r>   -4.0920    1.0000 </r>
       <r>   -4.0907    1.0000 </r>
       <r>   -4.0879    1.0000 </r>
       <r>   -4.0867    1.0000 </r>
       <r>   -4.0846    1.0000 </r>
       <r>   -4.0835    1.0000 </r>
       <r>   -4.0739    1.0000 </r>
       <r>   -4.0737    1.0000 </r>
       <r>   -4.0717    1.0000 </r>
       <r>   -4.0708    1.0000 </r>
       <r>   -4.0247    1.0000 </r>
       <r>   -3.9501    1.0000 </r>
       <r>   -3.9500    1.0000 </r>
       <r>   -3.9466    1.0000 </r>
       <r>   -3.9465    1.0000 </r>
       <r>   -3.9070    1.0000 </r>
       <r>   -3.8628    1.0000 </r>
       <r>   -3.7743    1.0000 </r>
       <r>   -3.7445    1.0000 </r>
       <r>   -3.6237    1.0000 </r>
       <r>   -3.6202    1.0000 </r>
       <r>   -3.6158    1.0000 </r>
       <r>   -3.6125    1.0000 </r>
       <r>   -3.6035    1.0000 </r>
       <r>   -3.6031    1.0000 </r>
       <r>   -3.5985    1.0000 </r>
       <r>   -3.5981    1.0000 </r>
       <r>   -3.4795    1.0000 </r>
       <r>   -3.4794    1.0000 </r>
       <r>   -3.4741    1.0000 </r>
       <r>   -3.4739    1.0000 </r>
       <r>   -3.4714    1.0000 </r>
       <r>   -3.4685    1.0000 </r>
       <r>   -3.4679    1.0000 </r>
       <r>   -3.4678    1.0000 </r>
       <r>   -3.4648    1.0000 </r>
       <r>   -3.4643    1.0000 </r>
       <r>   -3.4340    1.0000 </r>
       <r>   -3.3437    1.0000 </r>
       <r>   -3.3382    1.0000 </r>
       <r>   -3.3381    1.0000 </r>
       <r>   -3.1461    1.0000 </r>
       <r>   -3.0898    1.0000 </r>
       <r>   -3.0759    1.0000 </r>
       <r>   -3.0743    1.0000 </r>
       <r>   -3.0700    1.0000 </r>
       <r>   -3.0691    1.0000 </r>
       <r>   -3.0672    1.0000 </r>
       <r>   -2.9872    1.0000 </r>
       <r>   -2.9383    1.0000 </r>
       <r>   -2.9375    1.0000 </r>
       <r>   -2.9019    1.0000 </r>
       <r>   -2.8456    1.0000 </r>
       <r>   -2.8087    1.0000 </r>
       <r>   -2.7639    1.0000 </r>
       <r>   -2.7544    1.0000 </r>
       <r>   -2.7510    1.0000 </r>
       <r>   -2.7475    1.0000 </r>
       <r>   -2.7445    1.0000 </r>
       <r>   -2.7234    1.0000 </r>
       <r>   -2.7230    1.0000 </r>
       <r>   -2.6821    1.0000 </r>
       <r>   -2.6778    1.0000 </r>
       <r>   -2.6686    1.0000 </r>
       <r>   -2.6673    1.0000 </r>
       <r>   -2.6631    1.0000 </r>
       <r>   -2.5440    1.0000 </r>
       <r>   -2.5438    1.0000 </r>
       <r>   -2.5187    1.0000 </r>
       <r>   -2.5165    1.0000 </r>
       <r>   -2.5092    1.0000 </r>
       <r>   -2.4551    1.0000 </r>
       <r>   -2.4231    1.0000 </r>
       <r>   -2.4153    1.0000 </r>
       <r>   -2.3841    1.0000 </r>
       <r>   -2.3776    1.0000 </r>
       <r>   -2.3744    1.0000 </r>
       <r>   -2.3735    1.0000 </r>
       <r>   -2.3725    1.0000 </r>
       <r>   -2.3715    1.0000 </r>
       <r>   -2.3702    1.0000 </r>
       <r>   -2.3690    1.0000 </r>
       <r>   -2.3682    1.0000 </r>
       <r>   -2.3573    1.0000 </r>
       <r>   -2.3545    1.0000 </r>
       <r>   -2.3416    1.0000 </r>
       <r>   -2.3163    1.0000 </r>
       <r>   -2.2584    1.0000 </r>
       <r>   -2.2409    1.0000 </r>
       <r>   -2.2405    1.0000 </r>
       <r>   -2.2402    1.0000 </r>
       <r>   -2.2400    1.0000 </r>
       <r>   -2.2094    1.0000 </r>
       <r>   -2.1726    1.0000 </r>
       <r>   -2.1432    1.0000 </r>
       <r>   -2.1269    1.0000 </r>
       <r>   -2.0920    1.0000 </r>
       <r>   -2.0884    1.0000 </r>
       <r>   -2.0882    1.0000 </r>
       <r>   -2.0871    1.0000 </r>
       <r>   -2.0549    1.0000 </r>
       <r>   -2.0545    1.0000 </r>
       <r>   -2.0539    1.0000 </r>
       <r>   -2.0534    1.0000 </r>
       <r>   -2.0157    1.0000 </r>
       <r>   -2.0115    1.0000 </r>
       <r>   -2.0076    1.0000 </r>
       <r>   -2.0012    1.0000 </r>
       <r>   -1.9811    1.0000 </r>
       <r>   -1.9430    1.0000 </r>
       <r>   -1.9430    1.0000 </r>
       <r>   -1.9330    1.0000 </r>
       <r>   -1.9330    1.0000 </r>
       <r>   -1.8959    1.0000 </r>
       <r>   -1.8703    1.0000 </r>
       <r>   -1.8677    1.0000 </r>
       <r>   -1.8666    1.0000 </r>
       <r>   -1.8647    1.0000 </r>
       <r>   -1.8231    1.0000 </r>
       <r>   -1.8229    1.0000 </r>
       <r>   -1.8200    1.0000 </r>
       <r>   -1.8180    1.0000 </r>
       <r>   -1.8161    1.0000 </r>
       <r>   -1.8145    1.0000 </r>
       <r>   -1.7796    1.0000 </r>
       <r>   -1.7772    1.0000 </r>
       <r>   -1.7762    1.0000 </r>
       <r>   -1.7759    1.0000 </r>
       <r>   -1.7755    1.0000 </r>
       <r>   -1.7751    1.0000 </r>
       <r>   -1.7736    1.0000 </r>
       <r>   -1.7702    1.0000 </r>
       <r>   -1.7644    1.0000 </r>
       <r>   -1.7128    1.0000 </r>
       <r>   -1.7055    1.0000 </r>
       <r>   -1.6994    1.0000 </r>
       <r>   -1.6924    1.0000 </r>
       <r>   -1.6578    1.0000 </r>
       <r>   -1.6473    1.0000 </r>
       <r>   -1.6452    1.0000 </r>
       <r>   -1.6451    1.0000 </r>
       <r>   -1.6448    1.0000 </r>
       <r>   -1.6447    1.0000 </r>
       <r>   -1.6342    1.0000 </r>
       <r>   -1.6154    1.0000 </r>
       <r>   -1.6114    1.0000 </r>
       <r>   -1.6053    1.0000 </r>
       <r>   -1.6035    1.0000 </r>
       <r>   -1.5824    1.0000 </r>
       <r>   -1.5801    1.0000 </r>
       <r>   -1.5794    1.0000 </r>
       <r>   -1.5644    1.0000 </r>
       <r>   -1.5643    1.0000 </r>
       <r>   -1.5562    1.0000 </r>
       <r>   -1.5536    1.0000 </r>
       <r>   -1.5512    1.0000 </r>
       <r>   -1.4769    1.0000 </r>
       <r>   -1.4489    1.0000 </r>
       <r>   -1.4409    1.0000 </r>
       <r>   -1.4315    1.0000 </r>
       <r>   -1.3495    1.0000 </r>
       <r>   -1.3472    1.0000 </r>
       <r>   -1.3367    1.0000 </r>
       <r>   -1.3352    1.0000 </r>
       <r>   -1.2315    1.0000 </r>
       <r>   -1.2281    1.0000 </r>
       <r>   -1.2268    1.0000 </r>
       <r>   -1.2234    1.0000 </r>
       <r>   -1.2121    1.0000 </r>
       <r>   -1.2112    1.0000 </r>
       <r>   -1.2094    1.0000 </r>
       <r>   -1.2079    1.0000 </r>
       <r>   -1.1853    1.0000 </r>
       <r>   -1.0913    1.0000 </r>
       <r>   -1.0913    1.0000 </r>
       <r>   -1.0861    1.0000 </r>
       <r>   -1.0860    1.0000 </r>
       <r>   -1.0497    1.0000 </r>
       <r>   -1.0074    1.0000 </r>
       <r>   -0.9826    1.0000 </r>
       <r>   -0.9297    1.0000 </r>
       <r>   -0.8737    1.0000 </r>
       <r>   -0.8654    1.0000 </r>
       <r>   -0.8451    1.0000 </r>
       <r>   -0.7775    1.0000 </r>
       <r>   -0.7754    1.0000 </r>
       <r>   -0.7481    1.0000 </r>
       <r>   -0.7228    1.0000 </r>
       <r>   -0.7161    1.0000 </r>
       <r>   -0.7094    1.0000 </r>
       <r>   -0.7064    1.0000 </r>
       <r>   -0.7025    1.0000 </r>
       <r>   -0.6760    1.0000 </r>
       <r>   -0.6747    1.0000 </r>
       <r>   -0.6742    1.0000 </r>
       <r>   -0.6723    1.0000 </r>
       <r>   -0.6550    1.0000 </r>
       <r>   -0.6539    1.0000 </r>
       <r>   -0.6528    1.0000 </r>
       <r>   -0.6227    1.0000 </r>
       <r>   -0.5196    1.0000 </r>
       <r>   -0.5165    1.0000 </r>
       <r>   -0.5164    1.0000 </r>
       <r>   -0.5145    1.0000 </r>
       <r>   -0.4631    1.0000 </r>
       <r>   -0.4603    1.0000 </r>
       <r>   -0.4580    1.0000 </r>
       <r>   -0.4560    1.0000 </r>
       <r>   -0.4548    1.0000 </r>
       <r>   -0.4523    1.0000 </r>
       <r>   -0.4495    1.0000 </r>
       <r>   -0.4482    1.0000 </r>
       <r>   -0.4254    1.0000 </r>
       <r>   -0.3993    1.0000 </r>
       <r>   -0.3835    1.0000 </r>
       <r>   -0.3834    1.0000 </r>
       <r>   -0.3768    1.0000 </r>
       <r>   -0.3681    1.0000 </r>
       <r>   -0.3571    1.0000 </r>
       <r>   -0.3533    1.0000 </r>
       <r>   -0.3490    1.0000 </r>
       <r>   -0.3465    1.0000 </r>
       <r>   -0.3421    1.0000 </r>
       <r>   -0.3392    1.0000 </r>
       <r>   -0.3268    1.0000 </r>
       <r>   -0.3263    1.0000 </r>
       <r>   -0.3262    1.0000 </r>
       <r>   -0.3257    1.0000 </r>
       <r>   -0.2760    1.0000 </r>
       <r>   -0.2255    1.0000 </r>
       <r>   -0.2249    1.0000 </r>
       <r>   -0.0988    1.0000 </r>
       <r>   -0.0449    1.0000 </r>
       <r>    0.0258    1.0000 </r>
       <r>    0.0694    1.0000 </r>
       <r>    0.1212    1.0000 </r>
       <r>    0.1578    1.0000 </r>
       <r>    0.1588    1.0000 </r>
       <r>    0.1759    1.0000 </r>
       <r>    0.1876    1.0000 </r>
       <r>    0.2029    1.0000 </r>
       <r>    0.2125    1.0000 </r>
       <r>    0.2142    1.0000 </r>
       <r>    0.2179    1.0000 </r>
       <r>    0.2206    1.0000 </r>
       <r>    0.2403    1.0000 </r>
       <r>    0.2435    1.0000 </r>
       <r>    0.2935    1.0000 </r>
       <r>    0.3189    1.0000 </r>
       <r>    0.3217    1.0000 </r>
       <r>    0.3416    1.0000 </r>
       <r>    0.3443    1.0000 </r>
       <r>    0.3495    1.0000 </r>
       <r>    0.3515    1.0000 </r>
       <r>    0.3702    1.0000 </r>
       <r>    0.3789    1.0000 </r>
       <r>    0.3969    1.0000 </r>
       <r>    0.4542    1.0000 </r>
       <r>    0.4603    1.0000 </r>
       <r>    0.4647    1.0000 </r>
       <r>    0.4658    1.0000 </r>
       <r>    0.4664    1.0000 </r>
       <r>    0.4765    1.0000 </r>
       <r>    0.4773    1.0000 </r>
       <r>    0.4774    1.0000 </r>
       <r>    0.5563    1.0000 </r>
       <r>    0.5609    1.0000 </r>
       <r>    0.5662    1.0000 </r>
       <r>    0.5855    1.0000 </r>
       <r>    0.5899    1.0000 </r>
       <r>    0.6938    1.0000 </r>
       <r>    0.6953    1.0000 </r>
       <r>    0.7029    1.0000 </r>
       <r>    0.7074    1.0000 </r>
       <r>    0.7343    1.0000 </r>
       <r>    0.8101    1.0000 </r>
       <r>    0.8116    1.0000 </r>
       <r>    0.8421    1.0000 </r>
       <r>    0.8558    1.0000 </r>
       <r>    0.8568    1.0000 </r>
       <r>    0.8818    1.0000 </r>
       <r>    0.8843    1.0000 </r>
       <r>    0.8851    1.0000 </r>
       <r>    0.9160    1.0000 </r>
       <r>    0.9937    1.0000 </r>
       <r>    0.9974    1.0000 </r>
       <r>    0.9990    1.0000 </r>
       <r>    1.0027    1.0000 </r>
       <r>    1.0239    1.0000 </r>
       <r>    1.0334    1.0000 </r>
       <r>    1.0889    1.0000 </r>
       <r>    1.1058    1.0000 </r>
       <r>    1.2090    1.0000 </r>
       <r>    1.2097    1.0000 </r>
       <r>    1.2241    1.0000 </r>
       <r>    1.2346    1.0000 </r>
       <r>    1.2479    1.0000 </r>
       <r>    1.2512    1.0000 </r>
       <r>    1.2545    1.0000 </r>
       <r>    1.2637    1.0000 </r>
       <r>    1.3174    1.0000 </r>
       <r>    1.3190    1.0000 </r>
       <r>    1.3672    1.0000 </r>
       <r>    1.3677    1.0000 </r>
       <r>    1.4029    1.0000 </r>
       <r>    1.4053    1.0000 </r>
       <r>    1.4405    1.0000 </r>
       <r>    1.4409    1.0000 </r>
       <r>    1.5036    1.0000 </r>
       <r>    1.5064    1.0000 </r>
       <r>    1.5401    1.0000 </r>
       <r>    1.5847    1.0000 </r>
       <r>    1.5906    1.0000 </r>
       <r>    1.5919    1.0000 </r>
       <r>    1.7662    1.0000 </r>
       <r>    1.7703    1.0000 </r>
       <r>    1.8477    1.0000 </r>
       <r>    1.8550    1.0000 </r>
       <r>    1.8621    1.0000 </r>
       <r>    1.8644    1.0000 </r>
       <r>    1.9197    1.0000 </r>
       <r>    1.9261    1.0000 </r>
       <r>    1.9543    1.0000 </r>
       <r>    1.9593    1.0000 </r>
       <r>    1.9813    1.0000 </r>
       <r>    1.9817    1.0000 </r>
       <r>    2.0256    1.0000 </r>
       <r>    2.0261    1.0000 </r>
       <r>    2.0649    1.0000 </r>
       <r>    2.0702    1.0000 </r>
       <r>    2.0966    1.0000 </r>
       <r>    2.0972    1.0000 </r>
       <r>    2.2248    1.0000 </r>
       <r>    2.2310    1.0000 </r>
       <r>    2.4002    1.0000 </r>
       <r>    2.4012    1.0000 </r>
       <r>    2.4046    1.0000 </r>
       <r>    2.4063    1.0000 </r>
       <r>    5.5519    0.0000 </r>
       <r>    6.6704    0.0000 </r>
       <r>    6.6895    0.0000 </r>
       <r>    6.6922    0.0000 </r>
       <r>    6.7197    0.0000 </r>
       <r>    6.8893    0.0000 </r>
       <r>    6.9312    0.0000 </r>
       <r>    7.0003    0.0000 </r>
       <r>    7.0119    0.0000 </r>
       <r>    7.0880    0.0000 </r>
       <r>    7.0976    0.0000 </r>
       <r>    7.1634    0.0000 </r>
       <r>    7.2123    0.0000 </r>
       <r>    7.2146    0.0000 </r>
       <r>    7.2286    0.0000 </r>
       <r>    7.2559    0.0000 </r>
       <r>    7.2891    0.0000 </r>
       <r>    7.2976    0.0000 </r>
       <r>    7.3066    0.0000 </r>
       <r>    7.3290    0.0000 </r>
       <r>    7.3336    0.0000 </r>
       <r>    7.3422    0.0000 </r>
       <r>    7.3450    0.0000 </r>
       <r>    7.3519    0.0000 </r>
       <r>    7.3629    0.0000 </r>
       <r>    7.3639    0.0000 </r>
       <r>    7.3863    0.0000 </r>
       <r>    7.3881    0.0000 </r>
       <r>    7.3951    0.0000 </r>
       <r>    7.3965    0.0000 </r>
       <r>    7.4302    0.0000 </r>
       <r>    7.4314    0.0000 </r>
       <r>    7.4680    0.0000 </r>
       <r>    7.7052    0.0000 </r>
       <r>    7.7419    0.0000 </r>
       <r>    7.7446    0.0000 </r>
       <r>    7.7484    0.0000 </r>
       <r>    7.7995    0.0000 </r>
       <r>    7.8368    0.0000 </r>
       <r>    7.8605    0.0000 </r>
       <r>    7.8770    0.0000 </r>
       <r>    7.8909    0.0000 </r>
       <r>    7.9098    0.0000 </r>
       <r>    7.9190    0.0000 </r>
       <r>    7.9224    0.0000 </r>
       <r>    7.9620    0.0000 </r>
       <r>    8.0053    0.0000 </r>
       <r>    8.0811    0.0000 </r>
       <r>    8.1251    0.0000 </r>
       <r>    8.1676    0.0000 </r>
       <r>    8.1722    0.0000 </r>
       <r>    8.1749    0.0000 </r>
       <r>    8.1874    0.0000 </r>
       <r>    8.2176    0.0000 </r>
       <r>    8.2228    0.0000 </r>
       <r>    8.2258    0.0000 </r>
       <r>    8.2434    0.0000 </r>
       <r>    8.2557    0.0000 </r>
       <r>    8.2717    0.0000 </r>
       <r>    8.2888    0.0000 </r>
       <r>    8.4373    0.0000 </r>
       <r>    8.5707    0.0000 </r>
       <r>    8.5821    0.0000 </r>
       <r>    8.5994    0.0000 </r>
       <r>    8.6385    0.0000 </r>
       <r>    8.6416    0.0000 </r>
       <r>    8.6503    0.0000 </r>
       <r>    8.6675    0.0000 </r>
       <r>    8.6751    0.0000 </r>
       <r>    8.6842    0.0000 </r>
       <r>    8.6880    0.0000 </r>
       <r>    8.6904    0.0000 </r>
       <r>    8.7344    0.0000 </r>
       <r>    8.9039    0.0000 </r>
       <r>    8.9776    0.0000 </r>
       <r>    9.0019    0.0000 </r>
       <r>    9.0177    0.0000 </r>
       <r>    9.0402    0.0000 </r>
       <r>    9.0838    0.0000 </r>
       <r>    9.1267    0.0000 </r>
       <r>    9.2290    0.0000 </r>
       <r>    9.2513    0.0000 </r>
       <r>    9.2666    0.0000 </r>
       <r>    9.2685    0.0000 </r>
       <r>    9.2805    0.0000 </r>
       <r>    9.2852    0.0000 </r>
       <r>    9.2973    0.0000 </r>
       <r>    9.3012    0.0000 </r>
       <r>    9.3049    0.0000 </r>
       <r>    9.3217    0.0000 </r>
       <r>    9.3263    0.0000 </r>
       <r>    9.3293    0.0000 </r>
       <r>    9.3316    0.0000 </r>
       <r>    9.3972    0.0000 </r>
       <r>    9.4945    0.0000 </r>
       <r>    9.5278    0.0000 </r>
       <r>    9.6513    0.0000 </r>
       <r>    9.6841    0.0000 </r>
       <r>    9.6865    0.0000 </r>
       <r>    9.6905    0.0000 </r>
       <r>    9.6925    0.0000 </r>
       <r>    9.7473    0.0000 </r>
       <r>    9.9092    0.0000 </r>
       <r>   10.0786    0.0000 </r>
       <r>   10.0958    0.0000 </r>
       <r>   10.0977    0.0000 </r>
       <r>   10.1083    0.0000 </r>
       <r>   10.1503    0.0000 </r>
       <r>   10.1724    0.0000 </r>
       <r>   10.1777    0.0000 </r>
       <r>   10.1979    0.0000 </r>
       <r>   10.2001    0.0000 </r>
       <r>   10.2304    0.0000 </r>
       <r>   10.2419    0.0000 </r>
       <r>   10.2852    0.0000 </r>
       <r>   10.3097    0.0000 </r>
       <r>   10.3190    0.0000 </r>
       <r>   10.3779    0.0000 </r>
       <r>   10.3822    0.0000 </r>
       <r>   10.3911    0.0000 </r>
       <r>   10.3943    0.0000 </r>
       <r>   10.4229    0.0000 </r>
       <r>   10.4388    0.0000 </r>
       <r>   10.4458    0.0000 </r>
       <r>   10.4758    0.0000 </r>
       <r>   10.5172    0.0000 </r>
       <r>   10.5402    0.0000 </r>
       <r>   10.6303    0.0000 </r>
       <r>   10.6759    0.0000 </r>
       <r>   10.7235    0.0000 </r>
       <r>   10.7240    0.0000 </r>
       <r>   10.7272    0.0000 </r>
       <r>   10.7338    0.0000 </r>
       <r>   10.7548    0.0000 </r>
       <r>   10.7615    0.0000 </r>
       <r>   10.7658    0.0000 </r>
       <r>   10.7894    0.0000 </r>
       <r>   10.7914    0.0000 </r>
       <r>   10.7951    0.0000 </r>
       <r>   10.8159    0.0000 </r>
       <r>   10.8173    0.0000 </r>
       <r>   11.2446    0.0000 </r>
       <r>   11.2608    0.0000 </r>
       <r>   11.4735    0.0000 </r>
       <r>   11.5050    0.0000 </r>
       <r>   11.5672    0.0000 </r>
       <r>   11.6464    0.0000 </r>
       <r>   11.6945    0.0000 </r>
       <r>   11.7324    0.0000 </r>
       <r>   11.7568    0.0000 </r>
       <r>   11.7886    0.0000 </r>
       <r>   11.9468    0.0000 </r>
      </set>
      <set comment="kpoint 3">
       <r>  -17.1673    1.0000 </r>
       <r>  -15.7437    1.0000 </r>
       <r>  -15.6895    1.0000 </r>
       <r>  -15.4157    1.0000 </r>
       <r>  -15.2951    1.0000 </r>
       <r>  -15.2501    1.0000 </r>
       <r>  -15.2298    1.0000 </r>
       <r>  -15.1905    1.0000 </r>
       <r>  -15.1870    1.0000 </r>
       <r>  -15.0939    1.0000 </r>
       <r>  -15.0545    1.0000 </r>
       <r>  -15.0259    1.0000 </r>
       <r>  -15.0069    1.0000 </r>
       <r>  -14.9552    1.0000 </r>
       <r>  -14.9442    1.0000 </r>
       <r>  -14.9379    1.0000 </r>
       <r>  -14.9352    1.0000 </r>
       <r>  -14.8535    1.0000 </r>
       <r>  -14.7537    1.0000 </r>
       <r>  -14.7519    1.0000 </r>
       <r>  -14.6162    1.0000 </r>
       <r>  -14.5681    1.0000 </r>
       <r>  -14.5435    1.0000 </r>
       <r>  -14.4577    1.0000 </r>
       <r>  -14.4462    1.0000 </r>
       <r>  -14.4427    1.0000 </r>
       <r>  -14.4273    1.0000 </r>
       <r>  -14.4246    1.0000 </r>
       <r>  -14.4214    1.0000 </r>
       <r>  -14.4157    1.0000 </r>
       <r>  -14.4129    1.0000 </r>
       <r>  -14.3457    1.0000 </r>
       <r>  -14.2465    1.0000 </r>
       <r>  -14.2424    1.0000 </r>
       <r>  -14.2394    1.0000 </r>
       <r>  -14.2386    1.0000 </r>
       <r>  -14.2004    1.0000 </r>
       <r>  -14.1908    1.0000 </r>
       <r>  -14.1674    1.0000 </r>
       <r>  -14.1660    1.0000 </r>
       <r>  -14.1143    1.0000 </r>
       <r>  -14.0341    1.0000 </r>
       <r>  -13.9966    1.0000 </r>
       <r>  -13.9943    1.0000 </r>
       <r>  -13.9380    1.0000 </r>
       <r>  -13.7870    1.0000 </r>
       <r>  -13.7363    1.0000 </r>
       <r>  -13.7115    1.0000 </r>
       <r>  -13.7094    1.0000 </r>
       <r>  -13.7077    1.0000 </r>
       <r>  -13.6958    1.0000 </r>
       <r>  -13.6929    1.0000 </r>
       <r>  -13.6732    1.0000 </r>
       <r>  -13.6715    1.0000 </r>
       <r>  -13.5994    1.0000 </r>
       <r>  -13.5313    1.0000 </r>
       <r>  -13.5310    1.0000 </r>
       <r>  -13.5151    1.0000 </r>
       <r>  -13.5147    1.0000 </r>
       <r>  -13.5019    1.0000 </r>
       <r>  -13.3575    1.0000 </r>
       <r>  -13.3336    1.0000 </r>
       <r>  -13.2538    1.0000 </r>
       <r>  -13.2220    1.0000 </r>
       <r>  -13.1130    1.0000 </r>
       <r>  -13.0598    1.0000 </r>
       <r>  -13.0541    1.0000 </r>
       <r>  -13.0495    1.0000 </r>
       <r>  -13.0446    1.0000 </r>
       <r>  -13.0403    1.0000 </r>
       <r>  -13.0380    1.0000 </r>
       <r>  -13.0345    1.0000 </r>
       <r>  -13.0314    1.0000 </r>
       <r>  -12.9737    1.0000 </r>
       <r>  -12.9260    1.0000 </r>
       <r>  -12.8881    1.0000 </r>
       <r>  -12.8850    1.0000 </r>
       <r>  -12.8819    1.0000 </r>
       <r>  -12.8798    1.0000 </r>
       <r>  -12.8764    1.0000 </r>
       <r>  -12.8734    1.0000 </r>
       <r>  -12.8732    1.0000 </r>
       <r>  -12.8704    1.0000 </r>
       <r>  -12.8688    1.0000 </r>
       <r>  -12.8682    1.0000 </r>
       <r>  -12.8630    1.0000 </r>
       <r>  -12.8607    1.0000 </r>
       <r>  -12.8593    1.0000 </r>
       <r>  -12.7159    1.0000 </r>
       <r>  -12.7142    1.0000 </r>
       <r>  -12.7137    1.0000 </r>
       <r>  -12.7132    1.0000 </r>
       <r>  -12.6804    1.0000 </r>
       <r>  -12.6084    1.0000 </r>
       <r>  -12.5927    1.0000 </r>
       <r>  -12.5851    1.0000 </r>
       <r>  -12.5681    1.0000 </r>
       <r>  -12.5534    1.0000 </r>
       <r>  -12.5325    1.0000 </r>
       <r>  -12.4975    1.0000 </r>
       <r>  -12.4353    1.0000 </r>
       <r>  -12.4310    1.0000 </r>
       <r>  -12.4235    1.0000 </r>
       <r>  -12.4186    1.0000 </r>
       <r>  -12.3354    1.0000 </r>
       <r>  -12.3343    1.0000 </r>
       <r>  -12.3276    1.0000 </r>
       <r>  -12.3250    1.0000 </r>
       <r>  -12.2471    1.0000 </r>
       <r>  -12.2410    1.0000 </r>
       <r>  -12.2407    1.0000 </r>
       <r>  -12.2350    1.0000 </r>
       <r>  -12.2150    1.0000 </r>
       <r>  -12.2147    1.0000 </r>
       <r>  -12.2072    1.0000 </r>
       <r>  -12.2057    1.0000 </r>
       <r>  -12.1766    1.0000 </r>
       <r>  -12.1764    1.0000 </r>
       <r>  -12.1692    1.0000 </r>
       <r>  -12.1691    1.0000 </r>
       <r>  -12.0961    1.0000 </r>
       <r>  -12.0958    1.0000 </r>
       <r>  -12.0882    1.0000 </r>
       <r>  -12.0869    1.0000 </r>
       <r>  -12.0856    1.0000 </r>
       <r>  -12.0836    1.0000 </r>
       <r>  -11.9515    1.0000 </r>
       <r>  -11.9483    1.0000 </r>
       <r>  -11.9461    1.0000 </r>
       <r>  -11.9434    1.0000 </r>
       <r>  -11.8161    1.0000 </r>
       <r>  -11.8153    1.0000 </r>
       <r>  -11.8086    1.0000 </r>
       <r>  -11.8064    1.0000 </r>
       <r>  -11.8059    1.0000 </r>
       <r>  -11.8054    1.0000 </r>
       <r>  -11.7835    1.0000 </r>
       <r>  -11.7827    1.0000 </r>
       <r>  -11.7798    1.0000 </r>
       <r>  -11.7758    1.0000 </r>
       <r>  -11.6687    1.0000 </r>
       <r>  -11.6686    1.0000 </r>
       <r>  -11.6610    1.0000 </r>
       <r>  -11.6609    1.0000 </r>
       <r>   -8.1634    1.0000 </r>
       <r>   -7.2508    1.0000 </r>
       <r>   -7.2360    1.0000 </r>
       <r>   -6.7833    1.0000 </r>
       <r>   -6.6995    1.0000 </r>
       <r>   -6.6787    1.0000 </r>
       <r>   -6.4260    1.0000 </r>
       <r>   -6.4019    1.0000 </r>
       <r>   -6.3182    1.0000 </r>
       <r>   -6.3088    1.0000 </r>
       <r>   -6.3065    1.0000 </r>
       <r>   -6.3059    1.0000 </r>
       <r>   -6.2998    1.0000 </r>
       <r>   -6.2841    1.0000 </r>
       <r>   -6.2730    1.0000 </r>
       <r>   -6.2715    1.0000 </r>
       <r>   -6.2706    1.0000 </r>
       <r>   -6.2661    1.0000 </r>
       <r>   -6.2159    1.0000 </r>
       <r>   -6.2137    1.0000 </r>
       <r>   -6.2131    1.0000 </r>
       <r>   -6.2037    1.0000 </r>
       <r>   -6.1970    1.0000 </r>
       <r>   -6.1926    1.0000 </r>
       <r>   -6.1591    1.0000 </r>
       <r>   -6.1589    1.0000 </r>
       <r>   -6.1486    1.0000 </r>
       <r>   -6.1485    1.0000 </r>
       <r>   -6.0725    1.0000 </r>
       <r>   -6.0709    1.0000 </r>
       <r>   -5.9342    1.0000 </r>
       <r>   -5.9312    1.0000 </r>
       <r>   -5.9071    1.0000 </r>
       <r>   -5.9055    1.0000 </r>
       <r>   -5.8366    1.0000 </r>
       <r>   -5.7896    1.0000 </r>
       <r>   -5.7815    1.0000 </r>
       <r>   -5.7706    1.0000 </r>
       <r>   -5.7679    1.0000 </r>
       <r>   -5.7641    1.0000 </r>
       <r>   -5.7637    1.0000 </r>
       <r>   -5.7612    1.0000 </r>
       <r>   -5.7591    1.0000 </r>
       <r>   -5.7560    1.0000 </r>
       <r>   -5.7517    1.0000 </r>
       <r>   -5.7500    1.0000 </r>
       <r>   -5.7370    1.0000 </r>
       <r>   -5.6803    1.0000 </r>
       <r>   -5.6519    1.0000 </r>
       <r>   -5.6392    1.0000 </r>
       <r>   -5.6231    1.0000 </r>
       <r>   -5.6230    1.0000 </r>
       <r>   -5.6195    1.0000 </r>
       <r>   -5.6193    1.0000 </r>
       <r>   -5.2279    1.0000 </r>
       <r>   -5.2271    1.0000 </r>
       <r>   -5.2260    1.0000 </r>
       <r>   -5.2232    1.0000 </r>
       <r>   -5.2213    1.0000 </r>
       <r>   -5.2212    1.0000 </r>
       <r>   -5.2206    1.0000 </r>
       <r>   -5.2199    1.0000 </r>
       <r>   -5.2184    1.0000 </r>
       <r>   -5.2181    1.0000 </r>
       <r>   -5.2173    1.0000 </r>
       <r>   -5.2113    1.0000 </r>
       <r>   -5.1068    1.0000 </r>
       <r>   -5.0954    1.0000 </r>
       <r>   -5.0907    1.0000 </r>
       <r>   -5.0905    1.0000 </r>
       <r>   -5.0878    1.0000 </r>
       <r>   -5.0875    1.0000 </r>
       <r>   -5.0873    1.0000 </r>
       <r>   -5.0869    1.0000 </r>
       <r>   -5.0084    1.0000 </r>
       <r>   -4.9190    1.0000 </r>
       <r>   -4.8269    1.0000 </r>
       <r>   -4.5975    1.0000 </r>
       <r>   -4.5429    1.0000 </r>
       <r>   -4.5346    1.0000 </r>
       <r>   -4.4782    1.0000 </r>
       <r>   -4.4742    1.0000 </r>
       <r>   -4.4725    1.0000 </r>
       <r>   -4.4706    1.0000 </r>
       <r>   -4.4701    1.0000 </r>
       <r>   -4.4697    1.0000 </r>
       <r>   -4.4675    1.0000 </r>
       <r>   -4.4655    1.0000 </r>
       <r>   -4.3414    1.0000 </r>
       <r>   -4.3411    1.0000 </r>
       <r>   -4.3407    1.0000 </r>
       <r>   -4.3406    1.0000 </r>
       <r>   -4.3118    1.0000 </r>
       <r>   -4.1905    1.0000 </r>
       <r>   -4.0920    1.0000 </r>
       <r>   -4.0908    1.0000 </r>
       <r>   -4.0890    1.0000 </r>
       <r>   -4.0872    1.0000 </r>
       <r>   -4.0853    1.0000 </r>
       <r>   -4.0837    1.0000 </r>
       <r>   -4.0737    1.0000 </r>
       <r>   -4.0732    1.0000 </r>
       <r>   -4.0712    1.0000 </r>
       <r>   -4.0699    1.0000 </r>
       <r>   -4.0246    1.0000 </r>
       <r>   -3.9503    1.0000 </r>
       <r>   -3.9502    1.0000 </r>
       <r>   -3.9464    1.0000 </r>
       <r>   -3.9464    1.0000 </r>
       <r>   -3.9071    1.0000 </r>
       <r>   -3.8629    1.0000 </r>
       <r>   -3.7746    1.0000 </r>
       <r>   -3.7437    1.0000 </r>
       <r>   -3.6238    1.0000 </r>
       <r>   -3.6212    1.0000 </r>
       <r>   -3.6161    1.0000 </r>
       <r>   -3.6143    1.0000 </r>
       <r>   -3.6021    1.0000 </r>
       <r>   -3.6020    1.0000 </r>
       <r>   -3.5968    1.0000 </r>
       <r>   -3.5956    1.0000 </r>
       <r>   -3.4796    1.0000 </r>
       <r>   -3.4795    1.0000 </r>
       <r>   -3.4738    1.0000 </r>
       <r>   -3.4738    1.0000 </r>
       <r>   -3.4727    1.0000 </r>
       <r>   -3.4694    1.0000 </r>
       <r>   -3.4687    1.0000 </r>
       <r>   -3.4680    1.0000 </r>
       <r>   -3.4653    1.0000 </r>
       <r>   -3.4648    1.0000 </r>
       <r>   -3.4338    1.0000 </r>
       <r>   -3.3436    1.0000 </r>
       <r>   -3.3383    1.0000 </r>
       <r>   -3.3381    1.0000 </r>
       <r>   -3.1461    1.0000 </r>
       <r>   -3.0898    1.0000 </r>
       <r>   -3.0755    1.0000 </r>
       <r>   -3.0739    1.0000 </r>
       <r>   -3.0699    1.0000 </r>
       <r>   -3.0687    1.0000 </r>
       <r>   -3.0668    1.0000 </r>
       <r>   -2.9870    1.0000 </r>
       <r>   -2.9383    1.0000 </r>
       <r>   -2.9375    1.0000 </r>
       <r>   -2.9017    1.0000 </r>
       <r>   -2.8455    1.0000 </r>
       <r>   -2.8096    1.0000 </r>
       <r>   -2.7638    1.0000 </r>
       <r>   -2.7535    1.0000 </r>
       <r>   -2.7509    1.0000 </r>
       <r>   -2.7463    1.0000 </r>
       <r>   -2.7442    1.0000 </r>
       <r>   -2.7237    1.0000 </r>
       <r>   -2.7230    1.0000 </r>
       <r>   -2.6837    1.0000 </r>
       <r>   -2.6779    1.0000 </r>
       <r>   -2.6697    1.0000 </r>
       <r>   -2.6674    1.0000 </r>
       <r>   -2.6629    1.0000 </r>
       <r>   -2.5441    1.0000 </r>
       <r>   -2.5437    1.0000 </r>
       <r>   -2.5187    1.0000 </r>
       <r>   -2.5172    1.0000 </r>
       <r>   -2.5092    1.0000 </r>
       <r>   -2.4551    1.0000 </r>
       <r>   -2.4241    1.0000 </r>
       <r>   -2.4149    1.0000 </r>
       <r>   -2.3839    1.0000 </r>
       <r>   -2.3768    1.0000 </r>
       <r>   -2.3740    1.0000 </r>
       <r>   -2.3728    1.0000 </r>
       <r>   -2.3721    1.0000 </r>
       <r>   -2.3716    1.0000 </r>
       <r>   -2.3703    1.0000 </r>
       <r>   -2.3692    1.0000 </r>
       <r>   -2.3650    1.0000 </r>
       <r>   -2.3571    1.0000 </r>
       <r>   -2.3543    1.0000 </r>
       <r>   -2.3420    1.0000 </r>
       <r>   -2.3164    1.0000 </r>
       <r>   -2.2584    1.0000 </r>
       <r>   -2.2409    1.0000 </r>
       <r>   -2.2405    1.0000 </r>
       <r>   -2.2402    1.0000 </r>
       <r>   -2.2399    1.0000 </r>
       <r>   -2.2094    1.0000 </r>
       <r>   -2.1726    1.0000 </r>
       <r>   -2.1437    1.0000 </r>
       <r>   -2.1274    1.0000 </r>
       <r>   -2.0937    1.0000 </r>
       <r>   -2.0897    1.0000 </r>
       <r>   -2.0884    1.0000 </r>
       <r>   -2.0882    1.0000 </r>
       <r>   -2.0547    1.0000 </r>
       <r>   -2.0541    1.0000 </r>
       <r>   -2.0538    1.0000 </r>
       <r>   -2.0511    1.0000 </r>
       <r>   -2.0160    1.0000 </r>
       <r>   -2.0111    1.0000 </r>
       <r>   -2.0082    1.0000 </r>
       <r>   -2.0011    1.0000 </r>
       <r>   -1.9808    1.0000 </r>
       <r>   -1.9433    1.0000 </r>
       <r>   -1.9433    1.0000 </r>
       <r>   -1.9327    1.0000 </r>
       <r>   -1.9326    1.0000 </r>
       <r>   -1.8957    1.0000 </r>
       <r>   -1.8700    1.0000 </r>
       <r>   -1.8679    1.0000 </r>
       <r>   -1.8670    1.0000 </r>
       <r>   -1.8645    1.0000 </r>
       <r>   -1.8233    1.0000 </r>
       <r>   -1.8227    1.0000 </r>
       <r>   -1.8199    1.0000 </r>
       <r>   -1.8185    1.0000 </r>
       <r>   -1.8168    1.0000 </r>
       <r>   -1.8142    1.0000 </r>
       <r>   -1.7797    1.0000 </r>
       <r>   -1.7768    1.0000 </r>
       <r>   -1.7763    1.0000 </r>
       <r>   -1.7760    1.0000 </r>
       <r>   -1.7755    1.0000 </r>
       <r>   -1.7752    1.0000 </r>
       <r>   -1.7748    1.0000 </r>
       <r>   -1.7729    1.0000 </r>
       <r>   -1.7632    1.0000 </r>
       <r>   -1.7127    1.0000 </r>
       <r>   -1.7054    1.0000 </r>
       <r>   -1.7005    1.0000 </r>
       <r>   -1.6923    1.0000 </r>
       <r>   -1.6576    1.0000 </r>
       <r>   -1.6478    1.0000 </r>
       <r>   -1.6452    1.0000 </r>
       <r>   -1.6452    1.0000 </r>
       <r>   -1.6448    1.0000 </r>
       <r>   -1.6448    1.0000 </r>
       <r>   -1.6336    1.0000 </r>
       <r>   -1.6145    1.0000 </r>
       <r>   -1.6117    1.0000 </r>
       <r>   -1.6056    1.0000 </r>
       <r>   -1.6036    1.0000 </r>
       <r>   -1.5836    1.0000 </r>
       <r>   -1.5811    1.0000 </r>
       <r>   -1.5788    1.0000 </r>
       <r>   -1.5640    1.0000 </r>
       <r>   -1.5634    1.0000 </r>
       <r>   -1.5559    1.0000 </r>
       <r>   -1.5527    1.0000 </r>
       <r>   -1.5475    1.0000 </r>
       <r>   -1.4771    1.0000 </r>
       <r>   -1.4490    1.0000 </r>
       <r>   -1.4413    1.0000 </r>
       <r>   -1.4311    1.0000 </r>
       <r>   -1.3489    1.0000 </r>
       <r>   -1.3480    1.0000 </r>
       <r>   -1.3367    1.0000 </r>
       <r>   -1.3355    1.0000 </r>
       <r>   -1.2331    1.0000 </r>
       <r>   -1.2295    1.0000 </r>
       <r>   -1.2270    1.0000 </r>
       <r>   -1.2261    1.0000 </r>
       <r>   -1.2120    1.0000 </r>
       <r>   -1.2108    1.0000 </r>
       <r>   -1.2091    1.0000 </r>
       <r>   -1.2065    1.0000 </r>
       <r>   -1.1854    1.0000 </r>
       <r>   -1.0915    1.0000 </r>
       <r>   -1.0915    1.0000 </r>
       <r>   -1.0859    1.0000 </r>
       <r>   -1.0858    1.0000 </r>
       <r>   -1.0498    1.0000 </r>
       <r>   -1.0077    1.0000 </r>
       <r>   -0.9831    1.0000 </r>
       <r>   -0.9301    1.0000 </r>
       <r>   -0.8735    1.0000 </r>
       <r>   -0.8656    1.0000 </r>
       <r>   -0.8452    1.0000 </r>
       <r>   -0.7777    1.0000 </r>
       <r>   -0.7749    1.0000 </r>
       <r>   -0.7480    1.0000 </r>
       <r>   -0.7232    1.0000 </r>
       <r>   -0.7180    1.0000 </r>
       <r>   -0.7094    1.0000 </r>
       <r>   -0.7063    1.0000 </r>
       <r>   -0.7025    1.0000 </r>
       <r>   -0.6756    1.0000 </r>
       <r>   -0.6745    1.0000 </r>
       <r>   -0.6730    1.0000 </r>
       <r>   -0.6720    1.0000 </r>
       <r>   -0.6551    1.0000 </r>
       <r>   -0.6535    1.0000 </r>
       <r>   -0.6524    1.0000 </r>
       <r>   -0.6220    1.0000 </r>
       <r>   -0.5191    1.0000 </r>
       <r>   -0.5167    1.0000 </r>
       <r>   -0.5156    1.0000 </r>
       <r>   -0.5111    1.0000 </r>
       <r>   -0.4641    1.0000 </r>
       <r>   -0.4597    1.0000 </r>
       <r>   -0.4571    1.0000 </r>
       <r>   -0.4565    1.0000 </r>
       <r>   -0.4539    1.0000 </r>
       <r>   -0.4536    1.0000 </r>
       <r>   -0.4516    1.0000 </r>
       <r>   -0.4484    1.0000 </r>
       <r>   -0.4257    1.0000 </r>
       <r>   -0.3993    1.0000 </r>
       <r>   -0.3834    1.0000 </r>
       <r>   -0.3834    1.0000 </r>
       <r>   -0.3764    1.0000 </r>
       <r>   -0.3681    1.0000 </r>
       <r>   -0.3562    1.0000 </r>
       <r>   -0.3522    1.0000 </r>
       <r>   -0.3493    1.0000 </r>
       <r>   -0.3454    1.0000 </r>
       <r>   -0.3399    1.0000 </r>
       <r>   -0.3393    1.0000 </r>
       <r>   -0.3268    1.0000 </r>
       <r>   -0.3263    1.0000 </r>
       <r>   -0.3262    1.0000 </r>
       <r>   -0.3257    1.0000 </r>
       <r>   -0.2757    1.0000 </r>
       <r>   -0.2255    1.0000 </r>
       <r>   -0.2249    1.0000 </r>
       <r>   -0.0991    1.0000 </r>
       <r>   -0.0447    1.0000 </r>
       <r>    0.0263    1.0000 </r>
       <r>    0.0690    1.0000 </r>
       <r>    0.1216    1.0000 </r>
       <r>    0.1575    1.0000 </r>
       <r>    0.1579    1.0000 </r>
       <r>    0.1750    1.0000 </r>
       <r>    0.1870    1.0000 </r>
       <r>    0.2017    1.0000 </r>
       <r>    0.2126    1.0000 </r>
       <r>    0.2144    1.0000 </r>
       <r>    0.2183    1.0000 </r>
       <r>    0.2221    1.0000 </r>
       <r>    0.2410    1.0000 </r>
       <r>    0.2440    1.0000 </r>
       <r>    0.2932    1.0000 </r>
       <r>    0.3192    1.0000 </r>
       <r>    0.3217    1.0000 </r>
       <r>    0.3380    1.0000 </r>
       <r>    0.3443    1.0000 </r>
       <r>    0.3495    1.0000 </r>
       <r>    0.3509    1.0000 </r>
       <r>    0.3702    1.0000 </r>
       <r>    0.3790    1.0000 </r>
       <r>    0.3964    1.0000 </r>
       <r>    0.4552    1.0000 </r>
       <r>    0.4586    1.0000 </r>
       <r>    0.4649    1.0000 </r>
       <r>    0.4655    1.0000 </r>
       <r>    0.4663    1.0000 </r>
       <r>    0.4764    1.0000 </r>
       <r>    0.4770    1.0000 </r>
       <r>    0.4774    1.0000 </r>
       <r>    0.5542    1.0000 </r>
       <r>    0.5590    1.0000 </r>
       <r>    0.5666    1.0000 </r>
       <r>    0.5848    1.0000 </r>
       <r>    0.5894    1.0000 </r>
       <r>    0.6934    1.0000 </r>
       <r>    0.6953    1.0000 </r>
       <r>    0.7032    1.0000 </r>
       <r>    0.7069    1.0000 </r>
       <r>    0.7343    1.0000 </r>
       <r>    0.8115    1.0000 </r>
       <r>    0.8118    1.0000 </r>
       <r>    0.8424    1.0000 </r>
       <r>    0.8557    1.0000 </r>
       <r>    0.8566    1.0000 </r>
       <r>    0.8810    1.0000 </r>
       <r>    0.8847    1.0000 </r>
       <r>    0.8899    1.0000 </r>
       <r>    0.9175    1.0000 </r>
       <r>    0.9934    1.0000 </r>
       <r>    0.9971    1.0000 </r>
       <r>    0.9987    1.0000 </r>
       <r>    1.0030    1.0000 </r>
       <r>    1.0240    1.0000 </r>
       <r>    1.0348    1.0000 </r>
       <r>    1.0886    1.0000 </r>
       <r>    1.1053    1.0000 </r>
       <r>    1.2082    1.0000 </r>
       <r>    1.2101    1.0000 </r>
       <r>    1.2244    1.0000 </r>
       <r>    1.2345    1.0000 </r>
       <r>    1.2482    1.0000 </r>
       <r>    1.2501    1.0000 </r>
       <r>    1.2531    1.0000 </r>
       <r>    1.2644    1.0000 </r>
       <r>    1.3173    1.0000 </r>
       <r>    1.3184    1.0000 </r>
       <r>    1.3680    1.0000 </r>
       <r>    1.3680    1.0000 </r>
       <r>    1.4026    1.0000 </r>
       <r>    1.4031    1.0000 </r>
       <r>    1.4413    1.0000 </r>
       <r>    1.4428    1.0000 </r>
       <r>    1.5040    1.0000 </r>
       <r>    1.5058    1.0000 </r>
       <r>    1.5397    1.0000 </r>
       <r>    1.5848    1.0000 </r>
       <r>    1.5911    1.0000 </r>
       <r>    1.5916    1.0000 </r>
       <r>    1.7660    1.0000 </r>
       <r>    1.7711    1.0000 </r>
       <r>    1.8474    1.0000 </r>
       <r>    1.8567    1.0000 </r>
       <r>    1.8617    1.0000 </r>
       <r>    1.8628    1.0000 </r>
       <r>    1.9178    1.0000 </r>
       <r>    1.9262    1.0000 </r>
       <r>    1.9563    1.0000 </r>
       <r>    1.9600    1.0000 </r>
       <r>    1.9814    1.0000 </r>
       <r>    1.9819    1.0000 </r>
       <r>    2.0257    1.0000 </r>
       <r>    2.0258    1.0000 </r>
       <r>    2.0642    1.0000 </r>
       <r>    2.0675    1.0000 </r>
       <r>    2.0977    1.0000 </r>
       <r>    2.0989    1.0000 </r>
       <r>    2.2247    1.0000 </r>
       <r>    2.2315    1.0000 </r>
       <r>    2.4000    1.0000 </r>
       <r>    2.4010    1.0000 </r>
       <r>    2.4048    1.0000 </r>
       <r>    2.4063    1.0000 </r>
       <r>    5.5518    0.0000 </r>
       <r>    6.6705    0.0000 </r>
       <r>    6.6892    0.0000 </r>
       <r>    6.6924    0.0000 </r>
       <r>    6.7197    0.0000 </r>
       <r>    6.8898    0.0000 </r>
       <r>    6.9318    0.0000 </r>
       <r>    6.9993    0.0000 </r>
       <r>    7.0121    0.0000 </r>
       <r>    7.0880    0.0000 </r>
       <r>    7.0973    0.0000 </r>
       <r>    7.1632    0.0000 </r>
       <r>    7.2111    0.0000 </r>
       <r>    7.2146    0.0000 </r>
       <r>    7.2287    0.0000 </r>
       <r>    7.2557    0.0000 </r>
       <r>    7.2893    0.0000 </r>
       <r>    7.2976    0.0000 </r>
       <r>    7.3065    0.0000 </r>
       <r>    7.3294    0.0000 </r>
       <r>    7.3352    0.0000 </r>
       <r>    7.3421    0.0000 </r>
       <r>    7.3455    0.0000 </r>
       <r>    7.3518    0.0000 </r>
       <r>    7.3624    0.0000 </r>
       <r>    7.3635    0.0000 </r>
       <r>    7.3852    0.0000 </r>
       <r>    7.3882    0.0000 </r>
       <r>    7.3929    0.0000 </r>
       <r>    7.3968    0.0000 </r>
       <r>    7.4309    0.0000 </r>
       <r>    7.4333    0.0000 </r>
       <r>    7.4683    0.0000 </r>
       <r>    7.7055    0.0000 </r>
       <r>    7.7425    0.0000 </r>
       <r>    7.7445    0.0000 </r>
       <r>    7.7481    0.0000 </r>
       <r>    7.7987    0.0000 </r>
       <r>    7.8369    0.0000 </r>
       <r>    7.8608    0.0000 </r>
       <r>    7.8776    0.0000 </r>
       <r>    7.8908    0.0000 </r>
       <r>    7.9091    0.0000 </r>
       <r>    7.9193    0.0000 </r>
       <r>    7.9209    0.0000 </r>
       <r>    7.9620    0.0000 </r>
       <r>    8.0044    0.0000 </r>
       <r>    8.0803    0.0000 </r>
       <r>    8.1240    0.0000 </r>
       <r>    8.1688    0.0000 </r>
       <r>    8.1721    0.0000 </r>
       <r>    8.1763    0.0000 </r>
       <r>    8.1872    0.0000 </r>
       <r>    8.2178    0.0000 </r>
       <r>    8.2233    0.0000 </r>
       <r>    8.2258    0.0000 </r>
       <r>    8.2444    0.0000 </r>
       <r>    8.2562    0.0000 </r>
       <r>    8.2717    0.0000 </r>
       <r>    8.2890    0.0000 </r>
       <r>    8.4376    0.0000 </r>
       <r>    8.5705    0.0000 </r>
       <r>    8.5828    0.0000 </r>
       <r>    8.5996    0.0000 </r>
       <r>    8.6383    0.0000 </r>
       <r>    8.6418    0.0000 </r>
       <r>    8.6505    0.0000 </r>
       <r>    8.6673    0.0000 </r>
       <r>    8.6745    0.0000 </r>
       <r>    8.6835    0.0000 </r>
       <r>    8.6885    0.0000 </r>
       <r>    8.6908    0.0000 </r>
       <r>    8.7346    0.0000 </r>
       <r>    8.9037    0.0000 </r>
       <r>    8.9772    0.0000 </r>
       <r>    9.0018    0.0000 </r>
       <r>    9.0179    0.0000 </r>
       <r>    9.0397    0.0000 </r>
       <r>    9.0845    0.0000 </r>
       <r>    9.1269    0.0000 </r>
       <r>    9.2287    0.0000 </r>
       <r>    9.2498    0.0000 </r>
       <r>    9.2670    0.0000 </r>
       <r>    9.2683    0.0000 </r>
       <r>    9.2800    0.0000 </r>
       <r>    9.2856    0.0000 </r>
       <r>    9.2968    0.0000 </r>
       <r>    9.3012    0.0000 </r>
       <r>    9.3049    0.0000 </r>
       <r>    9.3213    0.0000 </r>
       <r>    9.3265    0.0000 </r>
       <r>    9.3293    0.0000 </r>
       <r>    9.3314    0.0000 </r>
       <r>    9.3969    0.0000 </r>
       <r>    9.4949    0.0000 </r>
       <r>    9.5275    0.0000 </r>
       <r>    9.6510    0.0000 </r>
       <r>    9.6832    0.0000 </r>
       <r>    9.6866    0.0000 </r>
       <r>    9.6906    0.0000 </r>
       <r>    9.6926    0.0000 </r>
       <r>    9.7470    0.0000 </r>
       <r>    9.9090    0.0000 </r>
       <r>   10.0783    0.0000 </r>
       <r>   10.0964    0.0000 </r>
       <r>   10.0980    0.0000 </r>
       <r>   10.1079    0.0000 </r>
       <r>   10.1502    0.0000 </r>
       <r>   10.1731    0.0000 </r>
       <r>   10.1785    0.0000 </r>
       <r>   10.1972    0.0000 </r>
       <r>   10.2014    0.0000 </r>
       <r>   10.2305    0.0000 </r>
       <r>   10.2413    0.0000 </r>
       <r>   10.2861    0.0000 </r>
       <r>   10.3103    0.0000 </r>
       <r>   10.3201    0.0000 </r>
       <r>   10.3780    0.0000 </r>
       <r>   10.3821    0.0000 </r>
       <r>   10.3912    0.0000 </r>
       <r>   10.3944    0.0000 </r>
       <r>   10.4226    0.0000 </r>
       <r>   10.4388    0.0000 </r>
       <r>   10.4464    0.0000 </r>
       <r>   10.4784    0.0000 </r>
       <r>   10.5183    0.0000 </r>
       <r>   10.5397    0.0000 </r>
       <r>   10.6298    0.0000 </r>
       <r>   10.6769    0.0000 </r>
       <r>   10.7234    0.0000 </r>
       <r>   10.7238    0.0000 </r>
       <r>   10.7277    0.0000 </r>
       <r>   10.7348    0.0000 </r>
       <r>   10.7537    0.0000 </r>
       <r>   10.7629    0.0000 </r>
       <r>   10.7688    0.0000 </r>
       <r>   10.7894    0.0000 </r>
       <r>   10.7918    0.0000 </r>
       <r>   10.7956    0.0000 </r>
       <r>   10.8163    0.0000 </r>
       <r>   10.8180    0.0000 </r>
       <r>   11.2433    0.0000 </r>
       <r>   11.2607    0.0000 </r>
       <r>   11.4842    0.0000 </r>
       <r>   11.5807    0.0000 </r>
       <r>   11.6678    0.0000 </r>
       <r>   11.7074    0.0000 </r>
       <r>   11.7387    0.0000 </r>
       <r>   11.7464    0.0000 </r>
       <r>   11.7786    0.0000 </r>
       <r>   11.8043    0.0000 </r>
       <r>   12.2813    0.0000 </r>
      </set>
      <set comment="kpoint 4">
       <r>  -17.1673    1.0000 </r>
       <r>  -15.7436    1.0000 </r>
       <r>  -15.6897    1.0000 </r>
       <r>  -15.4157    1.0000 </r>
       <r>  -15.2950    1.0000 </r>
       <r>  -15.2501    1.0000 </r>
       <r>  -15.2298    1.0000 </r>
       <r>  -15.1905    1.0000 </r>
       <r>  -15.1870    1.0000 </r>
       <r>  -15.0940    1.0000 </r>
       <r>  -15.0546    1.0000 </r>
       <r>  -15.0259    1.0000 </r>
       <r>  -15.0069    1.0000 </r>
       <r>  -14.9552    1.0000 </r>
       <r>  -14.9442    1.0000 </r>
       <r>  -14.9379    1.0000 </r>
       <r>  -14.9352    1.0000 </r>
       <r>  -14.8533    1.0000 </r>
       <r>  -14.7537    1.0000 </r>
       <r>  -14.7519    1.0000 </r>
       <r>  -14.6163    1.0000 </r>
       <r>  -14.5680    1.0000 </r>
       <r>  -14.5439    1.0000 </r>
       <r>  -14.4570    1.0000 </r>
       <r>  -14.4469    1.0000 </r>
       <r>  -14.4416    1.0000 </r>
       <r>  -14.4281    1.0000 </r>
       <r>  -14.4248    1.0000 </r>
       <r>  -14.4211    1.0000 </r>
       <r>  -14.4163    1.0000 </r>
       <r>  -14.4123    1.0000 </r>
       <r>  -14.3456    1.0000 </r>
       <r>  -14.2471    1.0000 </r>
       <r>  -14.2417    1.0000 </r>
       <r>  -14.2394    1.0000 </r>
       <r>  -14.2386    1.0000 </r>
       <r>  -14.2001    1.0000 </r>
       <r>  -14.1910    1.0000 </r>
       <r>  -14.1672    1.0000 </r>
       <r>  -14.1660    1.0000 </r>
       <r>  -14.1142    1.0000 </r>
       <r>  -14.0341    1.0000 </r>
       <r>  -13.9965    1.0000 </r>
       <r>  -13.9943    1.0000 </r>
       <r>  -13.9380    1.0000 </r>
       <r>  -13.7870    1.0000 </r>
       <r>  -13.7361    1.0000 </r>
       <r>  -13.7118    1.0000 </r>
       <r>  -13.7095    1.0000 </r>
       <r>  -13.7079    1.0000 </r>
       <r>  -13.6957    1.0000 </r>
       <r>  -13.6932    1.0000 </r>
       <r>  -13.6733    1.0000 </r>
       <r>  -13.6716    1.0000 </r>
       <r>  -13.5996    1.0000 </r>
       <r>  -13.5313    1.0000 </r>
       <r>  -13.5311    1.0000 </r>
       <r>  -13.5151    1.0000 </r>
       <r>  -13.5147    1.0000 </r>
       <r>  -13.5019    1.0000 </r>
       <r>  -13.3575    1.0000 </r>
       <r>  -13.3336    1.0000 </r>
       <r>  -13.2538    1.0000 </r>
       <r>  -13.2220    1.0000 </r>
       <r>  -13.1125    1.0000 </r>
       <r>  -13.0609    1.0000 </r>
       <r>  -13.0519    1.0000 </r>
       <r>  -13.0513    1.0000 </r>
       <r>  -13.0437    1.0000 </r>
       <r>  -13.0396    1.0000 </r>
       <r>  -13.0382    1.0000 </r>
       <r>  -13.0346    1.0000 </r>
       <r>  -13.0311    1.0000 </r>
       <r>  -12.9738    1.0000 </r>
       <r>  -12.9260    1.0000 </r>
       <r>  -12.8882    1.0000 </r>
       <r>  -12.8857    1.0000 </r>
       <r>  -12.8815    1.0000 </r>
       <r>  -12.8795    1.0000 </r>
       <r>  -12.8766    1.0000 </r>
       <r>  -12.8734    1.0000 </r>
       <r>  -12.8733    1.0000 </r>
       <r>  -12.8705    1.0000 </r>
       <r>  -12.8689    1.0000 </r>
       <r>  -12.8679    1.0000 </r>
       <r>  -12.8628    1.0000 </r>
       <r>  -12.8611    1.0000 </r>
       <r>  -12.8592    1.0000 </r>
       <r>  -12.7159    1.0000 </r>
       <r>  -12.7143    1.0000 </r>
       <r>  -12.7137    1.0000 </r>
       <r>  -12.7133    1.0000 </r>
       <r>  -12.6804    1.0000 </r>
       <r>  -12.6084    1.0000 </r>
       <r>  -12.5924    1.0000 </r>
       <r>  -12.5848    1.0000 </r>
       <r>  -12.5679    1.0000 </r>
       <r>  -12.5531    1.0000 </r>
       <r>  -12.5323    1.0000 </r>
       <r>  -12.4977    1.0000 </r>
       <r>  -12.4352    1.0000 </r>
       <r>  -12.4310    1.0000 </r>
       <r>  -12.4235    1.0000 </r>
       <r>  -12.4184    1.0000 </r>
       <r>  -12.3356    1.0000 </r>
       <r>  -12.3347    1.0000 </r>
       <r>  -12.3277    1.0000 </r>
       <r>  -12.3252    1.0000 </r>
       <r>  -12.2474    1.0000 </r>
       <r>  -12.2409    1.0000 </r>
       <r>  -12.2408    1.0000 </r>
       <r>  -12.2350    1.0000 </r>
       <r>  -12.2151    1.0000 </r>
       <r>  -12.2148    1.0000 </r>
       <r>  -12.2073    1.0000 </r>
       <r>  -12.2064    1.0000 </r>
       <r>  -12.1767    1.0000 </r>
       <r>  -12.1764    1.0000 </r>
       <r>  -12.1691    1.0000 </r>
       <r>  -12.1691    1.0000 </r>
       <r>  -12.0960    1.0000 </r>
       <r>  -12.0958    1.0000 </r>
       <r>  -12.0883    1.0000 </r>
       <r>  -12.0867    1.0000 </r>
       <r>  -12.0859    1.0000 </r>
       <r>  -12.0836    1.0000 </r>
       <r>  -11.9510    1.0000 </r>
       <r>  -11.9483    1.0000 </r>
       <r>  -11.9461    1.0000 </r>
       <r>  -11.9430    1.0000 </r>
       <r>  -11.8162    1.0000 </r>
       <r>  -11.8152    1.0000 </r>
       <r>  -11.8087    1.0000 </r>
       <r>  -11.8064    1.0000 </r>
       <r>  -11.8058    1.0000 </r>
       <r>  -11.8053    1.0000 </r>
       <r>  -11.7835    1.0000 </r>
       <r>  -11.7827    1.0000 </r>
       <r>  -11.7797    1.0000 </r>
       <r>  -11.7760    1.0000 </r>
       <r>  -11.6687    1.0000 </r>
       <r>  -11.6686    1.0000 </r>
       <r>  -11.6610    1.0000 </r>
       <r>  -11.6609    1.0000 </r>
       <r>   -8.1634    1.0000 </r>
       <r>   -7.2506    1.0000 </r>
       <r>   -7.2362    1.0000 </r>
       <r>   -6.7833    1.0000 </r>
       <r>   -6.6995    1.0000 </r>
       <r>   -6.6788    1.0000 </r>
       <r>   -6.4262    1.0000 </r>
       <r>   -6.4019    1.0000 </r>
       <r>   -6.3184    1.0000 </r>
       <r>   -6.3081    1.0000 </r>
       <r>   -6.3078    1.0000 </r>
       <r>   -6.3057    1.0000 </r>
       <r>   -6.3002    1.0000 </r>
       <r>   -6.2838    1.0000 </r>
       <r>   -6.2726    1.0000 </r>
       <r>   -6.2716    1.0000 </r>
       <r>   -6.2702    1.0000 </r>
       <r>   -6.2679    1.0000 </r>
       <r>   -6.2151    1.0000 </r>
       <r>   -6.2136    1.0000 </r>
       <r>   -6.2131    1.0000 </r>
       <r>   -6.2033    1.0000 </r>
       <r>   -6.1966    1.0000 </r>
       <r>   -6.1925    1.0000 </r>
       <r>   -6.1591    1.0000 </r>
       <r>   -6.1589    1.0000 </r>
       <r>   -6.1486    1.0000 </r>
       <r>   -6.1485    1.0000 </r>
       <r>   -6.0725    1.0000 </r>
       <r>   -6.0709    1.0000 </r>
       <r>   -5.9333    1.0000 </r>
       <r>   -5.9310    1.0000 </r>
       <r>   -5.9071    1.0000 </r>
       <r>   -5.9043    1.0000 </r>
       <r>   -5.8365    1.0000 </r>
       <r>   -5.7896    1.0000 </r>
       <r>   -5.7815    1.0000 </r>
       <r>   -5.7709    1.0000 </r>
       <r>   -5.7682    1.0000 </r>
       <r>   -5.7644    1.0000 </r>
       <r>   -5.7634    1.0000 </r>
       <r>   -5.7610    1.0000 </r>
       <r>   -5.7590    1.0000 </r>
       <r>   -5.7564    1.0000 </r>
       <r>   -5.7516    1.0000 </r>
       <r>   -5.7505    1.0000 </r>
       <r>   -5.7371    1.0000 </r>
       <r>   -5.6804    1.0000 </r>
       <r>   -5.6519    1.0000 </r>
       <r>   -5.6392    1.0000 </r>
       <r>   -5.6231    1.0000 </r>
       <r>   -5.6229    1.0000 </r>
       <r>   -5.6195    1.0000 </r>
       <r>   -5.6194    1.0000 </r>
       <r>   -5.2288    1.0000 </r>
       <r>   -5.2270    1.0000 </r>
       <r>   -5.2258    1.0000 </r>
       <r>   -5.2234    1.0000 </r>
       <r>   -5.2227    1.0000 </r>
       <r>   -5.2212    1.0000 </r>
       <r>   -5.2206    1.0000 </r>
       <r>   -5.2200    1.0000 </r>
       <r>   -5.2184    1.0000 </r>
       <r>   -5.2181    1.0000 </r>
       <r>   -5.2165    1.0000 </r>
       <r>   -5.2140    1.0000 </r>
       <r>   -5.1068    1.0000 </r>
       <r>   -5.0955    1.0000 </r>
       <r>   -5.0908    1.0000 </r>
       <r>   -5.0905    1.0000 </r>
       <r>   -5.0877    1.0000 </r>
       <r>   -5.0876    1.0000 </r>
       <r>   -5.0873    1.0000 </r>
       <r>   -5.0869    1.0000 </r>
       <r>   -5.0083    1.0000 </r>
       <r>   -4.9190    1.0000 </r>
       <r>   -4.8269    1.0000 </r>
       <r>   -4.5975    1.0000 </r>
       <r>   -4.5428    1.0000 </r>
       <r>   -4.5346    1.0000 </r>
       <r>   -4.4767    1.0000 </r>
       <r>   -4.4736    1.0000 </r>
       <r>   -4.4722    1.0000 </r>
       <r>   -4.4705    1.0000 </r>
       <r>   -4.4698    1.0000 </r>
       <r>   -4.4695    1.0000 </r>
       <r>   -4.4668    1.0000 </r>
       <r>   -4.4640    1.0000 </r>
       <r>   -4.3414    1.0000 </r>
       <r>   -4.3411    1.0000 </r>
       <r>   -4.3407    1.0000 </r>
       <r>   -4.3405    1.0000 </r>
       <r>   -4.3119    1.0000 </r>
       <r>   -4.1905    1.0000 </r>
       <r>   -4.0920    1.0000 </r>
       <r>   -4.0908    1.0000 </r>
       <r>   -4.0887    1.0000 </r>
       <r>   -4.0872    1.0000 </r>
       <r>   -4.0853    1.0000 </r>
       <r>   -4.0836    1.0000 </r>
       <r>   -4.0737    1.0000 </r>
       <r>   -4.0730    1.0000 </r>
       <r>   -4.0712    1.0000 </r>
       <r>   -4.0692    1.0000 </r>
       <r>   -4.0245    1.0000 </r>
       <r>   -3.9503    1.0000 </r>
       <r>   -3.9501    1.0000 </r>
       <r>   -3.9464    1.0000 </r>
       <r>   -3.9464    1.0000 </r>
       <r>   -3.9072    1.0000 </r>
       <r>   -3.8629    1.0000 </r>
       <r>   -3.7746    1.0000 </r>
       <r>   -3.7437    1.0000 </r>
       <r>   -3.6237    1.0000 </r>
       <r>   -3.6232    1.0000 </r>
       <r>   -3.6161    1.0000 </r>
       <r>   -3.6153    1.0000 </r>
       <r>   -3.6029    1.0000 </r>
       <r>   -3.6020    1.0000 </r>
       <r>   -3.5978    1.0000 </r>
       <r>   -3.5964    1.0000 </r>
       <r>   -3.4796    1.0000 </r>
       <r>   -3.4795    1.0000 </r>
       <r>   -3.4739    1.0000 </r>
       <r>   -3.4737    1.0000 </r>
       <r>   -3.4726    1.0000 </r>
       <r>   -3.4687    1.0000 </r>
       <r>   -3.4682    1.0000 </r>
       <r>   -3.4675    1.0000 </r>
       <r>   -3.4647    1.0000 </r>
       <r>   -3.4637    1.0000 </r>
       <r>   -3.4339    1.0000 </r>
       <r>   -3.3436    1.0000 </r>
       <r>   -3.3383    1.0000 </r>
       <r>   -3.3381    1.0000 </r>
       <r>   -3.1461    1.0000 </r>
       <r>   -3.0899    1.0000 </r>
       <r>   -3.0770    1.0000 </r>
       <r>   -3.0745    1.0000 </r>
       <r>   -3.0702    1.0000 </r>
       <r>   -3.0698    1.0000 </r>
       <r>   -3.0674    1.0000 </r>
       <r>   -2.9870    1.0000 </r>
       <r>   -2.9383    1.0000 </r>
       <r>   -2.9375    1.0000 </r>
       <r>   -2.9017    1.0000 </r>
       <r>   -2.8455    1.0000 </r>
       <r>   -2.8096    1.0000 </r>
       <r>   -2.7638    1.0000 </r>
       <r>   -2.7535    1.0000 </r>
       <r>   -2.7508    1.0000 </r>
       <r>   -2.7470    1.0000 </r>
       <r>   -2.7444    1.0000 </r>
       <r>   -2.7232    1.0000 </r>
       <r>   -2.7231    1.0000 </r>
       <r>   -2.6822    1.0000 </r>
       <r>   -2.6770    1.0000 </r>
       <r>   -2.6686    1.0000 </r>
       <r>   -2.6659    1.0000 </r>
       <r>   -2.6622    1.0000 </r>
       <r>   -2.5440    1.0000 </r>
       <r>   -2.5437    1.0000 </r>
       <r>   -2.5188    1.0000 </r>
       <r>   -2.5171    1.0000 </r>
       <r>   -2.5092    1.0000 </r>
       <r>   -2.4552    1.0000 </r>
       <r>   -2.4240    1.0000 </r>
       <r>   -2.4148    1.0000 </r>
       <r>   -2.3837    1.0000 </r>
       <r>   -2.3797    1.0000 </r>
       <r>   -2.3752    1.0000 </r>
       <r>   -2.3735    1.0000 </r>
       <r>   -2.3729    1.0000 </r>
       <r>   -2.3714    1.0000 </r>
       <r>   -2.3706    1.0000 </r>
       <r>   -2.3696    1.0000 </r>
       <r>   -2.3670    1.0000 </r>
       <r>   -2.3573    1.0000 </r>
       <r>   -2.3544    1.0000 </r>
       <r>   -2.3418    1.0000 </r>
       <r>   -2.3167    1.0000 </r>
       <r>   -2.2584    1.0000 </r>
       <r>   -2.2409    1.0000 </r>
       <r>   -2.2406    1.0000 </r>
       <r>   -2.2402    1.0000 </r>
       <r>   -2.2399    1.0000 </r>
       <r>   -2.2095    1.0000 </r>
       <r>   -2.1726    1.0000 </r>
       <r>   -2.1437    1.0000 </r>
       <r>   -2.1274    1.0000 </r>
       <r>   -2.0916    1.0000 </r>
       <r>   -2.0889    1.0000 </r>
       <r>   -2.0884    1.0000 </r>
       <r>   -2.0882    1.0000 </r>
       <r>   -2.0544    1.0000 </r>
       <r>   -2.0540    1.0000 </r>
       <r>   -2.0528    1.0000 </r>
       <r>   -2.0497    1.0000 </r>
       <r>   -2.0154    1.0000 </r>
       <r>   -2.0108    1.0000 </r>
       <r>   -2.0082    1.0000 </r>
       <r>   -2.0021    1.0000 </r>
       <r>   -1.9811    1.0000 </r>
       <r>   -1.9433    1.0000 </r>
       <r>   -1.9433    1.0000 </r>
       <r>   -1.9327    1.0000 </r>
       <r>   -1.9326    1.0000 </r>
       <r>   -1.8957    1.0000 </r>
       <r>   -1.8693    1.0000 </r>
       <r>   -1.8679    1.0000 </r>
       <r>   -1.8668    1.0000 </r>
       <r>   -1.8654    1.0000 </r>
       <r>   -1.8236    1.0000 </r>
       <r>   -1.8233    1.0000 </r>
       <r>   -1.8202    1.0000 </r>
       <r>   -1.8177    1.0000 </r>
       <r>   -1.8161    1.0000 </r>
       <r>   -1.8139    1.0000 </r>
       <r>   -1.7780    1.0000 </r>
       <r>   -1.7770    1.0000 </r>
       <r>   -1.7761    1.0000 </r>
       <r>   -1.7759    1.0000 </r>
       <r>   -1.7756    1.0000 </r>
       <r>   -1.7753    1.0000 </r>
       <r>   -1.7745    1.0000 </r>
       <r>   -1.7701    1.0000 </r>
       <r>   -1.7650    1.0000 </r>
       <r>   -1.7128    1.0000 </r>
       <r>   -1.7054    1.0000 </r>
       <r>   -1.7002    1.0000 </r>
       <r>   -1.6926    1.0000 </r>
       <r>   -1.6576    1.0000 </r>
       <r>   -1.6474    1.0000 </r>
       <r>   -1.6452    1.0000 </r>
       <r>   -1.6452    1.0000 </r>
       <r>   -1.6448    1.0000 </r>
       <r>   -1.6447    1.0000 </r>
       <r>   -1.6337    1.0000 </r>
       <r>   -1.6154    1.0000 </r>
       <r>   -1.6113    1.0000 </r>
       <r>   -1.6061    1.0000 </r>
       <r>   -1.6024    1.0000 </r>
       <r>   -1.5860    1.0000 </r>
       <r>   -1.5815    1.0000 </r>
       <r>   -1.5792    1.0000 </r>
       <r>   -1.5639    1.0000 </r>
       <r>   -1.5634    1.0000 </r>
       <r>   -1.5558    1.0000 </r>
       <r>   -1.5530    1.0000 </r>
       <r>   -1.5501    1.0000 </r>
       <r>   -1.4770    1.0000 </r>
       <r>   -1.4490    1.0000 </r>
       <r>   -1.4413    1.0000 </r>
       <r>   -1.4312    1.0000 </r>
       <r>   -1.3489    1.0000 </r>
       <r>   -1.3483    1.0000 </r>
       <r>   -1.3366    1.0000 </r>
       <r>   -1.3354    1.0000 </r>
       <r>   -1.2311    1.0000 </r>
       <r>   -1.2285    1.0000 </r>
       <r>   -1.2267    1.0000 </r>
       <r>   -1.2248    1.0000 </r>
       <r>   -1.2111    1.0000 </r>
       <r>   -1.2108    1.0000 </r>
       <r>   -1.2078    1.0000 </r>
       <r>   -1.2052    1.0000 </r>
       <r>   -1.1854    1.0000 </r>
       <r>   -1.0915    1.0000 </r>
       <r>   -1.0914    1.0000 </r>
       <r>   -1.0859    1.0000 </r>
       <r>   -1.0858    1.0000 </r>
       <r>   -1.0497    1.0000 </r>
       <r>   -1.0077    1.0000 </r>
       <r>   -0.9829    1.0000 </r>
       <r>   -0.9298    1.0000 </r>
       <r>   -0.8737    1.0000 </r>
       <r>   -0.8656    1.0000 </r>
       <r>   -0.8451    1.0000 </r>
       <r>   -0.7777    1.0000 </r>
       <r>   -0.7748    1.0000 </r>
       <r>   -0.7478    1.0000 </r>
       <r>   -0.7227    1.0000 </r>
       <r>   -0.7183    1.0000 </r>
       <r>   -0.7094    1.0000 </r>
       <r>   -0.7062    1.0000 </r>
       <r>   -0.7021    1.0000 </r>
       <r>   -0.6753    1.0000 </r>
       <r>   -0.6740    1.0000 </r>
       <r>   -0.6728    1.0000 </r>
       <r>   -0.6721    1.0000 </r>
       <r>   -0.6555    1.0000 </r>
       <r>   -0.6535    1.0000 </r>
       <r>   -0.6529    1.0000 </r>
       <r>   -0.6229    1.0000 </r>
       <r>   -0.5221    1.0000 </r>
       <r>   -0.5171    1.0000 </r>
       <r>   -0.5156    1.0000 </r>
       <r>   -0.5145    1.0000 </r>
       <r>   -0.4623    1.0000 </r>
       <r>   -0.4596    1.0000 </r>
       <r>   -0.4589    1.0000 </r>
       <r>   -0.4564    1.0000 </r>
       <r>   -0.4549    1.0000 </r>
       <r>   -0.4532    1.0000 </r>
       <r>   -0.4512    1.0000 </r>
       <r>   -0.4487    1.0000 </r>
       <r>   -0.4260    1.0000 </r>
       <r>   -0.3994    1.0000 </r>
       <r>   -0.3834    1.0000 </r>
       <r>   -0.3834    1.0000 </r>
       <r>   -0.3760    1.0000 </r>
       <r>   -0.3686    1.0000 </r>
       <r>   -0.3577    1.0000 </r>
       <r>   -0.3539    1.0000 </r>
       <r>   -0.3491    1.0000 </r>
       <r>   -0.3470    1.0000 </r>
       <r>   -0.3427    1.0000 </r>
       <r>   -0.3393    1.0000 </r>
       <r>   -0.3269    1.0000 </r>
       <r>   -0.3263    1.0000 </r>
       <r>   -0.3262    1.0000 </r>
       <r>   -0.3257    1.0000 </r>
       <r>   -0.2758    1.0000 </r>
       <r>   -0.2255    1.0000 </r>
       <r>   -0.2249    1.0000 </r>
       <r>   -0.0991    1.0000 </r>
       <r>   -0.0447    1.0000 </r>
       <r>    0.0263    1.0000 </r>
       <r>    0.0690    1.0000 </r>
       <r>    0.1213    1.0000 </r>
       <r>    0.1577    1.0000 </r>
       <r>    0.1579    1.0000 </r>
       <r>    0.1753    1.0000 </r>
       <r>    0.1870    1.0000 </r>
       <r>    0.2023    1.0000 </r>
       <r>    0.2114    1.0000 </r>
       <r>    0.2142    1.0000 </r>
       <r>    0.2190    1.0000 </r>
       <r>    0.2211    1.0000 </r>
       <r>    0.2408    1.0000 </r>
       <r>    0.2444    1.0000 </r>
       <r>    0.2936    1.0000 </r>
       <r>    0.3192    1.0000 </r>
       <r>    0.3218    1.0000 </r>
       <r>    0.3434    1.0000 </r>
       <r>    0.3445    1.0000 </r>
       <r>    0.3496    1.0000 </r>
       <r>    0.3552    1.0000 </r>
       <r>    0.3703    1.0000 </r>
       <r>    0.3788    1.0000 </r>
       <r>    0.3965    1.0000 </r>
       <r>    0.4556    1.0000 </r>
       <r>    0.4584    1.0000 </r>
       <r>    0.4650    1.0000 </r>
       <r>    0.4655    1.0000 </r>
       <r>    0.4662    1.0000 </r>
       <r>    0.4764    1.0000 </r>
       <r>    0.4774    1.0000 </r>
       <r>    0.4774    1.0000 </r>
       <r>    0.5562    1.0000 </r>
       <r>    0.5610    1.0000 </r>
       <r>    0.5666    1.0000 </r>
       <r>    0.5866    1.0000 </r>
       <r>    0.5923    1.0000 </r>
       <r>    0.6934    1.0000 </r>
       <r>    0.6952    1.0000 </r>
       <r>    0.7032    1.0000 </r>
       <r>    0.7073    1.0000 </r>
       <r>    0.7350    1.0000 </r>
       <r>    0.8108    1.0000 </r>
       <r>    0.8123    1.0000 </r>
       <r>    0.8423    1.0000 </r>
       <r>    0.8512    1.0000 </r>
       <r>    0.8560    1.0000 </r>
       <r>    0.8801    1.0000 </r>
       <r>    0.8844    1.0000 </r>
       <r>    0.8853    1.0000 </r>
       <r>    0.9169    1.0000 </r>
       <r>    0.9934    1.0000 </r>
       <r>    0.9977    1.0000 </r>
       <r>    0.9992    1.0000 </r>
       <r>    1.0030    1.0000 </r>
       <r>    1.0231    1.0000 </r>
       <r>    1.0331    1.0000 </r>
       <r>    1.0881    1.0000 </r>
       <r>    1.1055    1.0000 </r>
       <r>    1.2085    1.0000 </r>
       <r>    1.2108    1.0000 </r>
       <r>    1.2243    1.0000 </r>
       <r>    1.2345    1.0000 </r>
       <r>    1.2485    1.0000 </r>
       <r>    1.2507    1.0000 </r>
       <r>    1.2532    1.0000 </r>
       <r>    1.2644    1.0000 </r>
       <r>    1.3171    1.0000 </r>
       <r>    1.3184    1.0000 </r>
       <r>    1.3677    1.0000 </r>
       <r>    1.3683    1.0000 </r>
       <r>    1.4031    1.0000 </r>
       <r>    1.4040    1.0000 </r>
       <r>    1.4419    1.0000 </r>
       <r>    1.4428    1.0000 </r>
       <r>    1.5032    1.0000 </r>
       <r>    1.5063    1.0000 </r>
       <r>    1.5395    1.0000 </r>
       <r>    1.5851    1.0000 </r>
       <r>    1.5905    1.0000 </r>
       <r>    1.5915    1.0000 </r>
       <r>    1.7661    1.0000 </r>
       <r>    1.7706    1.0000 </r>
       <r>    1.8468    1.0000 </r>
       <r>    1.8558    1.0000 </r>
       <r>    1.8607    1.0000 </r>
       <r>    1.8632    1.0000 </r>
       <r>    1.9194    1.0000 </r>
       <r>    1.9278    1.0000 </r>
       <r>    1.9548    1.0000 </r>
       <r>    1.9603    1.0000 </r>
       <r>    1.9811    1.0000 </r>
       <r>    1.9818    1.0000 </r>
       <r>    2.0255    1.0000 </r>
       <r>    2.0260    1.0000 </r>
       <r>    2.0644    1.0000 </r>
       <r>    2.0674    1.0000 </r>
       <r>    2.0975    1.0000 </r>
       <r>    2.0991    1.0000 </r>
       <r>    2.2245    1.0000 </r>
       <r>    2.2312    1.0000 </r>
       <r>    2.4003    1.0000 </r>
       <r>    2.4005    1.0000 </r>
       <r>    2.4046    1.0000 </r>
       <r>    2.4067    1.0000 </r>
       <r>    5.5519    0.0000 </r>
       <r>    6.6706    0.0000 </r>
       <r>    6.6894    0.0000 </r>
       <r>    6.6922    0.0000 </r>
       <r>    6.7197    0.0000 </r>
       <r>    6.8898    0.0000 </r>
       <r>    6.9312    0.0000 </r>
       <r>    6.9997    0.0000 </r>
       <r>    7.0122    0.0000 </r>
       <r>    7.0880    0.0000 </r>
       <r>    7.0973    0.0000 </r>
       <r>    7.1633    0.0000 </r>
       <r>    7.2127    0.0000 </r>
       <r>    7.2149    0.0000 </r>
       <r>    7.2302    0.0000 </r>
       <r>    7.2556    0.0000 </r>
       <r>    7.2885    0.0000 </r>
       <r>    7.2965    0.0000 </r>
       <r>    7.3072    0.0000 </r>
       <r>    7.3284    0.0000 </r>
       <r>    7.3350    0.0000 </r>
       <r>    7.3417    0.0000 </r>
       <r>    7.3455    0.0000 </r>
       <r>    7.3518    0.0000 </r>
       <r>    7.3626    0.0000 </r>
       <r>    7.3638    0.0000 </r>
       <r>    7.3853    0.0000 </r>
       <r>    7.3882    0.0000 </r>
       <r>    7.3925    0.0000 </r>
       <r>    7.3968    0.0000 </r>
       <r>    7.4298    0.0000 </r>
       <r>    7.4327    0.0000 </r>
       <r>    7.4688    0.0000 </r>
       <r>    7.7052    0.0000 </r>
       <r>    7.7428    0.0000 </r>
       <r>    7.7446    0.0000 </r>
       <r>    7.7480    0.0000 </r>
       <r>    7.7997    0.0000 </r>
       <r>    7.8370    0.0000 </r>
       <r>    7.8607    0.0000 </r>
       <r>    7.8777    0.0000 </r>
       <r>    7.8913    0.0000 </r>
       <r>    7.9095    0.0000 </r>
       <r>    7.9195    0.0000 </r>
       <r>    7.9221    0.0000 </r>
       <r>    7.9636    0.0000 </r>
       <r>    8.0045    0.0000 </r>
       <r>    8.0805    0.0000 </r>
       <r>    8.1237    0.0000 </r>
       <r>    8.1680    0.0000 </r>
       <r>    8.1709    0.0000 </r>
       <r>    8.1751    0.0000 </r>
       <r>    8.1865    0.0000 </r>
       <r>    8.2172    0.0000 </r>
       <r>    8.2238    0.0000 </r>
       <r>    8.2255    0.0000 </r>
       <r>    8.2438    0.0000 </r>
       <r>    8.2559    0.0000 </r>
       <r>    8.2718    0.0000 </r>
       <r>    8.2889    0.0000 </r>
       <r>    8.4375    0.0000 </r>
       <r>    8.5707    0.0000 </r>
       <r>    8.5824    0.0000 </r>
       <r>    8.5985    0.0000 </r>
       <r>    8.6384    0.0000 </r>
       <r>    8.6415    0.0000 </r>
       <r>    8.6504    0.0000 </r>
       <r>    8.6675    0.0000 </r>
       <r>    8.6738    0.0000 </r>
       <r>    8.6842    0.0000 </r>
       <r>    8.6886    0.0000 </r>
       <r>    8.6899    0.0000 </r>
       <r>    8.7355    0.0000 </r>
       <r>    8.9037    0.0000 </r>
       <r>    8.9777    0.0000 </r>
       <r>    9.0020    0.0000 </r>
       <r>    9.0179    0.0000 </r>
       <r>    9.0400    0.0000 </r>
       <r>    9.0840    0.0000 </r>
       <r>    9.1274    0.0000 </r>
       <r>    9.2285    0.0000 </r>
       <r>    9.2515    0.0000 </r>
       <r>    9.2670    0.0000 </r>
       <r>    9.2699    0.0000 </r>
       <r>    9.2799    0.0000 </r>
       <r>    9.2850    0.0000 </r>
       <r>    9.2971    0.0000 </r>
       <r>    9.3008    0.0000 </r>
       <r>    9.3062    0.0000 </r>
       <r>    9.3215    0.0000 </r>
       <r>    9.3267    0.0000 </r>
       <r>    9.3292    0.0000 </r>
       <r>    9.3310    0.0000 </r>
       <r>    9.3970    0.0000 </r>
       <r>    9.4949    0.0000 </r>
       <r>    9.5276    0.0000 </r>
       <r>    9.6510    0.0000 </r>
       <r>    9.6841    0.0000 </r>
       <r>    9.6864    0.0000 </r>
       <r>    9.6909    0.0000 </r>
       <r>    9.6930    0.0000 </r>
       <r>    9.7471    0.0000 </r>
       <r>    9.9090    0.0000 </r>
       <r>   10.0785    0.0000 </r>
       <r>   10.0962    0.0000 </r>
       <r>   10.0979    0.0000 </r>
       <r>   10.1081    0.0000 </r>
       <r>   10.1499    0.0000 </r>
       <r>   10.1732    0.0000 </r>
       <r>   10.1783    0.0000 </r>
       <r>   10.1965    0.0000 </r>
       <r>   10.2006    0.0000 </r>
       <r>   10.2303    0.0000 </r>
       <r>   10.2412    0.0000 </r>
       <r>   10.2856    0.0000 </r>
       <r>   10.3122    0.0000 </r>
       <r>   10.3189    0.0000 </r>
       <r>   10.3777    0.0000 </r>
       <r>   10.3816    0.0000 </r>
       <r>   10.3909    0.0000 </r>
       <r>   10.3943    0.0000 </r>
       <r>   10.4224    0.0000 </r>
       <r>   10.4393    0.0000 </r>
       <r>   10.4473    0.0000 </r>
       <r>   10.4753    0.0000 </r>
       <r>   10.5177    0.0000 </r>
       <r>   10.5400    0.0000 </r>
       <r>   10.6310    0.0000 </r>
       <r>   10.6767    0.0000 </r>
       <r>   10.7231    0.0000 </r>
       <r>   10.7240    0.0000 </r>
       <r>   10.7271    0.0000 </r>
       <r>   10.7349    0.0000 </r>
       <r>   10.7541    0.0000 </r>
       <r>   10.7605    0.0000 </r>
       <r>   10.7696    0.0000 </r>
       <r>   10.7896    0.0000 </r>
       <r>   10.7922    0.0000 </r>
       <r>   10.7953    0.0000 </r>
       <r>   10.8162    0.0000 </r>
       <r>   10.8179    0.0000 </r>
       <r>   11.2460    0.0000 </r>
       <r>   11.2648    0.0000 </r>
       <r>   11.5452    0.0000 </r>
       <r>   11.5883    0.0000 </r>
       <r>   11.6305    0.0000 </r>
       <r>   11.6707    0.0000 </r>
       <r>   11.7412    0.0000 </r>
       <r>   11.7438    0.0000 </r>
       <r>   11.7891    0.0000 </r>
       <r>   11.8154    0.0000 </r>
       <r>   12.3892    0.0000 </r>
      </set>
      <set comment="kpoint 5">
       <r>  -17.1676    1.0000 </r>
       <r>  -15.6773    1.0000 </r>
       <r>  -15.6770    1.0000 </r>
       <r>  -15.5678    1.0000 </r>
       <r>  -15.3957    1.0000 </r>
       <r>  -15.3100    1.0000 </r>
       <r>  -15.1586    1.0000 </r>
       <r>  -15.1566    1.0000 </r>
       <r>  -15.1559    1.0000 </r>
       <r>  -15.0699    1.0000 </r>
       <r>  -14.8888    1.0000 </r>
       <r>  -14.8650    1.0000 </r>
       <r>  -14.8646    1.0000 </r>
       <r>  -14.8482    1.0000 </r>
       <r>  -14.8377    1.0000 </r>
       <r>  -14.8363    1.0000 </r>
       <r>  -14.8354    1.0000 </r>
       <r>  -14.8337    1.0000 </r>
       <r>  -14.8261    1.0000 </r>
       <r>  -14.7632    1.0000 </r>
       <r>  -14.7606    1.0000 </r>
       <r>  -14.7427    1.0000 </r>
       <r>  -14.7039    1.0000 </r>
       <r>  -14.7038    1.0000 </r>
       <r>  -14.6450    1.0000 </r>
       <r>  -14.6341    1.0000 </r>
       <r>  -14.6337    1.0000 </r>
       <r>  -14.6192    1.0000 </r>
       <r>  -14.6180    1.0000 </r>
       <r>  -14.6122    1.0000 </r>
       <r>  -14.5467    1.0000 </r>
       <r>  -14.2499    1.0000 </r>
       <r>  -14.2497    1.0000 </r>
       <r>  -14.2407    1.0000 </r>
       <r>  -13.9118    1.0000 </r>
       <r>  -13.9111    1.0000 </r>
       <r>  -13.8505    1.0000 </r>
       <r>  -13.8476    1.0000 </r>
       <r>  -13.8457    1.0000 </r>
       <r>  -13.8430    1.0000 </r>
       <r>  -13.8389    1.0000 </r>
       <r>  -13.8385    1.0000 </r>
       <r>  -13.8349    1.0000 </r>
       <r>  -13.8108    1.0000 </r>
       <r>  -13.7959    1.0000 </r>
       <r>  -13.7946    1.0000 </r>
       <r>  -13.7818    1.0000 </r>
       <r>  -13.7794    1.0000 </r>
       <r>  -13.7774    1.0000 </r>
       <r>  -13.7500    1.0000 </r>
       <r>  -13.7498    1.0000 </r>
       <r>  -13.7491    1.0000 </r>
       <r>  -13.6396    1.0000 </r>
       <r>  -13.6386    1.0000 </r>
       <r>  -13.6380    1.0000 </r>
       <r>  -13.6362    1.0000 </r>
       <r>  -13.6362    1.0000 </r>
       <r>  -13.6349    1.0000 </r>
       <r>  -13.3977    1.0000 </r>
       <r>  -13.3970    1.0000 </r>
       <r>  -13.3945    1.0000 </r>
       <r>  -13.3933    1.0000 </r>
       <r>  -13.3919    1.0000 </r>
       <r>  -13.3912    1.0000 </r>
       <r>  -13.3716    1.0000 </r>
       <r>  -13.3690    1.0000 </r>
       <r>  -13.3563    1.0000 </r>
       <r>  -13.3505    1.0000 </r>
       <r>  -13.3492    1.0000 </r>
       <r>  -13.3484    1.0000 </r>
       <r>  -13.2605    1.0000 </r>
       <r>  -13.2600    1.0000 </r>
       <r>  -13.2051    1.0000 </r>
       <r>  -13.2047    1.0000 </r>
       <r>  -13.2041    1.0000 </r>
       <r>  -13.2038    1.0000 </r>
       <r>  -13.2033    1.0000 </r>
       <r>  -13.2032    1.0000 </r>
       <r>  -12.8863    1.0000 </r>
       <r>  -12.8558    1.0000 </r>
       <r>  -12.8557    1.0000 </r>
       <r>  -12.7716    1.0000 </r>
       <r>  -12.6720    1.0000 </r>
       <r>  -12.5883    1.0000 </r>
       <r>  -12.5880    1.0000 </r>
       <r>  -12.5877    1.0000 </r>
       <r>  -12.5323    1.0000 </r>
       <r>  -12.5321    1.0000 </r>
       <r>  -12.4963    1.0000 </r>
       <r>  -12.4961    1.0000 </r>
       <r>  -12.4670    1.0000 </r>
       <r>  -12.3531    1.0000 </r>
       <r>  -12.3399    1.0000 </r>
       <r>  -12.3351    1.0000 </r>
       <r>  -12.3234    1.0000 </r>
       <r>  -12.3216    1.0000 </r>
       <r>  -12.3172    1.0000 </r>
       <r>  -12.3128    1.0000 </r>
       <r>  -12.3122    1.0000 </r>
       <r>  -12.3054    1.0000 </r>
       <r>  -12.3046    1.0000 </r>
       <r>  -12.2954    1.0000 </r>
       <r>  -12.2946    1.0000 </r>
       <r>  -12.2892    1.0000 </r>
       <r>  -12.2881    1.0000 </r>
       <r>  -12.2876    1.0000 </r>
       <r>  -12.2836    1.0000 </r>
       <r>  -12.2775    1.0000 </r>
       <r>  -12.2759    1.0000 </r>
       <r>  -12.2697    1.0000 </r>
       <r>  -12.2683    1.0000 </r>
       <r>  -12.2670    1.0000 </r>
       <r>  -12.2600    1.0000 </r>
       <r>  -12.2554    1.0000 </r>
       <r>  -12.2540    1.0000 </r>
       <r>  -12.1922    1.0000 </r>
       <r>  -12.1915    1.0000 </r>
       <r>  -12.1909    1.0000 </r>
       <r>  -12.1834    1.0000 </r>
       <r>  -12.1829    1.0000 </r>
       <r>  -12.1807    1.0000 </r>
       <r>  -12.1588    1.0000 </r>
       <r>  -12.1584    1.0000 </r>
       <r>  -12.1543    1.0000 </r>
       <r>  -12.1541    1.0000 </r>
       <r>  -12.1518    1.0000 </r>
       <r>  -12.1515    1.0000 </r>
       <r>  -12.1438    1.0000 </r>
       <r>  -12.1435    1.0000 </r>
       <r>  -12.1426    1.0000 </r>
       <r>  -12.1415    1.0000 </r>
       <r>  -12.1391    1.0000 </r>
       <r>  -12.1389    1.0000 </r>
       <r>  -12.0616    1.0000 </r>
       <r>  -12.0616    1.0000 </r>
       <r>  -12.0615    1.0000 </r>
       <r>  -11.9601    1.0000 </r>
       <r>  -11.9601    1.0000 </r>
       <r>  -11.5957    1.0000 </r>
       <r>  -11.5941    1.0000 </r>
       <r>  -11.5939    1.0000 </r>
       <r>  -11.5910    1.0000 </r>
       <r>  -11.4687    1.0000 </r>
       <r>  -11.4687    1.0000 </r>
       <r>   -8.1777    1.0000 </r>
       <r>   -7.2997    1.0000 </r>
       <r>   -7.2995    1.0000 </r>
       <r>   -6.5944    1.0000 </r>
       <r>   -6.5943    1.0000 </r>
       <r>   -6.5340    1.0000 </r>
       <r>   -6.5260    1.0000 </r>
       <r>   -6.5255    1.0000 </r>
       <r>   -6.5247    1.0000 </r>
       <r>   -6.5208    1.0000 </r>
       <r>   -6.5193    1.0000 </r>
       <r>   -6.5025    1.0000 </r>
       <r>   -6.4698    1.0000 </r>
       <r>   -6.3900    1.0000 </r>
       <r>   -6.3899    1.0000 </r>
       <r>   -6.3899    1.0000 </r>
       <r>   -6.3094    1.0000 </r>
       <r>   -6.3093    1.0000 </r>
       <r>   -6.0935    1.0000 </r>
       <r>   -6.0933    1.0000 </r>
       <r>   -6.0273    1.0000 </r>
       <r>   -6.0269    1.0000 </r>
       <r>   -6.0045    1.0000 </r>
       <r>   -5.9863    1.0000 </r>
       <r>   -5.9061    1.0000 </r>
       <r>   -5.9060    1.0000 </r>
       <r>   -5.7230    1.0000 </r>
       <r>   -5.7171    1.0000 </r>
       <r>   -5.7137    1.0000 </r>
       <r>   -5.7123    1.0000 </r>
       <r>   -5.7111    1.0000 </r>
       <r>   -5.7082    1.0000 </r>
       <r>   -5.7037    1.0000 </r>
       <r>   -5.7021    1.0000 </r>
       <r>   -5.6935    1.0000 </r>
       <r>   -5.6886    1.0000 </r>
       <r>   -5.6870    1.0000 </r>
       <r>   -5.6849    1.0000 </r>
       <r>   -5.6826    1.0000 </r>
       <r>   -5.6807    1.0000 </r>
       <r>   -5.6781    1.0000 </r>
       <r>   -5.6755    1.0000 </r>
       <r>   -5.6712    1.0000 </r>
       <r>   -5.6708    1.0000 </r>
       <r>   -5.6687    1.0000 </r>
       <r>   -5.6685    1.0000 </r>
       <r>   -5.6646    1.0000 </r>
       <r>   -5.6641    1.0000 </r>
       <r>   -5.6610    1.0000 </r>
       <r>   -5.6601    1.0000 </r>
       <r>   -5.5806    1.0000 </r>
       <r>   -5.5798    1.0000 </r>
       <r>   -5.5593    1.0000 </r>
       <r>   -5.5588    1.0000 </r>
       <r>   -5.5586    1.0000 </r>
       <r>   -5.5579    1.0000 </r>
       <r>   -5.5546    1.0000 </r>
       <r>   -5.5540    1.0000 </r>
       <r>   -5.5539    1.0000 </r>
       <r>   -5.5535    1.0000 </r>
       <r>   -5.5504    1.0000 </r>
       <r>   -5.5504    1.0000 </r>
       <r>   -5.5469    1.0000 </r>
       <r>   -5.5469    1.0000 </r>
       <r>   -5.5468    1.0000 </r>
       <r>   -5.5464    1.0000 </r>
       <r>   -5.4183    1.0000 </r>
       <r>   -5.4182    1.0000 </r>
       <r>   -5.3588    1.0000 </r>
       <r>   -5.2305    1.0000 </r>
       <r>   -5.1382    1.0000 </r>
       <r>   -5.1381    1.0000 </r>
       <r>   -4.9856    1.0000 </r>
       <r>   -4.9187    1.0000 </r>
       <r>   -4.9186    1.0000 </r>
       <r>   -4.8706    1.0000 </r>
       <r>   -4.7459    1.0000 </r>
       <r>   -4.7458    1.0000 </r>
       <r>   -4.7455    1.0000 </r>
       <r>   -4.7454    1.0000 </r>
       <r>   -4.6191    1.0000 </r>
       <r>   -4.6191    1.0000 </r>
       <r>   -4.4809    1.0000 </r>
       <r>   -4.4795    1.0000 </r>
       <r>   -4.4784    1.0000 </r>
       <r>   -4.4764    1.0000 </r>
       <r>   -4.4759    1.0000 </r>
       <r>   -4.4752    1.0000 </r>
       <r>   -4.4722    1.0000 </r>
       <r>   -4.4713    1.0000 </r>
       <r>   -4.4704    1.0000 </r>
       <r>   -4.4689    1.0000 </r>
       <r>   -4.4672    1.0000 </r>
       <r>   -4.4664    1.0000 </r>
       <r>   -4.3392    1.0000 </r>
       <r>   -4.3390    1.0000 </r>
       <r>   -4.3389    1.0000 </r>
       <r>   -4.3389    1.0000 </r>
       <r>   -4.3388    1.0000 </r>
       <r>   -4.3386    1.0000 </r>
       <r>   -4.0751    1.0000 </r>
       <r>   -4.0364    1.0000 </r>
       <r>   -3.9239    1.0000 </r>
       <r>   -3.9237    1.0000 </r>
       <r>   -3.6231    1.0000 </r>
       <r>   -3.6230    1.0000 </r>
       <r>   -3.5975    1.0000 </r>
       <r>   -3.5859    1.0000 </r>
       <r>   -3.5590    1.0000 </r>
       <r>   -3.5155    1.0000 </r>
       <r>   -3.5153    1.0000 </r>
       <r>   -3.4228    1.0000 </r>
       <r>   -3.3537    1.0000 </r>
       <r>   -3.3180    1.0000 </r>
       <r>   -3.3180    1.0000 </r>
       <r>   -3.3031    1.0000 </r>
       <r>   -3.3029    1.0000 </r>
       <r>   -3.2197    1.0000 </r>
       <r>   -3.2169    1.0000 </r>
       <r>   -3.2167    1.0000 </r>
       <r>   -3.1816    1.0000 </r>
       <r>   -3.1725    1.0000 </r>
       <r>   -3.1724    1.0000 </r>
       <r>   -3.1027    1.0000 </r>
       <r>   -3.0991    1.0000 </r>
       <r>   -3.0976    1.0000 </r>
       <r>   -3.0970    1.0000 </r>
       <r>   -3.0969    1.0000 </r>
       <r>   -3.0967    1.0000 </r>
       <r>   -3.0961    1.0000 </r>
       <r>   -3.0960    1.0000 </r>
       <r>   -3.0956    1.0000 </r>
       <r>   -3.0953    1.0000 </r>
       <r>   -3.0937    1.0000 </r>
       <r>   -3.0905    1.0000 </r>
       <r>   -3.0181    1.0000 </r>
       <r>   -3.0168    1.0000 </r>
       <r>   -2.9690    1.0000 </r>
       <r>   -2.9689    1.0000 </r>
       <r>   -2.9689    1.0000 </r>
       <r>   -2.9687    1.0000 </r>
       <r>   -2.9687    1.0000 </r>
       <r>   -2.9686    1.0000 </r>
       <r>   -2.9651    1.0000 </r>
       <r>   -2.9302    1.0000 </r>
       <r>   -2.9271    1.0000 </r>
       <r>   -2.9236    1.0000 </r>
       <r>   -2.9225    1.0000 </r>
       <r>   -2.9216    1.0000 </r>
       <r>   -2.9202    1.0000 </r>
       <r>   -2.9152    1.0000 </r>
       <r>   -2.9142    1.0000 </r>
       <r>   -2.9085    1.0000 </r>
       <r>   -2.9040    1.0000 </r>
       <r>   -2.9013    1.0000 </r>
       <r>   -2.8952    1.0000 </r>
       <r>   -2.8936    1.0000 </r>
       <r>   -2.8914    1.0000 </r>
       <r>   -2.8876    1.0000 </r>
       <r>   -2.8850    1.0000 </r>
       <r>   -2.8812    1.0000 </r>
       <r>   -2.8808    1.0000 </r>
       <r>   -2.8791    1.0000 </r>
       <r>   -2.8787    1.0000 </r>
       <r>   -2.8747    1.0000 </r>
       <r>   -2.8737    1.0000 </r>
       <r>   -2.8718    1.0000 </r>
       <r>   -2.8704    1.0000 </r>
       <r>   -2.8592    1.0000 </r>
       <r>   -2.8300    1.0000 </r>
       <r>   -2.8294    1.0000 </r>
       <r>   -2.8030    1.0000 </r>
       <r>   -2.8014    1.0000 </r>
       <r>   -2.7921    1.0000 </r>
       <r>   -2.7725    1.0000 </r>
       <r>   -2.7724    1.0000 </r>
       <r>   -2.7722    1.0000 </r>
       <r>   -2.7711    1.0000 </r>
       <r>   -2.7677    1.0000 </r>
       <r>   -2.7676    1.0000 </r>
       <r>   -2.7624    1.0000 </r>
       <r>   -2.7624    1.0000 </r>
       <r>   -2.7594    1.0000 </r>
       <r>   -2.7590    1.0000 </r>
       <r>   -2.7583    1.0000 </r>
       <r>   -2.7583    1.0000 </r>
       <r>   -2.3807    1.0000 </r>
       <r>   -2.2337    1.0000 </r>
       <r>   -2.2337    1.0000 </r>
       <r>   -2.2126    1.0000 </r>
       <r>   -2.1186    1.0000 </r>
       <r>   -2.0968    1.0000 </r>
       <r>   -2.0897    1.0000 </r>
       <r>   -2.0896    1.0000 </r>
       <r>   -1.9798    1.0000 </r>
       <r>   -1.9478    1.0000 </r>
       <r>   -1.9470    1.0000 </r>
       <r>   -1.9459    1.0000 </r>
       <r>   -1.9458    1.0000 </r>
       <r>   -1.8931    1.0000 </r>
       <r>   -1.7161    1.0000 </r>
       <r>   -1.7145    1.0000 </r>
       <r>   -1.7136    1.0000 </r>
       <r>   -1.7108    1.0000 </r>
       <r>   -1.7098    1.0000 </r>
       <r>   -1.7084    1.0000 </r>
       <r>   -1.6816    1.0000 </r>
       <r>   -1.6810    1.0000 </r>
       <r>   -1.6703    1.0000 </r>
       <r>   -1.6607    1.0000 </r>
       <r>   -1.6357    1.0000 </r>
       <r>   -1.6349    1.0000 </r>
       <r>   -1.5933    1.0000 </r>
       <r>   -1.5921    1.0000 </r>
       <r>   -1.5807    1.0000 </r>
       <r>   -1.5806    1.0000 </r>
       <r>   -1.5806    1.0000 </r>
       <r>   -1.5722    1.0000 </r>
       <r>   -1.5721    1.0000 </r>
       <r>   -1.5683    1.0000 </r>
       <r>   -1.5475    1.0000 </r>
       <r>   -1.5217    1.0000 </r>
       <r>   -1.5216    1.0000 </r>
       <r>   -1.5049    1.0000 </r>
       <r>   -1.5026    1.0000 </r>
       <r>   -1.5022    1.0000 </r>
       <r>   -1.5017    1.0000 </r>
       <r>   -1.4991    1.0000 </r>
       <r>   -1.4987    1.0000 </r>
       <r>   -1.4976    1.0000 </r>
       <r>   -1.4919    1.0000 </r>
       <r>   -1.4905    1.0000 </r>
       <r>   -1.4903    1.0000 </r>
       <r>   -1.4898    1.0000 </r>
       <r>   -1.4888    1.0000 </r>
       <r>   -1.4883    1.0000 </r>
       <r>   -1.4867    1.0000 </r>
       <r>   -1.4843    1.0000 </r>
       <r>   -1.4809    1.0000 </r>
       <r>   -1.4452    1.0000 </r>
       <r>   -1.4438    1.0000 </r>
       <r>   -1.4309    1.0000 </r>
       <r>   -1.4303    1.0000 </r>
       <r>   -1.4295    1.0000 </r>
       <r>   -1.3876    1.0000 </r>
       <r>   -1.3788    1.0000 </r>
       <r>   -1.3780    1.0000 </r>
       <r>   -1.3741    1.0000 </r>
       <r>   -1.3712    1.0000 </r>
       <r>   -1.3709    1.0000 </r>
       <r>   -1.3628    1.0000 </r>
       <r>   -1.3627    1.0000 </r>
       <r>   -1.3617    1.0000 </r>
       <r>   -1.3595    1.0000 </r>
       <r>   -1.3594    1.0000 </r>
       <r>   -1.3593    1.0000 </r>
       <r>   -1.2300    1.0000 </r>
       <r>   -1.2217    1.0000 </r>
       <r>   -1.2213    1.0000 </r>
       <r>   -1.1558    1.0000 </r>
       <r>   -1.1524    1.0000 </r>
       <r>   -1.1514    1.0000 </r>
       <r>   -1.1504    1.0000 </r>
       <r>   -1.1500    1.0000 </r>
       <r>   -1.1493    1.0000 </r>
       <r>   -1.1482    1.0000 </r>
       <r>   -1.1473    1.0000 </r>
       <r>   -1.1470    1.0000 </r>
       <r>   -1.1459    1.0000 </r>
       <r>   -1.1449    1.0000 </r>
       <r>   -1.1412    1.0000 </r>
       <r>   -1.1230    1.0000 </r>
       <r>   -1.1211    1.0000 </r>
       <r>   -1.1204    1.0000 </r>
       <r>   -1.0677    1.0000 </r>
       <r>   -1.0194    1.0000 </r>
       <r>   -1.0194    1.0000 </r>
       <r>   -1.0193    1.0000 </r>
       <r>   -1.0191    1.0000 </r>
       <r>   -1.0189    1.0000 </r>
       <r>   -1.0189    1.0000 </r>
       <r>   -1.0028    1.0000 </r>
       <r>   -1.0018    1.0000 </r>
       <r>   -0.9884    1.0000 </r>
       <r>   -0.8636    1.0000 </r>
       <r>   -0.8609    1.0000 </r>
       <r>   -0.8594    1.0000 </r>
       <r>   -0.8524    1.0000 </r>
       <r>   -0.8511    1.0000 </r>
       <r>   -0.8493    1.0000 </r>
       <r>   -0.8435    1.0000 </r>
       <r>   -0.8411    1.0000 </r>
       <r>   -0.8346    1.0000 </r>
       <r>   -0.8340    1.0000 </r>
       <r>   -0.8312    1.0000 </r>
       <r>   -0.8250    1.0000 </r>
       <r>   -0.7511    1.0000 </r>
       <r>   -0.7468    1.0000 </r>
       <r>   -0.7451    1.0000 </r>
       <r>   -0.7438    1.0000 </r>
       <r>   -0.7424    1.0000 </r>
       <r>   -0.7415    1.0000 </r>
       <r>   -0.7229    1.0000 </r>
       <r>   -0.7212    1.0000 </r>
       <r>   -0.7210    1.0000 </r>
       <r>   -0.7155    1.0000 </r>
       <r>   -0.7153    1.0000 </r>
       <r>   -0.7125    1.0000 </r>
       <r>   -0.4373    1.0000 </r>
       <r>   -0.4351    1.0000 </r>
       <r>   -0.4001    1.0000 </r>
       <r>   -0.3386    1.0000 </r>
       <r>   -0.3352    1.0000 </r>
       <r>   -0.3343    1.0000 </r>
       <r>   -0.3337    1.0000 </r>
       <r>   -0.2554    1.0000 </r>
       <r>   -0.2554    1.0000 </r>
       <r>   -0.1342    1.0000 </r>
       <r>   -0.1272    1.0000 </r>
       <r>   -0.1260    1.0000 </r>
       <r>   -0.1222    1.0000 </r>
       <r>   -0.1220    1.0000 </r>
       <r>   -0.1195    1.0000 </r>
       <r>   -0.0868    1.0000 </r>
       <r>   -0.0867    1.0000 </r>
       <r>   -0.0383    1.0000 </r>
       <r>    0.0433    1.0000 </r>
       <r>    0.0445    1.0000 </r>
       <r>    0.1767    1.0000 </r>
       <r>    0.2123    1.0000 </r>
       <r>    0.2149    1.0000 </r>
       <r>    0.2169    1.0000 </r>
       <r>    0.2184    1.0000 </r>
       <r>    0.2194    1.0000 </r>
       <r>    0.2221    1.0000 </r>
       <r>    0.2259    1.0000 </r>
       <r>    0.2276    1.0000 </r>
       <r>    0.2328    1.0000 </r>
       <r>    0.2336    1.0000 </r>
       <r>    0.2373    1.0000 </r>
       <r>    0.2383    1.0000 </r>
       <r>    0.2415    1.0000 </r>
       <r>    0.2454    1.0000 </r>
       <r>    0.2491    1.0000 </r>
       <r>    0.3536    1.0000 </r>
       <r>    0.3551    1.0000 </r>
       <r>    0.3553    1.0000 </r>
       <r>    0.3585    1.0000 </r>
       <r>    0.3597    1.0000 </r>
       <r>    0.3605    1.0000 </r>
       <r>    0.3606    1.0000 </r>
       <r>    0.3632    1.0000 </r>
       <r>    0.4299    1.0000 </r>
       <r>    0.4359    1.0000 </r>
       <r>    0.4376    1.0000 </r>
       <r>    0.4380    1.0000 </r>
       <r>    0.4395    1.0000 </r>
       <r>    0.4408    1.0000 </r>
       <r>    0.5056    1.0000 </r>
       <r>    0.5847    1.0000 </r>
       <r>    0.6414    1.0000 </r>
       <r>    0.6422    1.0000 </r>
       <r>    0.7200    1.0000 </r>
       <r>    0.7208    1.0000 </r>
       <r>    0.7449    1.0000 </r>
       <r>    0.7450    1.0000 </r>
       <r>    0.7506    1.0000 </r>
       <r>    0.7780    1.0000 </r>
       <r>    0.7836    1.0000 </r>
       <r>    0.7841    1.0000 </r>
       <r>    0.9055    1.0000 </r>
       <r>    0.9217    1.0000 </r>
       <r>    0.9251    1.0000 </r>
       <r>    0.9262    1.0000 </r>
       <r>    0.9416    1.0000 </r>
       <r>    0.9421    1.0000 </r>
       <r>    0.9471    1.0000 </r>
       <r>    0.9475    1.0000 </r>
       <r>    0.9520    1.0000 </r>
       <r>    0.9525    1.0000 </r>
       <r>    0.9539    1.0000 </r>
       <r>    0.9635    1.0000 </r>
       <r>    0.9645    1.0000 </r>
       <r>    0.9652    1.0000 </r>
       <r>    0.9674    1.0000 </r>
       <r>    1.1311    1.0000 </r>
       <r>    1.1339    1.0000 </r>
       <r>    1.1343    1.0000 </r>
       <r>    1.1377    1.0000 </r>
       <r>    1.1819    1.0000 </r>
       <r>    1.1825    1.0000 </r>
       <r>    1.1829    1.0000 </r>
       <r>    1.2614    1.0000 </r>
       <r>    1.2614    1.0000 </r>
       <r>    1.4222    1.0000 </r>
       <r>    1.4230    1.0000 </r>
       <r>    1.5004    1.0000 </r>
       <r>    1.5436    1.0000 </r>
       <r>    1.5857    1.0000 </r>
       <r>    1.5875    1.0000 </r>
       <r>    1.6182    1.0000 </r>
       <r>    1.6196    1.0000 </r>
       <r>    1.6495    1.0000 </r>
       <r>    1.6671    1.0000 </r>
       <r>    1.6677    1.0000 </r>
       <r>    1.6689    1.0000 </r>
       <r>    1.7247    1.0000 </r>
       <r>    1.7252    1.0000 </r>
       <r>    1.7278    1.0000 </r>
       <r>    1.7679    1.0000 </r>
       <r>    1.7859    1.0000 </r>
       <r>    1.7895    1.0000 </r>
       <r>    1.7904    1.0000 </r>
       <r>    1.8042    1.0000 </r>
       <r>    1.8048    1.0000 </r>
       <r>    1.8135    1.0000 </r>
       <r>    1.8145    1.0000 </r>
       <r>    1.8237    1.0000 </r>
       <r>    1.8246    1.0000 </r>
       <r>    1.8256    1.0000 </r>
       <r>    1.8276    1.0000 </r>
       <r>    1.8942    1.0000 </r>
       <r>    1.8945    1.0000 </r>
       <r>    1.8948    1.0000 </r>
       <r>    2.0496    1.0000 </r>
       <r>    2.0497    1.0000 </r>
       <r>    2.3688    1.0000 </r>
       <r>    2.3733    1.0000 </r>
       <r>    2.3770    1.0000 </r>
       <r>    2.3793    1.0000 </r>
       <r>    2.5007    1.0000 </r>
       <r>    2.5007    1.0000 </r>
       <r>    5.5445    0.0000 </r>
       <r>    6.5229    0.0000 </r>
       <r>    6.5234    0.0000 </r>
       <r>    6.7444    0.0000 </r>
       <r>    6.7664    0.0000 </r>
       <r>    6.7823    0.0000 </r>
       <r>    6.8615    0.0000 </r>
       <r>    6.8624    0.0000 </r>
       <r>    6.8684    0.0000 </r>
       <r>    7.1397    0.0000 </r>
       <r>    7.1844    0.0000 </r>
       <r>    7.1845    0.0000 </r>
       <r>    7.1892    0.0000 </r>
       <r>    7.1893    0.0000 </r>
       <r>    7.2988    0.0000 </r>
       <r>    7.2992    0.0000 </r>
       <r>    7.3168    0.0000 </r>
       <r>    7.3170    0.0000 </r>
       <r>    7.3685    0.0000 </r>
       <r>    7.4373    0.0000 </r>
       <r>    7.4376    0.0000 </r>
       <r>    7.5249    0.0000 </r>
       <r>    7.5259    0.0000 </r>
       <r>    7.5774    0.0000 </r>
       <r>    7.5852    0.0000 </r>
       <r>    7.5854    0.0000 </r>
       <r>    7.5998    0.0000 </r>
       <r>    7.6320    0.0000 </r>
       <r>    7.6337    0.0000 </r>
       <r>    7.6393    0.0000 </r>
       <r>    7.6945    0.0000 </r>
       <r>    7.6961    0.0000 </r>
       <r>    7.7160    0.0000 </r>
       <r>    7.7232    0.0000 </r>
       <r>    7.7260    0.0000 </r>
       <r>    7.7279    0.0000 </r>
       <r>    7.7433    0.0000 </r>
       <r>    7.7440    0.0000 </r>
       <r>    7.7501    0.0000 </r>
       <r>    7.7544    0.0000 </r>
       <r>    7.7574    0.0000 </r>
       <r>    7.7575    0.0000 </r>
       <r>    7.8180    0.0000 </r>
       <r>    7.8184    0.0000 </r>
       <r>    7.8198    0.0000 </r>
       <r>    8.0310    0.0000 </r>
       <r>    8.0908    0.0000 </r>
       <r>    8.0921    0.0000 </r>
       <r>    8.1033    0.0000 </r>
       <r>    8.1537    0.0000 </r>
       <r>    8.1550    0.0000 </r>
       <r>    8.1877    0.0000 </r>
       <r>    8.1895    0.0000 </r>
       <r>    8.2172    0.0000 </r>
       <r>    8.2246    0.0000 </r>
       <r>    8.2247    0.0000 </r>
       <r>    8.2298    0.0000 </r>
       <r>    8.3205    0.0000 </r>
       <r>    8.3213    0.0000 </r>
       <r>    8.3237    0.0000 </r>
       <r>    8.3314    0.0000 </r>
       <r>    8.3404    0.0000 </r>
       <r>    8.3433    0.0000 </r>
       <r>    8.3444    0.0000 </r>
       <r>    8.3485    0.0000 </r>
       <r>    8.3492    0.0000 </r>
       <r>    8.3638    0.0000 </r>
       <r>    8.3639    0.0000 </r>
       <r>    8.3640    0.0000 </r>
       <r>    8.3658    0.0000 </r>
       <r>    8.3692    0.0000 </r>
       <r>    8.8676    0.0000 </r>
       <r>    8.9240    0.0000 </r>
       <r>    8.9242    0.0000 </r>
       <r>    9.0874    0.0000 </r>
       <r>    9.0886    0.0000 </r>
       <r>    9.1078    0.0000 </r>
       <r>    9.1080    0.0000 </r>
       <r>    9.1343    0.0000 </r>
       <r>    9.1432    0.0000 </r>
       <r>    9.1433    0.0000 </r>
       <r>    9.1694    0.0000 </r>
       <r>    9.1756    0.0000 </r>
       <r>    9.1998    0.0000 </r>
       <r>    9.2006    0.0000 </r>
       <r>    9.2272    0.0000 </r>
       <r>    9.2284    0.0000 </r>
       <r>    9.2412    0.0000 </r>
       <r>    9.2746    0.0000 </r>
       <r>    9.3182    0.0000 </r>
       <r>    9.3189    0.0000 </r>
       <r>    9.3901    0.0000 </r>
       <r>    9.3907    0.0000 </r>
       <r>    9.3917    0.0000 </r>
       <r>    9.4638    0.0000 </r>
       <r>    9.6119    0.0000 </r>
       <r>    9.6123    0.0000 </r>
       <r>    9.6853    0.0000 </r>
       <r>    9.7762    0.0000 </r>
       <r>    9.7765    0.0000 </r>
       <r>    9.7941    0.0000 </r>
       <r>    9.7948    0.0000 </r>
       <r>    9.8026    0.0000 </r>
       <r>    9.9520    0.0000 </r>
       <r>    9.9527    0.0000 </r>
       <r>    9.9528    0.0000 </r>
       <r>    9.9757    0.0000 </r>
       <r>    9.9802    0.0000 </r>
       <r>    9.9805    0.0000 </r>
       <r>   10.0850    0.0000 </r>
       <r>   10.1347    0.0000 </r>
       <r>   10.1352    0.0000 </r>
       <r>   10.1501    0.0000 </r>
       <r>   10.1502    0.0000 </r>
       <r>   10.1713    0.0000 </r>
       <r>   10.1857    0.0000 </r>
       <r>   10.1860    0.0000 </r>
       <r>   10.1930    0.0000 </r>
       <r>   10.2058    0.0000 </r>
       <r>   10.2065    0.0000 </r>
       <r>   10.2972    0.0000 </r>
       <r>   10.5556    0.0000 </r>
       <r>   10.6246    0.0000 </r>
       <r>   10.6253    0.0000 </r>
       <r>   10.6454    0.0000 </r>
       <r>   10.6455    0.0000 </r>
       <r>   10.6655    0.0000 </r>
       <r>   10.8077    0.0000 </r>
       <r>   10.8147    0.0000 </r>
       <r>   10.8151    0.0000 </r>
       <r>   10.8196    0.0000 </r>
       <r>   10.8202    0.0000 </r>
       <r>   10.8219    0.0000 </r>
       <r>   11.3045    0.0000 </r>
       <r>   11.3514    0.0000 </r>
       <r>   11.3727    0.0000 </r>
       <r>   11.4317    0.0000 </r>
       <r>   11.4830    0.0000 </r>
       <r>   11.4903    0.0000 </r>
       <r>   11.5015    0.0000 </r>
       <r>   11.5242    0.0000 </r>
       <r>   11.5672    0.0000 </r>
       <r>   11.5821    0.0000 </r>
       <r>   11.6480    0.0000 </r>
       <r>   11.7000    0.0000 </r>
       <r>   11.7168    0.0000 </r>
       <r>   11.7487    0.0000 </r>
       <r>   11.7682    0.0000 </r>
       <r>   11.8093    0.0000 </r>
       <r>   11.8253    0.0000 </r>
       <r>   11.8403    0.0000 </r>
       <r>   11.8808    0.0000 </r>
      </set>
      <set comment="kpoint 6">
       <r>  -17.1673    1.0000 </r>
       <r>  -15.7437    1.0000 </r>
       <r>  -15.6894    1.0000 </r>
       <r>  -15.4113    1.0000 </r>
       <r>  -15.2836    1.0000 </r>
       <r>  -15.2756    1.0000 </r>
       <r>  -15.2421    1.0000 </r>
       <r>  -15.2056    1.0000 </r>
       <r>  -15.1418    1.0000 </r>
       <r>  -15.0834    1.0000 </r>
       <r>  -15.0472    1.0000 </r>
       <r>  -15.0345    1.0000 </r>
       <r>  -15.0150    1.0000 </r>
       <r>  -14.9851    1.0000 </r>
       <r>  -14.9824    1.0000 </r>
       <r>  -14.9058    1.0000 </r>
       <r>  -14.8988    1.0000 </r>
       <r>  -14.8525    1.0000 </r>
       <r>  -14.7581    1.0000 </r>
       <r>  -14.7570    1.0000 </r>
       <r>  -14.6142    1.0000 </r>
       <r>  -14.5656    1.0000 </r>
       <r>  -14.5387    1.0000 </r>
       <r>  -14.4669    1.0000 </r>
       <r>  -14.4632    1.0000 </r>
       <r>  -14.4596    1.0000 </r>
       <r>  -14.4585    1.0000 </r>
       <r>  -14.4222    1.0000 </r>
       <r>  -14.4028    1.0000 </r>
       <r>  -14.3958    1.0000 </r>
       <r>  -14.3850    1.0000 </r>
       <r>  -14.3349    1.0000 </r>
       <r>  -14.2475    1.0000 </r>
       <r>  -14.2458    1.0000 </r>
       <r>  -14.2434    1.0000 </r>
       <r>  -14.2427    1.0000 </r>
       <r>  -14.2067    1.0000 </r>
       <r>  -14.2063    1.0000 </r>
       <r>  -14.1677    1.0000 </r>
       <r>  -14.1489    1.0000 </r>
       <r>  -14.1059    1.0000 </r>
       <r>  -14.0340    1.0000 </r>
       <r>  -13.9976    1.0000 </r>
       <r>  -13.9973    1.0000 </r>
       <r>  -13.9395    1.0000 </r>
       <r>  -13.7794    1.0000 </r>
       <r>  -13.7430    1.0000 </r>
       <r>  -13.7386    1.0000 </r>
       <r>  -13.7117    1.0000 </r>
       <r>  -13.7114    1.0000 </r>
       <r>  -13.7025    1.0000 </r>
       <r>  -13.6800    1.0000 </r>
       <r>  -13.6572    1.0000 </r>
       <r>  -13.6551    1.0000 </r>
       <r>  -13.5968    1.0000 </r>
       <r>  -13.5331    1.0000 </r>
       <r>  -13.5322    1.0000 </r>
       <r>  -13.5185    1.0000 </r>
       <r>  -13.5184    1.0000 </r>
       <r>  -13.5023    1.0000 </r>
       <r>  -13.3573    1.0000 </r>
       <r>  -13.3335    1.0000 </r>
       <r>  -13.2536    1.0000 </r>
       <r>  -13.2215    1.0000 </r>
       <r>  -13.1075    1.0000 </r>
       <r>  -13.0690    1.0000 </r>
       <r>  -13.0644    1.0000 </r>
       <r>  -13.0622    1.0000 </r>
       <r>  -13.0605    1.0000 </r>
       <r>  -13.0331    1.0000 </r>
       <r>  -13.0270    1.0000 </r>
       <r>  -13.0234    1.0000 </r>
       <r>  -13.0164    1.0000 </r>
       <r>  -12.9704    1.0000 </r>
       <r>  -12.9230    1.0000 </r>
       <r>  -12.8948    1.0000 </r>
       <r>  -12.8919    1.0000 </r>
       <r>  -12.8890    1.0000 </r>
       <r>  -12.8887    1.0000 </r>
       <r>  -12.8789    1.0000 </r>
       <r>  -12.8778    1.0000 </r>
       <r>  -12.8768    1.0000 </r>
       <r>  -12.8759    1.0000 </r>
       <r>  -12.8655    1.0000 </r>
       <r>  -12.8607    1.0000 </r>
       <r>  -12.8558    1.0000 </r>
       <r>  -12.8499    1.0000 </r>
       <r>  -12.8488    1.0000 </r>
       <r>  -12.7156    1.0000 </r>
       <r>  -12.7151    1.0000 </r>
       <r>  -12.7145    1.0000 </r>
       <r>  -12.7144    1.0000 </r>
       <r>  -12.6814    1.0000 </r>
       <r>  -12.6085    1.0000 </r>
       <r>  -12.5982    1.0000 </r>
       <r>  -12.5763    1.0000 </r>
       <r>  -12.5728    1.0000 </r>
       <r>  -12.5511    1.0000 </r>
       <r>  -12.5329    1.0000 </r>
       <r>  -12.4982    1.0000 </r>
       <r>  -12.4352    1.0000 </r>
       <r>  -12.4292    1.0000 </r>
       <r>  -12.4228    1.0000 </r>
       <r>  -12.4215    1.0000 </r>
       <r>  -12.3417    1.0000 </r>
       <r>  -12.3383    1.0000 </r>
       <r>  -12.3212    1.0000 </r>
       <r>  -12.3171    1.0000 </r>
       <r>  -12.2462    1.0000 </r>
       <r>  -12.2446    1.0000 </r>
       <r>  -12.2366    1.0000 </r>
       <r>  -12.2321    1.0000 </r>
       <r>  -12.2190    1.0000 </r>
       <r>  -12.2180    1.0000 </r>
       <r>  -12.2081    1.0000 </r>
       <r>  -12.2053    1.0000 </r>
       <r>  -12.1764    1.0000 </r>
       <r>  -12.1763    1.0000 </r>
       <r>  -12.1694    1.0000 </r>
       <r>  -12.1692    1.0000 </r>
       <r>  -12.0958    1.0000 </r>
       <r>  -12.0957    1.0000 </r>
       <r>  -12.0878    1.0000 </r>
       <r>  -12.0872    1.0000 </r>
       <r>  -12.0871    1.0000 </r>
       <r>  -12.0840    1.0000 </r>
       <r>  -11.9518    1.0000 </r>
       <r>  -11.9489    1.0000 </r>
       <r>  -11.9459    1.0000 </r>
       <r>  -11.9435    1.0000 </r>
       <r>  -11.8162    1.0000 </r>
       <r>  -11.8155    1.0000 </r>
       <r>  -11.8086    1.0000 </r>
       <r>  -11.8061    1.0000 </r>
       <r>  -11.8048    1.0000 </r>
       <r>  -11.7980    1.0000 </r>
       <r>  -11.7849    1.0000 </r>
       <r>  -11.7847    1.0000 </r>
       <r>  -11.7795    1.0000 </r>
       <r>  -11.7792    1.0000 </r>
       <r>  -11.6683    1.0000 </r>
       <r>  -11.6683    1.0000 </r>
       <r>  -11.6613    1.0000 </r>
       <r>  -11.6612    1.0000 </r>
       <r>   -8.1634    1.0000 </r>
       <r>   -7.2506    1.0000 </r>
       <r>   -7.2361    1.0000 </r>
       <r>   -6.7834    1.0000 </r>
       <r>   -6.6998    1.0000 </r>
       <r>   -6.6789    1.0000 </r>
       <r>   -6.4259    1.0000 </r>
       <r>   -6.4019    1.0000 </r>
       <r>   -6.3171    1.0000 </r>
       <r>   -6.3093    1.0000 </r>
       <r>   -6.3061    1.0000 </r>
       <r>   -6.3042    1.0000 </r>
       <r>   -6.2982    1.0000 </r>
       <r>   -6.2832    1.0000 </r>
       <r>   -6.2755    1.0000 </r>
       <r>   -6.2746    1.0000 </r>
       <r>   -6.2686    1.0000 </r>
       <r>   -6.2683    1.0000 </r>
       <r>   -6.2170    1.0000 </r>
       <r>   -6.2129    1.0000 </r>
       <r>   -6.2116    1.0000 </r>
       <r>   -6.2067    1.0000 </r>
       <r>   -6.1950    1.0000 </r>
       <r>   -6.1916    1.0000 </r>
       <r>   -6.1589    1.0000 </r>
       <r>   -6.1587    1.0000 </r>
       <r>   -6.1492    1.0000 </r>
       <r>   -6.1491    1.0000 </r>
       <r>   -6.0727    1.0000 </r>
       <r>   -6.0712    1.0000 </r>
       <r>   -5.9346    1.0000 </r>
       <r>   -5.9272    1.0000 </r>
       <r>   -5.9108    1.0000 </r>
       <r>   -5.9034    1.0000 </r>
       <r>   -5.8367    1.0000 </r>
       <r>   -5.7895    1.0000 </r>
       <r>   -5.7819    1.0000 </r>
       <r>   -5.7694    1.0000 </r>
       <r>   -5.7685    1.0000 </r>
       <r>   -5.7655    1.0000 </r>
       <r>   -5.7617    1.0000 </r>
       <r>   -5.7589    1.0000 </r>
       <r>   -5.7585    1.0000 </r>
       <r>   -5.7573    1.0000 </r>
       <r>   -5.7558    1.0000 </r>
       <r>   -5.7503    1.0000 </r>
       <r>   -5.7346    1.0000 </r>
       <r>   -5.6802    1.0000 </r>
       <r>   -5.6516    1.0000 </r>
       <r>   -5.6390    1.0000 </r>
       <r>   -5.6232    1.0000 </r>
       <r>   -5.6231    1.0000 </r>
       <r>   -5.6200    1.0000 </r>
       <r>   -5.6199    1.0000 </r>
       <r>   -5.2317    1.0000 </r>
       <r>   -5.2269    1.0000 </r>
       <r>   -5.2254    1.0000 </r>
       <r>   -5.2244    1.0000 </r>
       <r>   -5.2239    1.0000 </r>
       <r>   -5.2197    1.0000 </r>
       <r>   -5.2190    1.0000 </r>
       <r>   -5.2184    1.0000 </r>
       <r>   -5.2181    1.0000 </r>
       <r>   -5.2172    1.0000 </r>
       <r>   -5.2168    1.0000 </r>
       <r>   -5.2131    1.0000 </r>
       <r>   -5.1064    1.0000 </r>
       <r>   -5.0953    1.0000 </r>
       <r>   -5.0908    1.0000 </r>
       <r>   -5.0907    1.0000 </r>
       <r>   -5.0878    1.0000 </r>
       <r>   -5.0878    1.0000 </r>
       <r>   -5.0875    1.0000 </r>
       <r>   -5.0874    1.0000 </r>
       <r>   -5.0084    1.0000 </r>
       <r>   -4.9189    1.0000 </r>
       <r>   -4.8268    1.0000 </r>
       <r>   -4.5974    1.0000 </r>
       <r>   -4.5431    1.0000 </r>
       <r>   -4.5347    1.0000 </r>
       <r>   -4.4769    1.0000 </r>
       <r>   -4.4733    1.0000 </r>
       <r>   -4.4727    1.0000 </r>
       <r>   -4.4706    1.0000 </r>
       <r>   -4.4698    1.0000 </r>
       <r>   -4.4693    1.0000 </r>
       <r>   -4.4673    1.0000 </r>
       <r>   -4.4658    1.0000 </r>
       <r>   -4.3414    1.0000 </r>
       <r>   -4.3411    1.0000 </r>
       <r>   -4.3408    1.0000 </r>
       <r>   -4.3407    1.0000 </r>
       <r>   -4.3118    1.0000 </r>
       <r>   -4.1905    1.0000 </r>
       <r>   -4.0920    1.0000 </r>
       <r>   -4.0883    1.0000 </r>
       <r>   -4.0871    1.0000 </r>
       <r>   -4.0841    1.0000 </r>
       <r>   -4.0830    1.0000 </r>
       <r>   -4.0746    1.0000 </r>
       <r>   -4.0743    1.0000 </r>
       <r>   -4.0712    1.0000 </r>
       <r>   -4.0702    1.0000 </r>
       <r>   -4.0371    1.0000 </r>
       <r>   -4.0247    1.0000 </r>
       <r>   -3.9501    1.0000 </r>
       <r>   -3.9501    1.0000 </r>
       <r>   -3.9467    1.0000 </r>
       <r>   -3.9466    1.0000 </r>
       <r>   -3.9071    1.0000 </r>
       <r>   -3.8629    1.0000 </r>
       <r>   -3.7744    1.0000 </r>
       <r>   -3.6236    1.0000 </r>
       <r>   -3.6199    1.0000 </r>
       <r>   -3.6160    1.0000 </r>
       <r>   -3.6127    1.0000 </r>
       <r>   -3.6045    1.0000 </r>
       <r>   -3.6035    1.0000 </r>
       <r>   -3.5983    1.0000 </r>
       <r>   -3.5978    1.0000 </r>
       <r>   -3.5946    1.0000 </r>
       <r>   -3.4796    1.0000 </r>
       <r>   -3.4796    1.0000 </r>
       <r>   -3.4742    1.0000 </r>
       <r>   -3.4741    1.0000 </r>
       <r>   -3.4687    1.0000 </r>
       <r>   -3.4676    1.0000 </r>
       <r>   -3.4671    1.0000 </r>
       <r>   -3.4653    1.0000 </r>
       <r>   -3.4648    1.0000 </r>
       <r>   -3.3897    1.0000 </r>
       <r>   -3.3574    1.0000 </r>
       <r>   -3.3423    1.0000 </r>
       <r>   -3.3383    1.0000 </r>
       <r>   -3.3383    1.0000 </r>
       <r>   -3.3147    1.0000 </r>
       <r>   -3.3055    1.0000 </r>
       <r>   -3.1465    1.0000 </r>
       <r>   -3.0898    1.0000 </r>
       <r>   -3.0777    1.0000 </r>
       <r>   -3.0733    1.0000 </r>
       <r>   -3.0715    1.0000 </r>
       <r>   -3.0656    1.0000 </r>
       <r>   -3.0028    1.0000 </r>
       <r>   -2.9989    1.0000 </r>
       <r>   -2.9866    1.0000 </r>
       <r>   -2.9384    1.0000 </r>
       <r>   -2.9376    1.0000 </r>
       <r>   -2.8458    1.0000 </r>
       <r>   -2.7639    1.0000 </r>
       <r>   -2.7606    1.0000 </r>
       <r>   -2.7516    1.0000 </r>
       <r>   -2.7281    1.0000 </r>
       <r>   -2.7233    1.0000 </r>
       <r>   -2.6736    1.0000 </r>
       <r>   -2.6722    1.0000 </r>
       <r>   -2.6687    1.0000 </r>
       <r>   -2.6496    1.0000 </r>
       <r>   -2.6135    1.0000 </r>
       <r>   -2.5455    1.0000 </r>
       <r>   -2.5451    1.0000 </r>
       <r>   -2.5425    1.0000 </r>
       <r>   -2.5147    1.0000 </r>
       <r>   -2.4622    1.0000 </r>
       <r>   -2.3910    1.0000 </r>
       <r>   -2.3859    1.0000 </r>
       <r>   -2.3785    1.0000 </r>
       <r>   -2.3749    1.0000 </r>
       <r>   -2.3736    1.0000 </r>
       <r>   -2.3718    1.0000 </r>
       <r>   -2.3709    1.0000 </r>
       <r>   -2.3703    1.0000 </r>
       <r>   -2.3700    1.0000 </r>
       <r>   -2.3670    1.0000 </r>
       <r>   -2.3658    1.0000 </r>
       <r>   -2.3422    1.0000 </r>
       <r>   -2.2718    1.0000 </r>
       <r>   -2.2626    1.0000 </r>
       <r>   -2.2567    1.0000 </r>
       <r>   -2.2411    1.0000 </r>
       <r>   -2.2407    1.0000 </r>
       <r>   -2.2404    1.0000 </r>
       <r>   -2.2402    1.0000 </r>
       <r>   -2.2358    1.0000 </r>
       <r>   -2.2059    1.0000 </r>
       <r>   -2.1944    1.0000 </r>
       <r>   -2.1930    1.0000 </r>
       <r>   -2.1630    1.0000 </r>
       <r>   -2.1500    1.0000 </r>
       <r>   -2.1424    1.0000 </r>
       <r>   -2.1236    1.0000 </r>
       <r>   -2.0977    1.0000 </r>
       <r>   -2.0933    1.0000 </r>
       <r>   -2.0904    1.0000 </r>
       <r>   -2.0868    1.0000 </r>
       <r>   -2.0849    1.0000 </r>
       <r>   -2.0576    1.0000 </r>
       <r>   -2.0572    1.0000 </r>
       <r>   -2.0510    1.0000 </r>
       <r>   -2.0507    1.0000 </r>
       <r>   -2.0075    1.0000 </r>
       <r>   -1.9632    1.0000 </r>
       <r>   -1.9431    1.0000 </r>
       <r>   -1.9430    1.0000 </r>
       <r>   -1.9331    1.0000 </r>
       <r>   -1.9331    1.0000 </r>
       <r>   -1.9310    1.0000 </r>
       <r>   -1.9063    1.0000 </r>
       <r>   -1.9051    1.0000 </r>
       <r>   -1.8967    1.0000 </r>
       <r>   -1.8956    1.0000 </r>
       <r>   -1.8642    1.0000 </r>
       <r>   -1.8613    1.0000 </r>
       <r>   -1.8594    1.0000 </r>
       <r>   -1.8592    1.0000 </r>
       <r>   -1.8580    1.0000 </r>
       <r>   -1.8569    1.0000 </r>
       <r>   -1.8557    1.0000 </r>
       <r>   -1.8546    1.0000 </r>
       <r>   -1.8504    1.0000 </r>
       <r>   -1.7804    1.0000 </r>
       <r>   -1.7786    1.0000 </r>
       <r>   -1.7774    1.0000 </r>
       <r>   -1.7764    1.0000 </r>
       <r>   -1.7746    1.0000 </r>
       <r>   -1.7739    1.0000 </r>
       <r>   -1.7720    1.0000 </r>
       <r>   -1.7692    1.0000 </r>
       <r>   -1.7443    1.0000 </r>
       <r>   -1.7430    1.0000 </r>
       <r>   -1.7411    1.0000 </r>
       <r>   -1.7404    1.0000 </r>
       <r>   -1.7110    1.0000 </r>
       <r>   -1.7053    1.0000 </r>
       <r>   -1.6630    1.0000 </r>
       <r>   -1.6452    1.0000 </r>
       <r>   -1.6451    1.0000 </r>
       <r>   -1.6448    1.0000 </r>
       <r>   -1.6447    1.0000 </r>
       <r>   -1.6230    1.0000 </r>
       <r>   -1.6093    1.0000 </r>
       <r>   -1.6075    1.0000 </r>
       <r>   -1.5848    1.0000 </r>
       <r>   -1.5834    1.0000 </r>
       <r>   -1.5791    1.0000 </r>
       <r>   -1.5575    1.0000 </r>
       <r>   -1.5549    1.0000 </r>
       <r>   -1.5499    1.0000 </r>
       <r>   -1.4509    1.0000 </r>
       <r>   -1.4442    1.0000 </r>
       <r>   -1.4410    1.0000 </r>
       <r>   -1.4316    1.0000 </r>
       <r>   -1.2556    1.0000 </r>
       <r>   -1.2517    1.0000 </r>
       <r>   -1.2353    1.0000 </r>
       <r>   -1.2349    1.0000 </r>
       <r>   -1.2271    1.0000 </r>
       <r>   -1.2239    1.0000 </r>
       <r>   -1.2205    1.0000 </r>
       <r>   -1.2076    1.0000 </r>
       <r>   -1.2068    1.0000 </r>
       <r>   -1.2059    1.0000 </r>
       <r>   -1.2045    1.0000 </r>
       <r>   -1.1912    1.0000 </r>
       <r>   -1.1880    1.0000 </r>
       <r>   -1.1829    1.0000 </r>
       <r>   -1.1716    1.0000 </r>
       <r>   -1.1496    1.0000 </r>
       <r>   -1.1161    1.0000 </r>
       <r>   -1.0877    1.0000 </r>
       <r>   -1.0876    1.0000 </r>
       <r>   -1.0825    1.0000 </r>
       <r>   -1.0823    1.0000 </r>
       <r>   -1.0538    1.0000 </r>
       <r>   -1.0093    1.0000 </r>
       <r>   -0.9287    1.0000 </r>
       <r>   -0.9154    1.0000 </r>
       <r>   -0.9098    1.0000 </r>
       <r>   -0.9084    1.0000 </r>
       <r>   -0.8997    1.0000 </r>
       <r>   -0.8547    1.0000 </r>
       <r>   -0.8439    1.0000 </r>
       <r>   -0.8210    1.0000 </r>
       <r>   -0.7756    1.0000 </r>
       <r>   -0.7080    1.0000 </r>
       <r>   -0.6866    1.0000 </r>
       <r>   -0.6847    1.0000 </r>
       <r>   -0.6527    1.0000 </r>
       <r>   -0.5968    1.0000 </r>
       <r>   -0.5946    1.0000 </r>
       <r>   -0.5918    1.0000 </r>
       <r>   -0.5234    1.0000 </r>
       <r>   -0.5194    1.0000 </r>
       <r>   -0.5172    1.0000 </r>
       <r>   -0.5159    1.0000 </r>
       <r>   -0.5138    1.0000 </r>
       <r>   -0.4628    1.0000 </r>
       <r>   -0.4598    1.0000 </r>
       <r>   -0.4575    1.0000 </r>
       <r>   -0.4557    1.0000 </r>
       <r>   -0.4542    1.0000 </r>
       <r>   -0.4522    1.0000 </r>
       <r>   -0.4486    1.0000 </r>
       <r>   -0.4475    1.0000 </r>
       <r>   -0.4033    1.0000 </r>
       <r>   -0.3835    1.0000 </r>
       <r>   -0.3835    1.0000 </r>
       <r>   -0.3546    1.0000 </r>
       <r>   -0.3520    1.0000 </r>
       <r>   -0.3495    1.0000 </r>
       <r>   -0.3458    1.0000 </r>
       <r>   -0.3440    1.0000 </r>
       <r>   -0.3265    1.0000 </r>
       <r>   -0.3260    1.0000 </r>
       <r>   -0.3257    1.0000 </r>
       <r>   -0.3254    1.0000 </r>
       <r>   -0.2759    1.0000 </r>
       <r>   -0.2627    1.0000 </r>
       <r>   -0.2583    1.0000 </r>
       <r>   -0.2562    1.0000 </r>
       <r>   -0.2557    1.0000 </r>
       <r>   -0.2542    1.0000 </r>
       <r>   -0.2457    1.0000 </r>
       <r>   -0.2248    1.0000 </r>
       <r>   -0.2240    1.0000 </r>
       <r>   -0.2148    1.0000 </r>
       <r>   -0.2088    1.0000 </r>
       <r>   -0.1406    1.0000 </r>
       <r>   -0.1396    1.0000 </r>
       <r>   -0.0449    1.0000 </r>
       <r>   -0.0071    1.0000 </r>
       <r>    0.0019    1.0000 </r>
       <r>    0.0098    1.0000 </r>
       <r>    0.0116    1.0000 </r>
       <r>    0.0182    1.0000 </r>
       <r>    0.0185    1.0000 </r>
       <r>    0.0349    1.0000 </r>
       <r>    0.0350    1.0000 </r>
       <r>    0.0748    1.0000 </r>
       <r>    0.1878    1.0000 </r>
       <r>    0.2888    1.0000 </r>
       <r>    0.3192    1.0000 </r>
       <r>    0.3414    1.0000 </r>
       <r>    0.3446    1.0000 </r>
       <r>    0.3494    1.0000 </r>
       <r>    0.3519    1.0000 </r>
       <r>    0.3742    1.0000 </r>
       <r>    0.3972    1.0000 </r>
       <r>    0.4529    1.0000 </r>
       <r>    0.4765    1.0000 </r>
       <r>    0.4774    1.0000 </r>
       <r>    0.4889    1.0000 </r>
       <r>    0.5105    1.0000 </r>
       <r>    0.5576    1.0000 </r>
       <r>    0.5599    1.0000 </r>
       <r>    0.5663    1.0000 </r>
       <r>    0.5869    1.0000 </r>
       <r>    0.5888    1.0000 </r>
       <r>    0.5961    1.0000 </r>
       <r>    0.6194    1.0000 </r>
       <r>    0.6355    1.0000 </r>
       <r>    0.6558    1.0000 </r>
       <r>    0.6941    1.0000 </r>
       <r>    0.7033    1.0000 </r>
       <r>    0.7347    1.0000 </r>
       <r>    0.7365    1.0000 </r>
       <r>    0.8554    1.0000 </r>
       <r>    0.8559    1.0000 </r>
       <r>    0.8572    1.0000 </r>
       <r>    0.8622    1.0000 </r>
       <r>    0.8641    1.0000 </r>
       <r>    0.8663    1.0000 </r>
       <r>    0.8684    1.0000 </r>
       <r>    0.8748    1.0000 </r>
       <r>    0.8759    1.0000 </r>
       <r>    0.8779    1.0000 </r>
       <r>    0.8837    1.0000 </r>
       <r>    0.8858    1.0000 </r>
       <r>    0.8954    1.0000 </r>
       <r>    0.8968    1.0000 </r>
       <r>    0.9063    1.0000 </r>
       <r>    0.9090    1.0000 </r>
       <r>    0.9938    1.0000 </r>
       <r>    1.0028    1.0000 </r>
       <r>    1.0587    1.0000 </r>
       <r>    1.0652    1.0000 </r>
       <r>    1.0781    1.0000 </r>
       <r>    1.0787    1.0000 </r>
       <r>    1.0948    1.0000 </r>
       <r>    1.0959    1.0000 </r>
       <r>    1.1088    1.0000 </r>
       <r>    1.1094    1.0000 </r>
       <r>    1.1183    1.0000 </r>
       <r>    1.2567    1.0000 </r>
       <r>    1.2631    1.0000 </r>
       <r>    1.3109    1.0000 </r>
       <r>    1.4347    1.0000 </r>
       <r>    1.4541    1.0000 </r>
       <r>    1.4565    1.0000 </r>
       <r>    1.4708    1.0000 </r>
       <r>    1.6018    1.0000 </r>
       <r>    1.6022    1.0000 </r>
       <r>    1.6054    1.0000 </r>
       <r>    1.6075    1.0000 </r>
       <r>    1.6158    1.0000 </r>
       <r>    1.6257    1.0000 </r>
       <r>    1.6568    1.0000 </r>
       <r>    1.6682    1.0000 </r>
       <r>    1.7137    1.0000 </r>
       <r>    1.7149    1.0000 </r>
       <r>    1.7686    1.0000 </r>
       <r>    1.7731    1.0000 </r>
       <r>    1.8445    1.0000 </r>
       <r>    1.8513    1.0000 </r>
       <r>    1.8544    1.0000 </r>
       <r>    1.8630    1.0000 </r>
       <r>    1.8671    1.0000 </r>
       <r>    1.8710    1.0000 </r>
       <r>    1.8787    1.0000 </r>
       <r>    1.8789    1.0000 </r>
       <r>    1.9907    1.0000 </r>
       <r>    2.0032    1.0000 </r>
       <r>    2.1894    1.0000 </r>
       <r>    2.1906    1.0000 </r>
       <r>    2.1964    1.0000 </r>
       <r>    2.2000    1.0000 </r>
       <r>    2.2083    1.0000 </r>
       <r>    2.2117    1.0000 </r>
       <r>    2.3798    1.0000 </r>
       <r>    2.3819    1.0000 </r>
       <r>    2.3893    1.0000 </r>
       <r>    2.3895    1.0000 </r>
       <r>    5.5450    0.0000 </r>
       <r>    6.6584    0.0000 </r>
       <r>    6.6749    0.0000 </r>
       <r>    6.6826    0.0000 </r>
       <r>    6.7915    0.0000 </r>
       <r>    6.8857    0.0000 </r>
       <r>    6.9410    0.0000 </r>
       <r>    7.0097    0.0000 </r>
       <r>    7.0226    0.0000 </r>
       <r>    7.0447    0.0000 </r>
       <r>    7.0548    0.0000 </r>
       <r>    7.0764    0.0000 </r>
       <r>    7.0874    0.0000 </r>
       <r>    7.1072    0.0000 </r>
       <r>    7.1168    0.0000 </r>
       <r>    7.1460    0.0000 </r>
       <r>    7.1467    0.0000 </r>
       <r>    7.2575    0.0000 </r>
       <r>    7.2658    0.0000 </r>
       <r>    7.2664    0.0000 </r>
       <r>    7.2866    0.0000 </r>
       <r>    7.2868    0.0000 </r>
       <r>    7.4405    0.0000 </r>
       <r>    7.4566    0.0000 </r>
       <r>    7.4655    0.0000 </r>
       <r>    7.4816    0.0000 </r>
       <r>    7.4890    0.0000 </r>
       <r>    7.5709    0.0000 </r>
       <r>    7.5755    0.0000 </r>
       <r>    7.6371    0.0000 </r>
       <r>    7.6479    0.0000 </r>
       <r>    7.6609    0.0000 </r>
       <r>    7.6648    0.0000 </r>
       <r>    7.6657    0.0000 </r>
       <r>    7.6675    0.0000 </r>
       <r>    7.6832    0.0000 </r>
       <r>    7.7174    0.0000 </r>
       <r>    7.7330    0.0000 </r>
       <r>    7.7358    0.0000 </r>
       <r>    7.7955    0.0000 </r>
       <r>    7.8470    0.0000 </r>
       <r>    7.8817    0.0000 </r>
       <r>    7.8994    0.0000 </r>
       <r>    7.9710    0.0000 </r>
       <r>    7.9782    0.0000 </r>
       <r>    8.0059    0.0000 </r>
       <r>    8.0064    0.0000 </r>
       <r>    8.0970    0.0000 </r>
       <r>    8.0996    0.0000 </r>
       <r>    8.1134    0.0000 </r>
       <r>    8.2081    0.0000 </r>
       <r>    8.2295    0.0000 </r>
       <r>    8.2534    0.0000 </r>
       <r>    8.2894    0.0000 </r>
       <r>    8.3388    0.0000 </r>
       <r>    8.3414    0.0000 </r>
       <r>    8.3682    0.0000 </r>
       <r>    8.4743    0.0000 </r>
       <r>    8.4829    0.0000 </r>
       <r>    8.4913    0.0000 </r>
       <r>    8.4950    0.0000 </r>
       <r>    8.4976    0.0000 </r>
       <r>    8.5091    0.0000 </r>
       <r>    8.5106    0.0000 </r>
       <r>    8.5112    0.0000 </r>
       <r>    8.5335    0.0000 </r>
       <r>    8.5693    0.0000 </r>
       <r>    8.6013    0.0000 </r>
       <r>    8.6274    0.0000 </r>
       <r>    8.7876    0.0000 </r>
       <r>    8.8297    0.0000 </r>
       <r>    8.9032    0.0000 </r>
       <r>    8.9110    0.0000 </r>
       <r>    8.9296    0.0000 </r>
       <r>    9.0001    0.0000 </r>
       <r>    9.0077    0.0000 </r>
       <r>    9.0121    0.0000 </r>
       <r>    9.0198    0.0000 </r>
       <r>    9.0205    0.0000 </r>
       <r>    9.0248    0.0000 </r>
       <r>    9.0317    0.0000 </r>
       <r>    9.1310    0.0000 </r>
       <r>    9.1446    0.0000 </r>
       <r>    9.1630    0.0000 </r>
       <r>    9.1665    0.0000 </r>
       <r>    9.1847    0.0000 </r>
       <r>    9.2090    0.0000 </r>
       <r>    9.2096    0.0000 </r>
       <r>    9.2134    0.0000 </r>
       <r>    9.3683    0.0000 </r>
       <r>    9.4073    0.0000 </r>
       <r>    9.4120    0.0000 </r>
       <r>    9.4322    0.0000 </r>
       <r>    9.4450    0.0000 </r>
       <r>    9.4493    0.0000 </r>
       <r>    9.5846    0.0000 </r>
       <r>    9.6016    0.0000 </r>
       <r>    9.6034    0.0000 </r>
       <r>    9.6068    0.0000 </r>
       <r>    9.6080    0.0000 </r>
       <r>    9.6384    0.0000 </r>
       <r>    9.6657    0.0000 </r>
       <r>    9.7118    0.0000 </r>
       <r>    9.7126    0.0000 </r>
       <r>    9.7136    0.0000 </r>
       <r>    9.7298    0.0000 </r>
       <r>    9.7698    0.0000 </r>
       <r>    9.7874    0.0000 </r>
       <r>    9.8364    0.0000 </r>
       <r>    9.8368    0.0000 </r>
       <r>    9.9246    0.0000 </r>
       <r>    9.9271    0.0000 </r>
       <r>    9.9642    0.0000 </r>
       <r>    9.9698    0.0000 </r>
       <r>    9.9723    0.0000 </r>
       <r>   10.0348    0.0000 </r>
       <r>   10.0721    0.0000 </r>
       <r>   10.1150    0.0000 </r>
       <r>   10.1330    0.0000 </r>
       <r>   10.3107    0.0000 </r>
       <r>   10.3471    0.0000 </r>
       <r>   10.4277    0.0000 </r>
       <r>   10.4279    0.0000 </r>
       <r>   10.5258    0.0000 </r>
       <r>   10.5269    0.0000 </r>
       <r>   10.5499    0.0000 </r>
       <r>   10.5548    0.0000 </r>
       <r>   10.8970    0.0000 </r>
       <r>   10.9998    0.0000 </r>
       <r>   11.2071    0.0000 </r>
       <r>   11.2109    0.0000 </r>
       <r>   11.2924    0.0000 </r>
       <r>   11.4116    0.0000 </r>
       <r>   11.4177    0.0000 </r>
       <r>   11.4359    0.0000 </r>
       <r>   11.4419    0.0000 </r>
       <r>   11.5063    0.0000 </r>
       <r>   11.5361    0.0000 </r>
       <r>   11.5537    0.0000 </r>
       <r>   11.5850    0.0000 </r>
       <r>   11.5931    0.0000 </r>
       <r>   11.5975    0.0000 </r>
       <r>   11.6104    0.0000 </r>
       <r>   11.6250    0.0000 </r>
       <r>   11.6646    0.0000 </r>
       <r>   11.7307    0.0000 </r>
       <r>   11.8122    0.0000 </r>
       <r>   11.8824    0.0000 </r>
       <r>   11.9159    0.0000 </r>
       <r>   11.9491    0.0000 </r>
       <r>   11.9782    0.0000 </r>
       <r>   12.0012    0.0000 </r>
      </set>
      <set comment="kpoint 7">
       <r>  -17.1673    1.0000 </r>
       <r>  -15.7436    1.0000 </r>
       <r>  -15.6894    1.0000 </r>
       <r>  -15.4122    1.0000 </r>
       <r>  -15.2833    1.0000 </r>
       <r>  -15.2764    1.0000 </r>
       <r>  -15.2410    1.0000 </r>
       <r>  -15.2061    1.0000 </r>
       <r>  -15.1407    1.0000 </r>
       <r>  -15.0832    1.0000 </r>
       <r>  -15.0466    1.0000 </r>
       <r>  -15.0348    1.0000 </r>
       <r>  -15.0145    1.0000 </r>
       <r>  -14.9841    1.0000 </r>
       <r>  -14.9840    1.0000 </r>
       <r>  -14.9068    1.0000 </r>
       <r>  -14.8985    1.0000 </r>
       <r>  -14.8524    1.0000 </r>
       <r>  -14.7583    1.0000 </r>
       <r>  -14.7570    1.0000 </r>
       <r>  -14.6144    1.0000 </r>
       <r>  -14.5659    1.0000 </r>
       <r>  -14.5389    1.0000 </r>
       <r>  -14.4667    1.0000 </r>
       <r>  -14.4642    1.0000 </r>
       <r>  -14.4595    1.0000 </r>
       <r>  -14.4574    1.0000 </r>
       <r>  -14.4225    1.0000 </r>
       <r>  -14.4032    1.0000 </r>
       <r>  -14.3955    1.0000 </r>
       <r>  -14.3835    1.0000 </r>
       <r>  -14.3355    1.0000 </r>
       <r>  -14.2472    1.0000 </r>
       <r>  -14.2462    1.0000 </r>
       <r>  -14.2432    1.0000 </r>
       <r>  -14.2424    1.0000 </r>
       <r>  -14.2073    1.0000 </r>
       <r>  -14.2063    1.0000 </r>
       <r>  -14.1686    1.0000 </r>
       <r>  -14.1483    1.0000 </r>
       <r>  -14.1061    1.0000 </r>
       <r>  -14.0337    1.0000 </r>
       <r>  -13.9976    1.0000 </r>
       <r>  -13.9973    1.0000 </r>
       <r>  -13.9392    1.0000 </r>
       <r>  -13.7799    1.0000 </r>
       <r>  -13.7429    1.0000 </r>
       <r>  -13.7412    1.0000 </r>
       <r>  -13.7110    1.0000 </r>
       <r>  -13.7099    1.0000 </r>
       <r>  -13.7032    1.0000 </r>
       <r>  -13.6815    1.0000 </r>
       <r>  -13.6564    1.0000 </r>
       <r>  -13.6532    1.0000 </r>
       <r>  -13.5965    1.0000 </r>
       <r>  -13.5334    1.0000 </r>
       <r>  -13.5331    1.0000 </r>
       <r>  -13.5181    1.0000 </r>
       <r>  -13.5177    1.0000 </r>
       <r>  -13.5020    1.0000 </r>
       <r>  -13.3574    1.0000 </r>
       <r>  -13.3335    1.0000 </r>
       <r>  -13.2536    1.0000 </r>
       <r>  -13.2217    1.0000 </r>
       <r>  -13.1081    1.0000 </r>
       <r>  -13.0698    1.0000 </r>
       <r>  -13.0651    1.0000 </r>
       <r>  -13.0616    1.0000 </r>
       <r>  -13.0592    1.0000 </r>
       <r>  -13.0334    1.0000 </r>
       <r>  -13.0271    1.0000 </r>
       <r>  -13.0211    1.0000 </r>
       <r>  -13.0175    1.0000 </r>
       <r>  -12.9707    1.0000 </r>
       <r>  -12.9232    1.0000 </r>
       <r>  -12.8939    1.0000 </r>
       <r>  -12.8935    1.0000 </r>
       <r>  -12.8891    1.0000 </r>
       <r>  -12.8872    1.0000 </r>
       <r>  -12.8786    1.0000 </r>
       <r>  -12.8778    1.0000 </r>
       <r>  -12.8768    1.0000 </r>
       <r>  -12.8766    1.0000 </r>
       <r>  -12.8652    1.0000 </r>
       <r>  -12.8592    1.0000 </r>
       <r>  -12.8574    1.0000 </r>
       <r>  -12.8503    1.0000 </r>
       <r>  -12.8485    1.0000 </r>
       <r>  -12.7154    1.0000 </r>
       <r>  -12.7153    1.0000 </r>
       <r>  -12.7146    1.0000 </r>
       <r>  -12.7143    1.0000 </r>
       <r>  -12.6817    1.0000 </r>
       <r>  -12.6085    1.0000 </r>
       <r>  -12.5996    1.0000 </r>
       <r>  -12.5777    1.0000 </r>
       <r>  -12.5717    1.0000 </r>
       <r>  -12.5498    1.0000 </r>
       <r>  -12.5325    1.0000 </r>
       <r>  -12.4974    1.0000 </r>
       <r>  -12.4351    1.0000 </r>
       <r>  -12.4295    1.0000 </r>
       <r>  -12.4225    1.0000 </r>
       <r>  -12.4217    1.0000 </r>
       <r>  -12.3416    1.0000 </r>
       <r>  -12.3402    1.0000 </r>
       <r>  -12.3214    1.0000 </r>
       <r>  -12.3189    1.0000 </r>
       <r>  -12.2491    1.0000 </r>
       <r>  -12.2442    1.0000 </r>
       <r>  -12.2387    1.0000 </r>
       <r>  -12.2315    1.0000 </r>
       <r>  -12.2174    1.0000 </r>
       <r>  -12.2166    1.0000 </r>
       <r>  -12.2045    1.0000 </r>
       <r>  -12.2038    1.0000 </r>
       <r>  -12.1764    1.0000 </r>
       <r>  -12.1761    1.0000 </r>
       <r>  -12.1699    1.0000 </r>
       <r>  -12.1698    1.0000 </r>
       <r>  -12.0961    1.0000 </r>
       <r>  -12.0958    1.0000 </r>
       <r>  -12.0876    1.0000 </r>
       <r>  -12.0870    1.0000 </r>
       <r>  -12.0865    1.0000 </r>
       <r>  -12.0838    1.0000 </r>
       <r>  -11.9524    1.0000 </r>
       <r>  -11.9475    1.0000 </r>
       <r>  -11.9470    1.0000 </r>
       <r>  -11.9424    1.0000 </r>
       <r>  -11.8164    1.0000 </r>
       <r>  -11.8155    1.0000 </r>
       <r>  -11.8090    1.0000 </r>
       <r>  -11.8076    1.0000 </r>
       <r>  -11.8050    1.0000 </r>
       <r>  -11.8040    1.0000 </r>
       <r>  -11.7844    1.0000 </r>
       <r>  -11.7832    1.0000 </r>
       <r>  -11.7789    1.0000 </r>
       <r>  -11.7752    1.0000 </r>
       <r>  -11.6687    1.0000 </r>
       <r>  -11.6686    1.0000 </r>
       <r>  -11.6610    1.0000 </r>
       <r>  -11.6609    1.0000 </r>
       <r>   -8.1634    1.0000 </r>
       <r>   -7.2508    1.0000 </r>
       <r>   -7.2360    1.0000 </r>
       <r>   -6.7833    1.0000 </r>
       <r>   -6.6995    1.0000 </r>
       <r>   -6.6787    1.0000 </r>
       <r>   -6.4261    1.0000 </r>
       <r>   -6.4020    1.0000 </r>
       <r>   -6.3180    1.0000 </r>
       <r>   -6.3100    1.0000 </r>
       <r>   -6.3078    1.0000 </r>
       <r>   -6.3047    1.0000 </r>
       <r>   -6.2988    1.0000 </r>
       <r>   -6.2838    1.0000 </r>
       <r>   -6.2752    1.0000 </r>
       <r>   -6.2728    1.0000 </r>
       <r>   -6.2683    1.0000 </r>
       <r>   -6.2646    1.0000 </r>
       <r>   -6.2174    1.0000 </r>
       <r>   -6.2129    1.0000 </r>
       <r>   -6.2119    1.0000 </r>
       <r>   -6.2066    1.0000 </r>
       <r>   -6.1946    1.0000 </r>
       <r>   -6.1920    1.0000 </r>
       <r>   -6.1593    1.0000 </r>
       <r>   -6.1591    1.0000 </r>
       <r>   -6.1488    1.0000 </r>
       <r>   -6.1488    1.0000 </r>
       <r>   -6.0727    1.0000 </r>
       <r>   -6.0711    1.0000 </r>
       <r>   -5.9364    1.0000 </r>
       <r>   -5.9288    1.0000 </r>
       <r>   -5.9100    1.0000 </r>
       <r>   -5.9024    1.0000 </r>
       <r>   -5.8366    1.0000 </r>
       <r>   -5.7898    1.0000 </r>
       <r>   -5.7816    1.0000 </r>
       <r>   -5.7704    1.0000 </r>
       <r>   -5.7696    1.0000 </r>
       <r>   -5.7657    1.0000 </r>
       <r>   -5.7620    1.0000 </r>
       <r>   -5.7590    1.0000 </r>
       <r>   -5.7580    1.0000 </r>
       <r>   -5.7574    1.0000 </r>
       <r>   -5.7557    1.0000 </r>
       <r>   -5.7493    1.0000 </r>
       <r>   -5.7341    1.0000 </r>
       <r>   -5.6801    1.0000 </r>
       <r>   -5.6515    1.0000 </r>
       <r>   -5.6390    1.0000 </r>
       <r>   -5.6234    1.0000 </r>
       <r>   -5.6233    1.0000 </r>
       <r>   -5.6198    1.0000 </r>
       <r>   -5.6197    1.0000 </r>
       <r>   -5.2298    1.0000 </r>
       <r>   -5.2289    1.0000 </r>
       <r>   -5.2250    1.0000 </r>
       <r>   -5.2242    1.0000 </r>
       <r>   -5.2230    1.0000 </r>
       <r>   -5.2213    1.0000 </r>
       <r>   -5.2190    1.0000 </r>
       <r>   -5.2185    1.0000 </r>
       <r>   -5.2181    1.0000 </r>
       <r>   -5.2170    1.0000 </r>
       <r>   -5.2160    1.0000 </r>
       <r>   -5.2108    1.0000 </r>
       <r>   -5.1065    1.0000 </r>
       <r>   -5.0951    1.0000 </r>
       <r>   -5.0907    1.0000 </r>
       <r>   -5.0907    1.0000 </r>
       <r>   -5.0879    1.0000 </r>
       <r>   -5.0879    1.0000 </r>
       <r>   -5.0874    1.0000 </r>
       <r>   -5.0874    1.0000 </r>
       <r>   -5.0084    1.0000 </r>
       <r>   -4.9190    1.0000 </r>
       <r>   -4.8270    1.0000 </r>
       <r>   -4.5975    1.0000 </r>
       <r>   -4.5429    1.0000 </r>
       <r>   -4.5346    1.0000 </r>
       <r>   -4.4781    1.0000 </r>
       <r>   -4.4741    1.0000 </r>
       <r>   -4.4726    1.0000 </r>
       <r>   -4.4706    1.0000 </r>
       <r>   -4.4702    1.0000 </r>
       <r>   -4.4697    1.0000 </r>
       <r>   -4.4676    1.0000 </r>
       <r>   -4.4656    1.0000 </r>
       <r>   -4.3414    1.0000 </r>
       <r>   -4.3412    1.0000 </r>
       <r>   -4.3408    1.0000 </r>
       <r>   -4.3407    1.0000 </r>
       <r>   -4.3118    1.0000 </r>
       <r>   -4.1906    1.0000 </r>
       <r>   -4.0920    1.0000 </r>
       <r>   -4.0893    1.0000 </r>
       <r>   -4.0877    1.0000 </r>
       <r>   -4.0849    1.0000 </r>
       <r>   -4.0832    1.0000 </r>
       <r>   -4.0743    1.0000 </r>
       <r>   -4.0737    1.0000 </r>
       <r>   -4.0706    1.0000 </r>
       <r>   -4.0693    1.0000 </r>
       <r>   -4.0372    1.0000 </r>
       <r>   -4.0246    1.0000 </r>
       <r>   -3.9503    1.0000 </r>
       <r>   -3.9502    1.0000 </r>
       <r>   -3.9465    1.0000 </r>
       <r>   -3.9465    1.0000 </r>
       <r>   -3.9072    1.0000 </r>
       <r>   -3.8630    1.0000 </r>
       <r>   -3.7746    1.0000 </r>
       <r>   -3.6238    1.0000 </r>
       <r>   -3.6207    1.0000 </r>
       <r>   -3.6163    1.0000 </r>
       <r>   -3.6145    1.0000 </r>
       <r>   -3.6031    1.0000 </r>
       <r>   -3.6025    1.0000 </r>
       <r>   -3.5965    1.0000 </r>
       <r>   -3.5957    1.0000 </r>
       <r>   -3.5936    1.0000 </r>
       <r>   -3.4798    1.0000 </r>
       <r>   -3.4797    1.0000 </r>
       <r>   -3.4739    1.0000 </r>
       <r>   -3.4739    1.0000 </r>
       <r>   -3.4689    1.0000 </r>
       <r>   -3.4688    1.0000 </r>
       <r>   -3.4676    1.0000 </r>
       <r>   -3.4657    1.0000 </r>
       <r>   -3.4652    1.0000 </r>
       <r>   -3.3904    1.0000 </r>
       <r>   -3.3567    1.0000 </r>
       <r>   -3.3421    1.0000 </r>
       <r>   -3.3384    1.0000 </r>
       <r>   -3.3383    1.0000 </r>
       <r>   -3.3145    1.0000 </r>
       <r>   -3.3069    1.0000 </r>
       <r>   -3.1465    1.0000 </r>
       <r>   -3.0898    1.0000 </r>
       <r>   -3.0773    1.0000 </r>
       <r>   -3.0724    1.0000 </r>
       <r>   -3.0718    1.0000 </r>
       <r>   -3.0651    1.0000 </r>
       <r>   -3.0033    1.0000 </r>
       <r>   -2.9988    1.0000 </r>
       <r>   -2.9863    1.0000 </r>
       <r>   -2.9384    1.0000 </r>
       <r>   -2.9376    1.0000 </r>
       <r>   -2.8457    1.0000 </r>
       <r>   -2.7639    1.0000 </r>
       <r>   -2.7602    1.0000 </r>
       <r>   -2.7517    1.0000 </r>
       <r>   -2.7284    1.0000 </r>
       <r>   -2.7233    1.0000 </r>
       <r>   -2.6752    1.0000 </r>
       <r>   -2.6722    1.0000 </r>
       <r>   -2.6692    1.0000 </r>
       <r>   -2.6500    1.0000 </r>
       <r>   -2.6123    1.0000 </r>
       <r>   -2.5455    1.0000 </r>
       <r>   -2.5451    1.0000 </r>
       <r>   -2.5425    1.0000 </r>
       <r>   -2.5146    1.0000 </r>
       <r>   -2.4622    1.0000 </r>
       <r>   -2.3909    1.0000 </r>
       <r>   -2.3857    1.0000 </r>
       <r>   -2.3779    1.0000 </r>
       <r>   -2.3748    1.0000 </r>
       <r>   -2.3727    1.0000 </r>
       <r>   -2.3719    1.0000 </r>
       <r>   -2.3711    1.0000 </r>
       <r>   -2.3700    1.0000 </r>
       <r>   -2.3689    1.0000 </r>
       <r>   -2.3673    1.0000 </r>
       <r>   -2.3633    1.0000 </r>
       <r>   -2.3426    1.0000 </r>
       <r>   -2.2720    1.0000 </r>
       <r>   -2.2620    1.0000 </r>
       <r>   -2.2569    1.0000 </r>
       <r>   -2.2411    1.0000 </r>
       <r>   -2.2407    1.0000 </r>
       <r>   -2.2404    1.0000 </r>
       <r>   -2.2401    1.0000 </r>
       <r>   -2.2358    1.0000 </r>
       <r>   -2.2058    1.0000 </r>
       <r>   -2.1945    1.0000 </r>
       <r>   -2.1927    1.0000 </r>
       <r>   -2.1631    1.0000 </r>
       <r>   -2.1501    1.0000 </r>
       <r>   -2.1428    1.0000 </r>
       <r>   -2.1240    1.0000 </r>
       <r>   -2.0974    1.0000 </r>
       <r>   -2.0948    1.0000 </r>
       <r>   -2.0919    1.0000 </r>
       <r>   -2.0871    1.0000 </r>
       <r>   -2.0862    1.0000 </r>
       <r>   -2.0575    1.0000 </r>
       <r>   -2.0560    1.0000 </r>
       <r>   -2.0509    1.0000 </r>
       <r>   -2.0490    1.0000 </r>
       <r>   -2.0081    1.0000 </r>
       <r>   -1.9640    1.0000 </r>
       <r>   -1.9434    1.0000 </r>
       <r>   -1.9433    1.0000 </r>
       <r>   -1.9328    1.0000 </r>
       <r>   -1.9327    1.0000 </r>
       <r>   -1.9306    1.0000 </r>
       <r>   -1.9059    1.0000 </r>
       <r>   -1.9050    1.0000 </r>
       <r>   -1.8977    1.0000 </r>
       <r>   -1.8954    1.0000 </r>
       <r>   -1.8636    1.0000 </r>
       <r>   -1.8611    1.0000 </r>
       <r>   -1.8599    1.0000 </r>
       <r>   -1.8593    1.0000 </r>
       <r>   -1.8587    1.0000 </r>
       <r>   -1.8581    1.0000 </r>
       <r>   -1.8559    1.0000 </r>
       <r>   -1.8531    1.0000 </r>
       <r>   -1.8518    1.0000 </r>
       <r>   -1.7805    1.0000 </r>
       <r>   -1.7784    1.0000 </r>
       <r>   -1.7773    1.0000 </r>
       <r>   -1.7767    1.0000 </r>
       <r>   -1.7750    1.0000 </r>
       <r>   -1.7739    1.0000 </r>
       <r>   -1.7724    1.0000 </r>
       <r>   -1.7714    1.0000 </r>
       <r>   -1.7443    1.0000 </r>
       <r>   -1.7429    1.0000 </r>
       <r>   -1.7410    1.0000 </r>
       <r>   -1.7404    1.0000 </r>
       <r>   -1.7110    1.0000 </r>
       <r>   -1.7052    1.0000 </r>
       <r>   -1.6628    1.0000 </r>
       <r>   -1.6452    1.0000 </r>
       <r>   -1.6452    1.0000 </r>
       <r>   -1.6448    1.0000 </r>
       <r>   -1.6448    1.0000 </r>
       <r>   -1.6235    1.0000 </r>
       <r>   -1.6087    1.0000 </r>
       <r>   -1.6082    1.0000 </r>
       <r>   -1.5846    1.0000 </r>
       <r>   -1.5844    1.0000 </r>
       <r>   -1.5801    1.0000 </r>
       <r>   -1.5572    1.0000 </r>
       <r>   -1.5535    1.0000 </r>
       <r>   -1.5468    1.0000 </r>
       <r>   -1.4503    1.0000 </r>
       <r>   -1.4436    1.0000 </r>
       <r>   -1.4414    1.0000 </r>
       <r>   -1.4312    1.0000 </r>
       <r>   -1.2565    1.0000 </r>
       <r>   -1.2530    1.0000 </r>
       <r>   -1.2349    1.0000 </r>
       <r>   -1.2344    1.0000 </r>
       <r>   -1.2267    1.0000 </r>
       <r>   -1.2263    1.0000 </r>
       <r>   -1.2217    1.0000 </r>
       <r>   -1.2089    1.0000 </r>
       <r>   -1.2065    1.0000 </r>
       <r>   -1.2059    1.0000 </r>
       <r>   -1.2044    1.0000 </r>
       <r>   -1.1907    1.0000 </r>
       <r>   -1.1873    1.0000 </r>
       <r>   -1.1825    1.0000 </r>
       <r>   -1.1720    1.0000 </r>
       <r>   -1.1479    1.0000 </r>
       <r>   -1.1159    1.0000 </r>
       <r>   -1.0879    1.0000 </r>
       <r>   -1.0879    1.0000 </r>
       <r>   -1.0823    1.0000 </r>
       <r>   -1.0821    1.0000 </r>
       <r>   -1.0538    1.0000 </r>
       <r>   -1.0095    1.0000 </r>
       <r>   -0.9284    1.0000 </r>
       <r>   -0.9163    1.0000 </r>
       <r>   -0.9095    1.0000 </r>
       <r>   -0.9080    1.0000 </r>
       <r>   -0.9004    1.0000 </r>
       <r>   -0.8548    1.0000 </r>
       <r>   -0.8440    1.0000 </r>
       <r>   -0.8211    1.0000 </r>
       <r>   -0.7758    1.0000 </r>
       <r>   -0.7077    1.0000 </r>
       <r>   -0.6874    1.0000 </r>
       <r>   -0.6851    1.0000 </r>
       <r>   -0.6523    1.0000 </r>
       <r>   -0.5964    1.0000 </r>
       <r>   -0.5950    1.0000 </r>
       <r>   -0.5914    1.0000 </r>
       <r>   -0.5223    1.0000 </r>
       <r>   -0.5192    1.0000 </r>
       <r>   -0.5167    1.0000 </r>
       <r>   -0.5153    1.0000 </r>
       <r>   -0.5107    1.0000 </r>
       <r>   -0.4637    1.0000 </r>
       <r>   -0.4591    1.0000 </r>
       <r>   -0.4570    1.0000 </r>
       <r>   -0.4560    1.0000 </r>
       <r>   -0.4534    1.0000 </r>
       <r>   -0.4528    1.0000 </r>
       <r>   -0.4511    1.0000 </r>
       <r>   -0.4476    1.0000 </r>
       <r>   -0.4028    1.0000 </r>
       <r>   -0.3835    1.0000 </r>
       <r>   -0.3834    1.0000 </r>
       <r>   -0.3544    1.0000 </r>
       <r>   -0.3513    1.0000 </r>
       <r>   -0.3485    1.0000 </r>
       <r>   -0.3452    1.0000 </r>
       <r>   -0.3414    1.0000 </r>
       <r>   -0.3265    1.0000 </r>
       <r>   -0.3260    1.0000 </r>
       <r>   -0.3257    1.0000 </r>
       <r>   -0.3254    1.0000 </r>
       <r>   -0.2756    1.0000 </r>
       <r>   -0.2635    1.0000 </r>
       <r>   -0.2582    1.0000 </r>
       <r>   -0.2564    1.0000 </r>
       <r>   -0.2554    1.0000 </r>
       <r>   -0.2532    1.0000 </r>
       <r>   -0.2454    1.0000 </r>
       <r>   -0.2248    1.0000 </r>
       <r>   -0.2240    1.0000 </r>
       <r>   -0.2158    1.0000 </r>
       <r>   -0.2096    1.0000 </r>
       <r>   -0.1405    1.0000 </r>
       <r>   -0.1388    1.0000 </r>
       <r>   -0.0448    1.0000 </r>
       <r>   -0.0070    1.0000 </r>
       <r>    0.0005    1.0000 </r>
       <r>    0.0084    1.0000 </r>
       <r>    0.0114    1.0000 </r>
       <r>    0.0180    1.0000 </r>
       <r>    0.0192    1.0000 </r>
       <r>    0.0356    1.0000 </r>
       <r>    0.0363    1.0000 </r>
       <r>    0.0744    1.0000 </r>
       <r>    0.1873    1.0000 </r>
       <r>    0.2887    1.0000 </r>
       <r>    0.3195    1.0000 </r>
       <r>    0.3380    1.0000 </r>
       <r>    0.3445    1.0000 </r>
       <r>    0.3492    1.0000 </r>
       <r>    0.3514    1.0000 </r>
       <r>    0.3734    1.0000 </r>
       <r>    0.3967    1.0000 </r>
       <r>    0.4522    1.0000 </r>
       <r>    0.4765    1.0000 </r>
       <r>    0.4774    1.0000 </r>
       <r>    0.4884    1.0000 </r>
       <r>    0.5114    1.0000 </r>
       <r>    0.5556    1.0000 </r>
       <r>    0.5580    1.0000 </r>
       <r>    0.5666    1.0000 </r>
       <r>    0.5862    1.0000 </r>
       <r>    0.5884    1.0000 </r>
       <r>    0.5951    1.0000 </r>
       <r>    0.6204    1.0000 </r>
       <r>    0.6362    1.0000 </r>
       <r>    0.6574    1.0000 </r>
       <r>    0.6938    1.0000 </r>
       <r>    0.7036    1.0000 </r>
       <r>    0.7340    1.0000 </r>
       <r>    0.7365    1.0000 </r>
       <r>    0.8553    1.0000 </r>
       <r>    0.8555    1.0000 </r>
       <r>    0.8570    1.0000 </r>
       <r>    0.8621    1.0000 </r>
       <r>    0.8649    1.0000 </r>
       <r>    0.8669    1.0000 </r>
       <r>    0.8692    1.0000 </r>
       <r>    0.8744    1.0000 </r>
       <r>    0.8748    1.0000 </r>
       <r>    0.8776    1.0000 </r>
       <r>    0.8846    1.0000 </r>
       <r>    0.8902    1.0000 </r>
       <r>    0.8961    1.0000 </r>
       <r>    0.8972    1.0000 </r>
       <r>    0.9052    1.0000 </r>
       <r>    0.9098    1.0000 </r>
       <r>    0.9935    1.0000 </r>
       <r>    1.0031    1.0000 </r>
       <r>    1.0601    1.0000 </r>
       <r>    1.0636    1.0000 </r>
       <r>    1.0784    1.0000 </r>
       <r>    1.0788    1.0000 </r>
       <r>    1.0942    1.0000 </r>
       <r>    1.0945    1.0000 </r>
       <r>    1.1088    1.0000 </r>
       <r>    1.1107    1.0000 </r>
       <r>    1.1186    1.0000 </r>
       <r>    1.2571    1.0000 </r>
       <r>    1.2625    1.0000 </r>
       <r>    1.3114    1.0000 </r>
       <r>    1.4344    1.0000 </r>
       <r>    1.4535    1.0000 </r>
       <r>    1.4573    1.0000 </r>
       <r>    1.4707    1.0000 </r>
       <r>    1.6005    1.0000 </r>
       <r>    1.6020    1.0000 </r>
       <r>    1.6059    1.0000 </r>
       <r>    1.6067    1.0000 </r>
       <r>    1.6159    1.0000 </r>
       <r>    1.6259    1.0000 </r>
       <r>    1.6570    1.0000 </r>
       <r>    1.6663    1.0000 </r>
       <r>    1.7140    1.0000 </r>
       <r>    1.7170    1.0000 </r>
       <r>    1.7689    1.0000 </r>
       <r>    1.7724    1.0000 </r>
       <r>    1.8449    1.0000 </r>
       <r>    1.8507    1.0000 </r>
       <r>    1.8531    1.0000 </r>
       <r>    1.8625    1.0000 </r>
       <r>    1.8667    1.0000 </r>
       <r>    1.8717    1.0000 </r>
       <r>    1.8790    1.0000 </r>
       <r>    1.8802    1.0000 </r>
       <r>    1.9902    1.0000 </r>
       <r>    2.0047    1.0000 </r>
       <r>    2.1897    1.0000 </r>
       <r>    2.1915    1.0000 </r>
       <r>    2.1963    1.0000 </r>
       <r>    2.2006    1.0000 </r>
       <r>    2.2078    1.0000 </r>
       <r>    2.2105    1.0000 </r>
       <r>    2.3797    1.0000 </r>
       <r>    2.3812    1.0000 </r>
       <r>    2.3896    1.0000 </r>
       <r>    2.3900    1.0000 </r>
       <r>    5.5449    0.0000 </r>
       <r>    6.6585    0.0000 </r>
       <r>    6.6746    0.0000 </r>
       <r>    6.6828    0.0000 </r>
       <r>    6.7915    0.0000 </r>
       <r>    6.8862    0.0000 </r>
       <r>    6.9417    0.0000 </r>
       <r>    7.0088    0.0000 </r>
       <r>    7.0227    0.0000 </r>
       <r>    7.0438    0.0000 </r>
       <r>    7.0549    0.0000 </r>
       <r>    7.0763    0.0000 </r>
       <r>    7.0870    0.0000 </r>
       <r>    7.1076    0.0000 </r>
       <r>    7.1158    0.0000 </r>
       <r>    7.1466    0.0000 </r>
       <r>    7.1484    0.0000 </r>
       <r>    7.2568    0.0000 </r>
       <r>    7.2652    0.0000 </r>
       <r>    7.2655    0.0000 </r>
       <r>    7.2870    0.0000 </r>
       <r>    7.2872    0.0000 </r>
       <r>    7.4419    0.0000 </r>
       <r>    7.4570    0.0000 </r>
       <r>    7.4654    0.0000 </r>
       <r>    7.4818    0.0000 </r>
       <r>    7.4888    0.0000 </r>
       <r>    7.5695    0.0000 </r>
       <r>    7.5757    0.0000 </r>
       <r>    7.6365    0.0000 </r>
       <r>    7.6466    0.0000 </r>
       <r>    7.6609    0.0000 </r>
       <r>    7.6650    0.0000 </r>
       <r>    7.6658    0.0000 </r>
       <r>    7.6675    0.0000 </r>
       <r>    7.6836    0.0000 </r>
       <r>    7.7171    0.0000 </r>
       <r>    7.7324    0.0000 </r>
       <r>    7.7357    0.0000 </r>
       <r>    7.7956    0.0000 </r>
       <r>    7.8478    0.0000 </r>
       <r>    7.8811    0.0000 </r>
       <r>    7.9006    0.0000 </r>
       <r>    7.9708    0.0000 </r>
       <r>    7.9770    0.0000 </r>
       <r>    8.0065    0.0000 </r>
       <r>    8.0076    0.0000 </r>
       <r>    8.0980    0.0000 </r>
       <r>    8.0998    0.0000 </r>
       <r>    8.1129    0.0000 </r>
       <r>    8.2084    0.0000 </r>
       <r>    8.2295    0.0000 </r>
       <r>    8.2532    0.0000 </r>
       <r>    8.2888    0.0000 </r>
       <r>    8.3400    0.0000 </r>
       <r>    8.3414    0.0000 </r>
       <r>    8.3685    0.0000 </r>
       <r>    8.4744    0.0000 </r>
       <r>    8.4829    0.0000 </r>
       <r>    8.4915    0.0000 </r>
       <r>    8.4956    0.0000 </r>
       <r>    8.4977    0.0000 </r>
       <r>    8.5083    0.0000 </r>
       <r>    8.5107    0.0000 </r>
       <r>    8.5114    0.0000 </r>
       <r>    8.5336    0.0000 </r>
       <r>    8.5688    0.0000 </r>
       <r>    8.6004    0.0000 </r>
       <r>    8.6281    0.0000 </r>
       <r>    8.7870    0.0000 </r>
       <r>    8.8298    0.0000 </r>
       <r>    8.9031    0.0000 </r>
       <r>    8.9110    0.0000 </r>
       <r>    8.9303    0.0000 </r>
       <r>    9.0002    0.0000 </r>
       <r>    9.0080    0.0000 </r>
       <r>    9.0123    0.0000 </r>
       <r>    9.0195    0.0000 </r>
       <r>    9.0208    0.0000 </r>
       <r>    9.0245    0.0000 </r>
       <r>    9.0310    0.0000 </r>
       <r>    9.1304    0.0000 </r>
       <r>    9.1446    0.0000 </r>
       <r>    9.1632    0.0000 </r>
       <r>    9.1671    0.0000 </r>
       <r>    9.1845    0.0000 </r>
       <r>    9.2091    0.0000 </r>
       <r>    9.2094    0.0000 </r>
       <r>    9.2127    0.0000 </r>
       <r>    9.3682    0.0000 </r>
       <r>    9.4069    0.0000 </r>
       <r>    9.4128    0.0000 </r>
       <r>    9.4308    0.0000 </r>
       <r>    9.4448    0.0000 </r>
       <r>    9.4497    0.0000 </r>
       <r>    9.5847    0.0000 </r>
       <r>    9.6013    0.0000 </r>
       <r>    9.6029    0.0000 </r>
       <r>    9.6071    0.0000 </r>
       <r>    9.6080    0.0000 </r>
       <r>    9.6387    0.0000 </r>
       <r>    9.6654    0.0000 </r>
       <r>    9.7115    0.0000 </r>
       <r>    9.7122    0.0000 </r>
       <r>    9.7142    0.0000 </r>
       <r>    9.7303    0.0000 </r>
       <r>    9.7693    0.0000 </r>
       <r>    9.7870    0.0000 </r>
       <r>    9.8359    0.0000 </r>
       <r>    9.8365    0.0000 </r>
       <r>    9.9245    0.0000 </r>
       <r>    9.9268    0.0000 </r>
       <r>    9.9641    0.0000 </r>
       <r>    9.9703    0.0000 </r>
       <r>    9.9727    0.0000 </r>
       <r>   10.0349    0.0000 </r>
       <r>   10.0728    0.0000 </r>
       <r>   10.1149    0.0000 </r>
       <r>   10.1329    0.0000 </r>
       <r>   10.3107    0.0000 </r>
       <r>   10.3467    0.0000 </r>
       <r>   10.4285    0.0000 </r>
       <r>   10.4288    0.0000 </r>
       <r>   10.5257    0.0000 </r>
       <r>   10.5261    0.0000 </r>
       <r>   10.5506    0.0000 </r>
       <r>   10.5551    0.0000 </r>
       <r>   10.8973    0.0000 </r>
       <r>   10.9989    0.0000 </r>
       <r>   11.2077    0.0000 </r>
       <r>   11.2113    0.0000 </r>
       <r>   11.2939    0.0000 </r>
       <r>   11.4153    0.0000 </r>
       <r>   11.4220    0.0000 </r>
       <r>   11.4360    0.0000 </r>
       <r>   11.4697    0.0000 </r>
       <r>   11.5053    0.0000 </r>
       <r>   11.5220    0.0000 </r>
       <r>   11.5570    0.0000 </r>
       <r>   11.5702    0.0000 </r>
       <r>   11.5918    0.0000 </r>
       <r>   11.5916    0.0000 </r>
       <r>   11.6090    0.0000 </r>
       <r>   11.6409    0.0000 </r>
       <r>   11.6682    0.0000 </r>
       <r>   11.7392    0.0000 </r>
       <r>   11.7911    0.0000 </r>
       <r>   11.8514    0.0000 </r>
       <r>   11.8940    0.0000 </r>
       <r>   11.9512    0.0000 </r>
       <r>   12.0091    0.0000 </r>
       <r>   12.0547    0.0000 </r>
      </set>
      <set comment="kpoint 8">
       <r>  -17.1673    1.0000 </r>
       <r>  -15.7434    1.0000 </r>
       <r>  -15.6896    1.0000 </r>
       <r>  -15.4122    1.0000 </r>
       <r>  -15.2831    1.0000 </r>
       <r>  -15.2764    1.0000 </r>
       <r>  -15.2410    1.0000 </r>
       <r>  -15.2062    1.0000 </r>
       <r>  -15.1407    1.0000 </r>
       <r>  -15.0833    1.0000 </r>
       <r>  -15.0468    1.0000 </r>
       <r>  -15.0348    1.0000 </r>
       <r>  -15.0144    1.0000 </r>
       <r>  -14.9842    1.0000 </r>
       <r>  -14.9839    1.0000 </r>
       <r>  -14.9068    1.0000 </r>
       <r>  -14.8985    1.0000 </r>
       <r>  -14.8522    1.0000 </r>
       <r>  -14.7583    1.0000 </r>
       <r>  -14.7570    1.0000 </r>
       <r>  -14.6145    1.0000 </r>
       <r>  -14.5658    1.0000 </r>
       <r>  -14.5392    1.0000 </r>
       <r>  -14.4669    1.0000 </r>
       <r>  -14.4639    1.0000 </r>
       <r>  -14.4600    1.0000 </r>
       <r>  -14.4569    1.0000 </r>
       <r>  -14.4215    1.0000 </r>
       <r>  -14.4045    1.0000 </r>
       <r>  -14.3941    1.0000 </r>
       <r>  -14.3848    1.0000 </r>
       <r>  -14.3351    1.0000 </r>
       <r>  -14.2473    1.0000 </r>
       <r>  -14.2461    1.0000 </r>
       <r>  -14.2434    1.0000 </r>
       <r>  -14.2422    1.0000 </r>
       <r>  -14.2071    1.0000 </r>
       <r>  -14.2063    1.0000 </r>
       <r>  -14.1682    1.0000 </r>
       <r>  -14.1485    1.0000 </r>
       <r>  -14.1060    1.0000 </r>
       <r>  -14.0337    1.0000 </r>
       <r>  -13.9975    1.0000 </r>
       <r>  -13.9973    1.0000 </r>
       <r>  -13.9392    1.0000 </r>
       <r>  -13.7798    1.0000 </r>
       <r>  -13.7427    1.0000 </r>
       <r>  -13.7415    1.0000 </r>
       <r>  -13.7111    1.0000 </r>
       <r>  -13.7099    1.0000 </r>
       <r>  -13.7030    1.0000 </r>
       <r>  -13.6819    1.0000 </r>
       <r>  -13.6563    1.0000 </r>
       <r>  -13.6536    1.0000 </r>
       <r>  -13.5967    1.0000 </r>
       <r>  -13.5334    1.0000 </r>
       <r>  -13.5331    1.0000 </r>
       <r>  -13.5181    1.0000 </r>
       <r>  -13.5177    1.0000 </r>
       <r>  -13.5019    1.0000 </r>
       <r>  -13.3575    1.0000 </r>
       <r>  -13.3335    1.0000 </r>
       <r>  -13.2536    1.0000 </r>
       <r>  -13.2217    1.0000 </r>
       <r>  -13.1078    1.0000 </r>
       <r>  -13.0695    1.0000 </r>
       <r>  -13.0651    1.0000 </r>
       <r>  -13.0617    1.0000 </r>
       <r>  -13.0590    1.0000 </r>
       <r>  -13.0343    1.0000 </r>
       <r>  -13.0245    1.0000 </r>
       <r>  -13.0231    1.0000 </r>
       <r>  -13.0165    1.0000 </r>
       <r>  -12.9710    1.0000 </r>
       <r>  -12.9232    1.0000 </r>
       <r>  -12.8941    1.0000 </r>
       <r>  -12.8934    1.0000 </r>
       <r>  -12.8890    1.0000 </r>
       <r>  -12.8874    1.0000 </r>
       <r>  -12.8786    1.0000 </r>
       <r>  -12.8778    1.0000 </r>
       <r>  -12.8769    1.0000 </r>
       <r>  -12.8765    1.0000 </r>
       <r>  -12.8654    1.0000 </r>
       <r>  -12.8592    1.0000 </r>
       <r>  -12.8575    1.0000 </r>
       <r>  -12.8501    1.0000 </r>
       <r>  -12.8487    1.0000 </r>
       <r>  -12.7154    1.0000 </r>
       <r>  -12.7153    1.0000 </r>
       <r>  -12.7145    1.0000 </r>
       <r>  -12.7143    1.0000 </r>
       <r>  -12.6817    1.0000 </r>
       <r>  -12.6085    1.0000 </r>
       <r>  -12.5994    1.0000 </r>
       <r>  -12.5775    1.0000 </r>
       <r>  -12.5715    1.0000 </r>
       <r>  -12.5495    1.0000 </r>
       <r>  -12.5322    1.0000 </r>
       <r>  -12.4976    1.0000 </r>
       <r>  -12.4351    1.0000 </r>
       <r>  -12.4294    1.0000 </r>
       <r>  -12.4224    1.0000 </r>
       <r>  -12.4217    1.0000 </r>
       <r>  -12.3418    1.0000 </r>
       <r>  -12.3406    1.0000 </r>
       <r>  -12.3215    1.0000 </r>
       <r>  -12.3192    1.0000 </r>
       <r>  -12.2493    1.0000 </r>
       <r>  -12.2442    1.0000 </r>
       <r>  -12.2388    1.0000 </r>
       <r>  -12.2313    1.0000 </r>
       <r>  -12.2174    1.0000 </r>
       <r>  -12.2168    1.0000 </r>
       <r>  -12.2048    1.0000 </r>
       <r>  -12.2043    1.0000 </r>
       <r>  -12.1765    1.0000 </r>
       <r>  -12.1761    1.0000 </r>
       <r>  -12.1699    1.0000 </r>
       <r>  -12.1698    1.0000 </r>
       <r>  -12.0961    1.0000 </r>
       <r>  -12.0958    1.0000 </r>
       <r>  -12.0875    1.0000 </r>
       <r>  -12.0868    1.0000 </r>
       <r>  -12.0868    1.0000 </r>
       <r>  -12.0838    1.0000 </r>
       <r>  -11.9520    1.0000 </r>
       <r>  -11.9473    1.0000 </r>
       <r>  -11.9470    1.0000 </r>
       <r>  -11.9421    1.0000 </r>
       <r>  -11.8165    1.0000 </r>
       <r>  -11.8155    1.0000 </r>
       <r>  -11.8092    1.0000 </r>
       <r>  -11.8076    1.0000 </r>
       <r>  -11.8050    1.0000 </r>
       <r>  -11.8039    1.0000 </r>
       <r>  -11.7844    1.0000 </r>
       <r>  -11.7832    1.0000 </r>
       <r>  -11.7788    1.0000 </r>
       <r>  -11.7753    1.0000 </r>
       <r>  -11.6687    1.0000 </r>
       <r>  -11.6686    1.0000 </r>
       <r>  -11.6610    1.0000 </r>
       <r>  -11.6609    1.0000 </r>
       <r>   -8.1634    1.0000 </r>
       <r>   -7.2506    1.0000 </r>
       <r>   -7.2362    1.0000 </r>
       <r>   -6.7833    1.0000 </r>
       <r>   -6.6995    1.0000 </r>
       <r>   -6.6788    1.0000 </r>
       <r>   -6.4262    1.0000 </r>
       <r>   -6.4019    1.0000 </r>
       <r>   -6.3183    1.0000 </r>
       <r>   -6.3093    1.0000 </r>
       <r>   -6.3090    1.0000 </r>
       <r>   -6.3043    1.0000 </r>
       <r>   -6.2993    1.0000 </r>
       <r>   -6.2835    1.0000 </r>
       <r>   -6.2747    1.0000 </r>
       <r>   -6.2733    1.0000 </r>
       <r>   -6.2679    1.0000 </r>
       <r>   -6.2661    1.0000 </r>
       <r>   -6.2168    1.0000 </r>
       <r>   -6.2128    1.0000 </r>
       <r>   -6.2117    1.0000 </r>
       <r>   -6.2061    1.0000 </r>
       <r>   -6.1942    1.0000 </r>
       <r>   -6.1919    1.0000 </r>
       <r>   -6.1593    1.0000 </r>
       <r>   -6.1591    1.0000 </r>
       <r>   -6.1488    1.0000 </r>
       <r>   -6.1487    1.0000 </r>
       <r>   -6.0727    1.0000 </r>
       <r>   -6.0711    1.0000 </r>
       <r>   -5.9358    1.0000 </r>
       <r>   -5.9284    1.0000 </r>
       <r>   -5.9096    1.0000 </r>
       <r>   -5.9016    1.0000 </r>
       <r>   -5.8365    1.0000 </r>
       <r>   -5.7898    1.0000 </r>
       <r>   -5.7815    1.0000 </r>
       <r>   -5.7712    1.0000 </r>
       <r>   -5.7693    1.0000 </r>
       <r>   -5.7656    1.0000 </r>
       <r>   -5.7623    1.0000 </r>
       <r>   -5.7589    1.0000 </r>
       <r>   -5.7578    1.0000 </r>
       <r>   -5.7574    1.0000 </r>
       <r>   -5.7555    1.0000 </r>
       <r>   -5.7500    1.0000 </r>
       <r>   -5.7341    1.0000 </r>
       <r>   -5.6802    1.0000 </r>
       <r>   -5.6515    1.0000 </r>
       <r>   -5.6389    1.0000 </r>
       <r>   -5.6234    1.0000 </r>
       <r>   -5.6233    1.0000 </r>
       <r>   -5.6198    1.0000 </r>
       <r>   -5.6197    1.0000 </r>
       <r>   -5.2301    1.0000 </r>
       <r>   -5.2292    1.0000 </r>
       <r>   -5.2252    1.0000 </r>
       <r>   -5.2242    1.0000 </r>
       <r>   -5.2232    1.0000 </r>
       <r>   -5.2221    1.0000 </r>
       <r>   -5.2190    1.0000 </r>
       <r>   -5.2186    1.0000 </r>
       <r>   -5.2182    1.0000 </r>
       <r>   -5.2172    1.0000 </r>
       <r>   -5.2155    1.0000 </r>
       <r>   -5.2133    1.0000 </r>
       <r>   -5.1065    1.0000 </r>
       <r>   -5.0952    1.0000 </r>
       <r>   -5.0908    1.0000 </r>
       <r>   -5.0906    1.0000 </r>
       <r>   -5.0879    1.0000 </r>
       <r>   -5.0878    1.0000 </r>
       <r>   -5.0874    1.0000 </r>
       <r>   -5.0874    1.0000 </r>
       <r>   -5.0084    1.0000 </r>
       <r>   -4.9190    1.0000 </r>
       <r>   -4.8269    1.0000 </r>
       <r>   -4.5975    1.0000 </r>
       <r>   -4.5428    1.0000 </r>
       <r>   -4.5346    1.0000 </r>
       <r>   -4.4766    1.0000 </r>
       <r>   -4.4735    1.0000 </r>
       <r>   -4.4723    1.0000 </r>
       <r>   -4.4704    1.0000 </r>
       <r>   -4.4698    1.0000 </r>
       <r>   -4.4695    1.0000 </r>
       <r>   -4.4670    1.0000 </r>
       <r>   -4.4640    1.0000 </r>
       <r>   -4.3414    1.0000 </r>
       <r>   -4.3412    1.0000 </r>
       <r>   -4.3408    1.0000 </r>
       <r>   -4.3406    1.0000 </r>
       <r>   -4.3120    1.0000 </r>
       <r>   -4.1906    1.0000 </r>
       <r>   -4.0920    1.0000 </r>
       <r>   -4.0890    1.0000 </r>
       <r>   -4.0877    1.0000 </r>
       <r>   -4.0849    1.0000 </r>
       <r>   -4.0831    1.0000 </r>
       <r>   -4.0743    1.0000 </r>
       <r>   -4.0735    1.0000 </r>
       <r>   -4.0706    1.0000 </r>
       <r>   -4.0687    1.0000 </r>
       <r>   -4.0372    1.0000 </r>
       <r>   -4.0245    1.0000 </r>
       <r>   -3.9503    1.0000 </r>
       <r>   -3.9502    1.0000 </r>
       <r>   -3.9465    1.0000 </r>
       <r>   -3.9465    1.0000 </r>
       <r>   -3.9073    1.0000 </r>
       <r>   -3.8630    1.0000 </r>
       <r>   -3.7746    1.0000 </r>
       <r>   -3.6237    1.0000 </r>
       <r>   -3.6227    1.0000 </r>
       <r>   -3.6163    1.0000 </r>
       <r>   -3.6155    1.0000 </r>
       <r>   -3.6039    1.0000 </r>
       <r>   -3.6024    1.0000 </r>
       <r>   -3.5975    1.0000 </r>
       <r>   -3.5962    1.0000 </r>
       <r>   -3.5939    1.0000 </r>
       <r>   -3.4798    1.0000 </r>
       <r>   -3.4797    1.0000 </r>
       <r>   -3.4739    1.0000 </r>
       <r>   -3.4739    1.0000 </r>
       <r>   -3.4689    1.0000 </r>
       <r>   -3.4675    1.0000 </r>
       <r>   -3.4673    1.0000 </r>
       <r>   -3.4653    1.0000 </r>
       <r>   -3.4641    1.0000 </r>
       <r>   -3.3904    1.0000 </r>
       <r>   -3.3567    1.0000 </r>
       <r>   -3.3420    1.0000 </r>
       <r>   -3.3384    1.0000 </r>
       <r>   -3.3383    1.0000 </r>
       <r>   -3.3145    1.0000 </r>
       <r>   -3.3069    1.0000 </r>
       <r>   -3.1465    1.0000 </r>
       <r>   -3.0899    1.0000 </r>
       <r>   -3.0786    1.0000 </r>
       <r>   -3.0733    1.0000 </r>
       <r>   -3.0726    1.0000 </r>
       <r>   -3.0662    1.0000 </r>
       <r>   -3.0032    1.0000 </r>
       <r>   -2.9987    1.0000 </r>
       <r>   -2.9863    1.0000 </r>
       <r>   -2.9385    1.0000 </r>
       <r>   -2.9376    1.0000 </r>
       <r>   -2.8456    1.0000 </r>
       <r>   -2.7638    1.0000 </r>
       <r>   -2.7597    1.0000 </r>
       <r>   -2.7515    1.0000 </r>
       <r>   -2.7280    1.0000 </r>
       <r>   -2.7233    1.0000 </r>
       <r>   -2.6737    1.0000 </r>
       <r>   -2.6711    1.0000 </r>
       <r>   -2.6683    1.0000 </r>
       <r>   -2.6492    1.0000 </r>
       <r>   -2.6130    1.0000 </r>
       <r>   -2.5454    1.0000 </r>
       <r>   -2.5451    1.0000 </r>
       <r>   -2.5417    1.0000 </r>
       <r>   -2.5146    1.0000 </r>
       <r>   -2.4623    1.0000 </r>
       <r>   -2.3907    1.0000 </r>
       <r>   -2.3857    1.0000 </r>
       <r>   -2.3799    1.0000 </r>
       <r>   -2.3760    1.0000 </r>
       <r>   -2.3738    1.0000 </r>
       <r>   -2.3720    1.0000 </r>
       <r>   -2.3710    1.0000 </r>
       <r>   -2.3705    1.0000 </r>
       <r>   -2.3702    1.0000 </r>
       <r>   -2.3675    1.0000 </r>
       <r>   -2.3653    1.0000 </r>
       <r>   -2.3421    1.0000 </r>
       <r>   -2.2720    1.0000 </r>
       <r>   -2.2626    1.0000 </r>
       <r>   -2.2573    1.0000 </r>
       <r>   -2.2411    1.0000 </r>
       <r>   -2.2407    1.0000 </r>
       <r>   -2.2404    1.0000 </r>
       <r>   -2.2401    1.0000 </r>
       <r>   -2.2352    1.0000 </r>
       <r>   -2.2059    1.0000 </r>
       <r>   -2.1943    1.0000 </r>
       <r>   -2.1929    1.0000 </r>
       <r>   -2.1630    1.0000 </r>
       <r>   -2.1503    1.0000 </r>
       <r>   -2.1428    1.0000 </r>
       <r>   -2.1240    1.0000 </r>
       <r>   -2.0972    1.0000 </r>
       <r>   -2.0931    1.0000 </r>
       <r>   -2.0914    1.0000 </r>
       <r>   -2.0867    1.0000 </r>
       <r>   -2.0858    1.0000 </r>
       <r>   -2.0569    1.0000 </r>
       <r>   -2.0557    1.0000 </r>
       <r>   -2.0502    1.0000 </r>
       <r>   -2.0479    1.0000 </r>
       <r>   -2.0081    1.0000 </r>
       <r>   -1.9640    1.0000 </r>
       <r>   -1.9434    1.0000 </r>
       <r>   -1.9433    1.0000 </r>
       <r>   -1.9328    1.0000 </r>
       <r>   -1.9327    1.0000 </r>
       <r>   -1.9305    1.0000 </r>
       <r>   -1.9058    1.0000 </r>
       <r>   -1.9053    1.0000 </r>
       <r>   -1.8976    1.0000 </r>
       <r>   -1.8954    1.0000 </r>
       <r>   -1.8632    1.0000 </r>
       <r>   -1.8614    1.0000 </r>
       <r>   -1.8596    1.0000 </r>
       <r>   -1.8591    1.0000 </r>
       <r>   -1.8585    1.0000 </r>
       <r>   -1.8572    1.0000 </r>
       <r>   -1.8560    1.0000 </r>
       <r>   -1.8545    1.0000 </r>
       <r>   -1.8518    1.0000 </r>
       <r>   -1.7793    1.0000 </r>
       <r>   -1.7786    1.0000 </r>
       <r>   -1.7773    1.0000 </r>
       <r>   -1.7762    1.0000 </r>
       <r>   -1.7746    1.0000 </r>
       <r>   -1.7740    1.0000 </r>
       <r>   -1.7725    1.0000 </r>
       <r>   -1.7694    1.0000 </r>
       <r>   -1.7444    1.0000 </r>
       <r>   -1.7430    1.0000 </r>
       <r>   -1.7410    1.0000 </r>
       <r>   -1.7404    1.0000 </r>
       <r>   -1.7111    1.0000 </r>
       <r>   -1.7052    1.0000 </r>
       <r>   -1.6631    1.0000 </r>
       <r>   -1.6452    1.0000 </r>
       <r>   -1.6452    1.0000 </r>
       <r>   -1.6448    1.0000 </r>
       <r>   -1.6447    1.0000 </r>
       <r>   -1.6235    1.0000 </r>
       <r>   -1.6087    1.0000 </r>
       <r>   -1.6082    1.0000 </r>
       <r>   -1.5867    1.0000 </r>
       <r>   -1.5845    1.0000 </r>
       <r>   -1.5808    1.0000 </r>
       <r>   -1.5571    1.0000 </r>
       <r>   -1.5542    1.0000 </r>
       <r>   -1.5490    1.0000 </r>
       <r>   -1.4502    1.0000 </r>
       <r>   -1.4436    1.0000 </r>
       <r>   -1.4414    1.0000 </r>
       <r>   -1.4312    1.0000 </r>
       <r>   -1.2562    1.0000 </r>
       <r>   -1.2526    1.0000 </r>
       <r>   -1.2350    1.0000 </r>
       <r>   -1.2332    1.0000 </r>
       <r>   -1.2272    1.0000 </r>
       <r>   -1.2243    1.0000 </r>
       <r>   -1.2212    1.0000 </r>
       <r>   -1.2071    1.0000 </r>
       <r>   -1.2066    1.0000 </r>
       <r>   -1.2056    1.0000 </r>
       <r>   -1.2039    1.0000 </r>
       <r>   -1.1903    1.0000 </r>
       <r>   -1.1869    1.0000 </r>
       <r>   -1.1821    1.0000 </r>
       <r>   -1.1708    1.0000 </r>
       <r>   -1.1492    1.0000 </r>
       <r>   -1.1146    1.0000 </r>
       <r>   -1.0879    1.0000 </r>
       <r>   -1.0878    1.0000 </r>
       <r>   -1.0822    1.0000 </r>
       <r>   -1.0821    1.0000 </r>
       <r>   -1.0538    1.0000 </r>
       <r>   -1.0094    1.0000 </r>
       <r>   -0.9293    1.0000 </r>
       <r>   -0.9153    1.0000 </r>
       <r>   -0.9097    1.0000 </r>
       <r>   -0.9079    1.0000 </r>
       <r>   -0.9003    1.0000 </r>
       <r>   -0.8550    1.0000 </r>
       <r>   -0.8439    1.0000 </r>
       <r>   -0.8212    1.0000 </r>
       <r>   -0.7758    1.0000 </r>
       <r>   -0.7077    1.0000 </r>
       <r>   -0.6867    1.0000 </r>
       <r>   -0.6841    1.0000 </r>
       <r>   -0.6523    1.0000 </r>
       <r>   -0.5964    1.0000 </r>
       <r>   -0.5952    1.0000 </r>
       <r>   -0.5920    1.0000 </r>
       <r>   -0.5231    1.0000 </r>
       <r>   -0.5222    1.0000 </r>
       <r>   -0.5173    1.0000 </r>
       <r>   -0.5154    1.0000 </r>
       <r>   -0.5138    1.0000 </r>
       <r>   -0.4620    1.0000 </r>
       <r>   -0.4593    1.0000 </r>
       <r>   -0.4582    1.0000 </r>
       <r>   -0.4562    1.0000 </r>
       <r>   -0.4542    1.0000 </r>
       <r>   -0.4529    1.0000 </r>
       <r>   -0.4506    1.0000 </r>
       <r>   -0.4478    1.0000 </r>
       <r>   -0.4031    1.0000 </r>
       <r>   -0.3835    1.0000 </r>
       <r>   -0.3835    1.0000 </r>
       <r>   -0.3550    1.0000 </r>
       <r>   -0.3528    1.0000 </r>
       <r>   -0.3498    1.0000 </r>
       <r>   -0.3464    1.0000 </r>
       <r>   -0.3446    1.0000 </r>
       <r>   -0.3266    1.0000 </r>
       <r>   -0.3260    1.0000 </r>
       <r>   -0.3258    1.0000 </r>
       <r>   -0.3253    1.0000 </r>
       <r>   -0.2758    1.0000 </r>
       <r>   -0.2629    1.0000 </r>
       <r>   -0.2589    1.0000 </r>
       <r>   -0.2561    1.0000 </r>
       <r>   -0.2549    1.0000 </r>
       <r>   -0.2540    1.0000 </r>
       <r>   -0.2462    1.0000 </r>
       <r>   -0.2248    1.0000 </r>
       <r>   -0.2240    1.0000 </r>
       <r>   -0.2159    1.0000 </r>
       <r>   -0.2096    1.0000 </r>
       <r>   -0.1401    1.0000 </r>
       <r>   -0.1388    1.0000 </r>
       <r>   -0.0448    1.0000 </r>
       <r>   -0.0069    1.0000 </r>
       <r>   -0.0003    1.0000 </r>
       <r>    0.0090    1.0000 </r>
       <r>    0.0116    1.0000 </r>
       <r>    0.0183    1.0000 </r>
       <r>    0.0195    1.0000 </r>
       <r>    0.0356    1.0000 </r>
       <r>    0.0361    1.0000 </r>
       <r>    0.0741    1.0000 </r>
       <r>    0.1873    1.0000 </r>
       <r>    0.2887    1.0000 </r>
       <r>    0.3195    1.0000 </r>
       <r>    0.3430    1.0000 </r>
       <r>    0.3451    1.0000 </r>
       <r>    0.3496    1.0000 </r>
       <r>    0.3554    1.0000 </r>
       <r>    0.3746    1.0000 </r>
       <r>    0.3967    1.0000 </r>
       <r>    0.4531    1.0000 </r>
       <r>    0.4765    1.0000 </r>
       <r>    0.4774    1.0000 </r>
       <r>    0.4880    1.0000 </r>
       <r>    0.5110    1.0000 </r>
       <r>    0.5575    1.0000 </r>
       <r>    0.5601    1.0000 </r>
       <r>    0.5666    1.0000 </r>
       <r>    0.5876    1.0000 </r>
       <r>    0.5916    1.0000 </r>
       <r>    0.5963    1.0000 </r>
       <r>    0.6213    1.0000 </r>
       <r>    0.6343    1.0000 </r>
       <r>    0.6552    1.0000 </r>
       <r>    0.6938    1.0000 </r>
       <r>    0.7036    1.0000 </r>
       <r>    0.7342    1.0000 </r>
       <r>    0.7367    1.0000 </r>
       <r>    0.8511    1.0000 </r>
       <r>    0.8556    1.0000 </r>
       <r>    0.8561    1.0000 </r>
       <r>    0.8617    1.0000 </r>
       <r>    0.8651    1.0000 </r>
       <r>    0.8665    1.0000 </r>
       <r>    0.8689    1.0000 </r>
       <r>    0.8747    1.0000 </r>
       <r>    0.8752    1.0000 </r>
       <r>    0.8779    1.0000 </r>
       <r>    0.8838    1.0000 </r>
       <r>    0.8860    1.0000 </r>
       <r>    0.8965    1.0000 </r>
       <r>    0.8975    1.0000 </r>
       <r>    0.9052    1.0000 </r>
       <r>    0.9095    1.0000 </r>
       <r>    0.9935    1.0000 </r>
       <r>    1.0031    1.0000 </r>
       <r>    1.0606    1.0000 </r>
       <r>    1.0638    1.0000 </r>
       <r>    1.0785    1.0000 </r>
       <r>    1.0788    1.0000 </r>
       <r>    1.0942    1.0000 </r>
       <r>    1.0946    1.0000 </r>
       <r>    1.1095    1.0000 </r>
       <r>    1.1105    1.0000 </r>
       <r>    1.1180    1.0000 </r>
       <r>    1.2568    1.0000 </r>
       <r>    1.2623    1.0000 </r>
       <r>    1.3112    1.0000 </r>
       <r>    1.4340    1.0000 </r>
       <r>    1.4533    1.0000 </r>
       <r>    1.4571    1.0000 </r>
       <r>    1.4705    1.0000 </r>
       <r>    1.6006    1.0000 </r>
       <r>    1.6016    1.0000 </r>
       <r>    1.6057    1.0000 </r>
       <r>    1.6066    1.0000 </r>
       <r>    1.6145    1.0000 </r>
       <r>    1.6272    1.0000 </r>
       <r>    1.6581    1.0000 </r>
       <r>    1.6681    1.0000 </r>
       <r>    1.7147    1.0000 </r>
       <r>    1.7154    1.0000 </r>
       <r>    1.7690    1.0000 </r>
       <r>    1.7724    1.0000 </r>
       <r>    1.8453    1.0000 </r>
       <r>    1.8505    1.0000 </r>
       <r>    1.8535    1.0000 </r>
       <r>    1.8634    1.0000 </r>
       <r>    1.8663    1.0000 </r>
       <r>    1.8718    1.0000 </r>
       <r>    1.8792    1.0000 </r>
       <r>    1.8796    1.0000 </r>
       <r>    1.9902    1.0000 </r>
       <r>    2.0035    1.0000 </r>
       <r>    2.1900    1.0000 </r>
       <r>    2.1910    1.0000 </r>
       <r>    2.1961    1.0000 </r>
       <r>    2.2003    1.0000 </r>
       <r>    2.2079    1.0000 </r>
       <r>    2.2108    1.0000 </r>
       <r>    2.3798    1.0000 </r>
       <r>    2.3812    1.0000 </r>
       <r>    2.3894    1.0000 </r>
       <r>    2.3902    1.0000 </r>
       <r>    5.5450    0.0000 </r>
       <r>    6.6586    0.0000 </r>
       <r>    6.6748    0.0000 </r>
       <r>    6.6825    0.0000 </r>
       <r>    6.7915    0.0000 </r>
       <r>    6.8862    0.0000 </r>
       <r>    6.9411    0.0000 </r>
       <r>    7.0092    0.0000 </r>
       <r>    7.0228    0.0000 </r>
       <r>    7.0448    0.0000 </r>
       <r>    7.0557    0.0000 </r>
       <r>    7.0763    0.0000 </r>
       <r>    7.0870    0.0000 </r>
       <r>    7.1068    0.0000 </r>
       <r>    7.1155    0.0000 </r>
       <r>    7.1460    0.0000 </r>
       <r>    7.1477    0.0000 </r>
       <r>    7.2567    0.0000 </r>
       <r>    7.2654    0.0000 </r>
       <r>    7.2654    0.0000 </r>
       <r>    7.2871    0.0000 </r>
       <r>    7.2872    0.0000 </r>
       <r>    7.4417    0.0000 </r>
       <r>    7.4571    0.0000 </r>
       <r>    7.4647    0.0000 </r>
       <r>    7.4819    0.0000 </r>
       <r>    7.4897    0.0000 </r>
       <r>    7.5711    0.0000 </r>
       <r>    7.5760    0.0000 </r>
       <r>    7.6363    0.0000 </r>
       <r>    7.6475    0.0000 </r>
       <r>    7.6609    0.0000 </r>
       <r>    7.6652    0.0000 </r>
       <r>    7.6658    0.0000 </r>
       <r>    7.6675    0.0000 </r>
       <r>    7.6844    0.0000 </r>
       <r>    7.7170    0.0000 </r>
       <r>    7.7328    0.0000 </r>
       <r>    7.7363    0.0000 </r>
       <r>    7.7955    0.0000 </r>
       <r>    7.8469    0.0000 </r>
       <r>    7.8813    0.0000 </r>
       <r>    7.8997    0.0000 </r>
       <r>    7.9703    0.0000 </r>
       <r>    7.9770    0.0000 </r>
       <r>    8.0057    0.0000 </r>
       <r>    8.0072    0.0000 </r>
       <r>    8.0974    0.0000 </r>
       <r>    8.0989    0.0000 </r>
       <r>    8.1127    0.0000 </r>
       <r>    8.2083    0.0000 </r>
       <r>    8.2295    0.0000 </r>
       <r>    8.2533    0.0000 </r>
       <r>    8.2889    0.0000 </r>
       <r>    8.3393    0.0000 </r>
       <r>    8.3407    0.0000 </r>
       <r>    8.3693    0.0000 </r>
       <r>    8.4742    0.0000 </r>
       <r>    8.4830    0.0000 </r>
       <r>    8.4915    0.0000 </r>
       <r>    8.4951    0.0000 </r>
       <r>    8.4976    0.0000 </r>
       <r>    8.5089    0.0000 </r>
       <r>    8.5102    0.0000 </r>
       <r>    8.5109    0.0000 </r>
       <r>    8.5344    0.0000 </r>
       <r>    8.5688    0.0000 </r>
       <r>    8.6004    0.0000 </r>
       <r>    8.6281    0.0000 </r>
       <r>    8.7870    0.0000 </r>
       <r>    8.8298    0.0000 </r>
       <r>    8.9034    0.0000 </r>
       <r>    8.9110    0.0000 </r>
       <r>    8.9301    0.0000 </r>
       <r>    9.0003    0.0000 </r>
       <r>    9.0073    0.0000 </r>
       <r>    9.0120    0.0000 </r>
       <r>    9.0195    0.0000 </r>
       <r>    9.0208    0.0000 </r>
       <r>    9.0246    0.0000 </r>
       <r>    9.0313    0.0000 </r>
       <r>    9.1306    0.0000 </r>
       <r>    9.1445    0.0000 </r>
       <r>    9.1635    0.0000 </r>
       <r>    9.1666    0.0000 </r>
       <r>    9.1846    0.0000 </r>
       <r>    9.2092    0.0000 </r>
       <r>    9.2103    0.0000 </r>
       <r>    9.2132    0.0000 </r>
       <r>    9.3683    0.0000 </r>
       <r>    9.4066    0.0000 </r>
       <r>    9.4123    0.0000 </r>
       <r>    9.4324    0.0000 </r>
       <r>    9.4461    0.0000 </r>
       <r>    9.4497    0.0000 </r>
       <r>    9.5854    0.0000 </r>
       <r>    9.6015    0.0000 </r>
       <r>    9.6033    0.0000 </r>
       <r>    9.6070    0.0000 </r>
       <r>    9.6087    0.0000 </r>
       <r>    9.6386    0.0000 </r>
       <r>    9.6650    0.0000 </r>
       <r>    9.7114    0.0000 </r>
       <r>    9.7123    0.0000 </r>
       <r>    9.7141    0.0000 </r>
       <r>    9.7303    0.0000 </r>
       <r>    9.7694    0.0000 </r>
       <r>    9.7870    0.0000 </r>
       <r>    9.8359    0.0000 </r>
       <r>    9.8363    0.0000 </r>
       <r>    9.9246    0.0000 </r>
       <r>    9.9268    0.0000 </r>
       <r>    9.9640    0.0000 </r>
       <r>    9.9701    0.0000 </r>
       <r>    9.9726    0.0000 </r>
       <r>   10.0346    0.0000 </r>
       <r>   10.0728    0.0000 </r>
       <r>   10.1147    0.0000 </r>
       <r>   10.1328    0.0000 </r>
       <r>   10.3098    0.0000 </r>
       <r>   10.3465    0.0000 </r>
       <r>   10.4281    0.0000 </r>
       <r>   10.4285    0.0000 </r>
       <r>   10.5254    0.0000 </r>
       <r>   10.5259    0.0000 </r>
       <r>   10.5502    0.0000 </r>
       <r>   10.5553    0.0000 </r>
       <r>   10.8981    0.0000 </r>
       <r>   11.0001    0.0000 </r>
       <r>   11.2081    0.0000 </r>
       <r>   11.2113    0.0000 </r>
       <r>   11.2962    0.0000 </r>
       <r>   11.4123    0.0000 </r>
       <r>   11.4176    0.0000 </r>
       <r>   11.4325    0.0000 </r>
       <r>   11.4473    0.0000 </r>
       <r>   11.5151    0.0000 </r>
       <r>   11.5424    0.0000 </r>
       <r>   11.5561    0.0000 </r>
       <r>   11.5799    0.0000 </r>
       <r>   11.5886    0.0000 </r>
       <r>   11.5963    0.0000 </r>
       <r>   11.6128    0.0000 </r>
       <r>   11.6492    0.0000 </r>
       <r>   11.6680    0.0000 </r>
       <r>   11.7417    0.0000 </r>
       <r>   11.8264    0.0000 </r>
       <r>   11.8733    0.0000 </r>
       <r>   11.9228    0.0000 </r>
       <r>   11.9582    0.0000 </r>
       <r>   11.9757    0.0000 </r>
       <r>   12.0283    0.0000 </r>
      </set>
     </set>
    </set>
   </array>
  </eigenvalues>
  <separator name="orbital magnetization" >
   <v name="MAGDIPOLOUT">      0.00000000      0.00000000      0.00000000</v>
  </separator>
  <dos>
   <i name="efermi">      2.78566327 </i>
   <total>
    <array>
     <dimension dim="1">gridpoints</dimension>
     <dimension dim="2">spin</dimension>
     <field>energy</field>
     <field>total</field>
     <field>integrated</field>
     <set>
      <set comment="spin 1">
       <r>   -18.7795     0.0000     0.0000 </r>
       <r>   -18.6706     0.0000     0.0000 </r>
       <r>   -18.5618     0.0000     0.0000 </r>
       <r>   -18.4529     0.0000     0.0000 </r>
       <r>   -18.3441     0.0000     0.0000 </r>
       <r>   -18.2352     0.0000     0.0000 </r>
       <r>   -18.1264     0.0000     0.0000 </r>
       <r>   -18.0176     0.0000     0.0000 </r>
       <r>   -17.9087     0.0000     0.0000 </r>
       <r>   -17.7999     0.0000     0.0000 </r>
       <r>   -17.6910     0.0000     0.0000 </r>
       <r>   -17.5822     0.0000     0.0000 </r>
       <r>   -17.4733     0.0000     0.0000 </r>
       <r>   -17.3645     0.4555     0.0496 </r>
       <r>   -17.2556    15.4861     1.7352 </r>
       <r>   -17.1468     2.4326     2.0000 </r>
       <r>   -17.0379     0.0003     2.0000 </r>
       <r>   -16.9291     0.0000     2.0000 </r>
       <r>   -16.8202     0.0000     2.0000 </r>
       <r>   -16.7114     0.0000     2.0000 </r>
       <r>   -16.6026     0.0000     2.0000 </r>
       <r>   -16.4937     0.0000     2.0000 </r>
       <r>   -16.3849     0.0000     2.0000 </r>
       <r>   -16.2760     0.0000     2.0000 </r>
       <r>   -16.1672     0.0000     2.0000 </r>
       <r>   -16.0583     0.0000     2.0000 </r>
       <r>   -15.9495     0.0000     2.0000 </r>
       <r>   -15.8406     0.4827     2.0525 </r>
       <r>   -15.7318    22.1206     4.4603 </r>
       <r>   -15.6229    14.5032     6.0389 </r>
       <r>   -15.5141     4.0868     6.4837 </r>
       <r>   -15.4052    10.4113     7.6169 </r>
       <r>   -15.2964    23.8287    10.2106 </r>
       <r>   -15.1876    44.6972    15.0757 </r>
       <r>   -15.0787    44.3046    19.8981 </r>
       <r>   -14.9699    56.0227    25.9960 </r>
       <r>   -14.8610    60.6935    32.6022 </r>
       <r>   -14.7522    61.7436    39.3228 </r>
       <r>   -14.6433    36.8772    43.3367 </r>
       <r>   -14.5345    54.2523    49.2419 </r>
       <r>   -14.4256    68.9412    56.7458 </r>
       <r>   -14.3168    60.6942    63.3522 </r>
       <r>   -14.2079    74.8579    71.5002 </r>
       <r>   -14.0991    59.4447    77.9705 </r>
       <r>   -13.9902    34.7804    81.7562 </r>
       <r>   -13.8814    36.8337    85.7654 </r>
       <r>   -13.7726    68.3997    93.2105 </r>
       <r>   -13.6637   110.6668   105.2561 </r>
       <r>   -13.5549    68.1924   112.6786 </r>
       <r>   -13.4460    58.7680   119.0753 </r>
       <r>   -13.3372    63.2473   125.9595 </r>
       <r>   -13.2283    50.2368   131.4276 </r>
       <r>   -13.1195    41.2334   135.9157 </r>
       <r>   -13.0106    96.8757   146.4602 </r>
       <r>   -12.9018    86.4474   155.8697 </r>
       <r>   -12.7929   151.7477   172.3868 </r>
       <r>   -12.6841    59.0566   178.8149 </r>
       <r>   -12.5752    70.9174   186.5340 </r>
       <r>   -12.4664    83.0358   195.5721 </r>
       <r>   -12.3576    75.1675   203.7538 </r>
       <r>   -12.2487   161.2091   221.3008 </r>
       <r>   -12.1399   202.2014   243.3096 </r>
       <r>   -12.0310   119.7193   256.3406 </r>
       <r>   -11.9222    56.1144   262.4485 </r>
       <r>   -11.8133    61.8848   269.1844 </r>
       <r>   -11.7045    96.4939   279.6874 </r>
       <r>   -11.5956    56.1949   285.8040 </r>
       <r>   -11.4868    13.7666   287.3024 </r>
       <r>   -11.3779     6.3621   287.9949 </r>
       <r>   -11.2691     0.0469   288.0000 </r>
       <r>   -11.1602     0.0000   288.0000 </r>
       <r>   -11.0514     0.0000   288.0000 </r>
       <r>   -10.9426     0.0000   288.0000 </r>
       <r>   -10.8337     0.0000   288.0000 </r>
       <r>   -10.7249     0.0000   288.0000 </r>
       <r>   -10.6160     0.0000   288.0000 </r>
       <r>   -10.5072     0.0000   288.0000 </r>
       <r>   -10.3983     0.0000   288.0000 </r>
       <r>   -10.2895     0.0000   288.0000 </r>
       <r>   -10.1806     0.0000   288.0000 </r>
       <r>   -10.0718     0.0000   288.0000 </r>
       <r>    -9.9629     0.0000   288.0000 </r>
       <r>    -9.8541     0.0000   288.0000 </r>
       <r>    -9.7452     0.0000   288.0000 </r>
       <r>    -9.6364     0.0000   288.0000 </r>
       <r>    -9.5276     0.0000   288.0000 </r>
       <r>    -9.4187     0.0000   288.0000 </r>
       <r>    -9.3099     0.0000   288.0000 </r>
       <r>    -9.2010     0.0000   288.0000 </r>
       <r>    -9.0922     0.0000   288.0000 </r>
       <r>    -8.9833     0.0000   288.0000 </r>
       <r>    -8.8745     0.0000   288.0000 </r>
       <r>    -8.7656     0.0000   288.0000 </r>
       <r>    -8.6568     0.0000   288.0000 </r>
       <r>    -8.5479     0.0000   288.0000 </r>
       <r>    -8.4391     0.3882   288.0423 </r>
       <r>    -8.3302    15.1731   289.6938 </r>
       <r>    -8.2214     2.8128   290.0000 </r>
       <r>    -8.1126     0.0004   290.0000 </r>
       <r>    -8.0037     0.0000   290.0000 </r>
       <r>    -7.8949     0.0000   290.0000 </r>
       <r>    -7.7860     0.0000   290.0000 </r>
       <r>    -7.6772     0.0000   290.0000 </r>
       <r>    -7.5683     0.0000   290.0000 </r>
       <r>    -7.4595     0.0011   290.0001 </r>
       <r>    -7.3506     3.1540   290.3434 </r>
       <r>    -7.2418    29.2528   293.5275 </r>
       <r>    -7.1329     4.3404   293.9999 </r>
       <r>    -7.0241     0.0007   294.0000 </r>
       <r>    -6.9152     0.0041   294.0004 </r>
       <r>    -6.8064     5.0160   294.5464 </r>
       <r>    -6.6976    21.4623   296.8825 </r>
       <r>    -6.5887    22.6857   299.3518 </r>
       <r>    -6.4799    34.6309   303.1212 </r>
       <r>    -6.3710    41.9222   307.6843 </r>
       <r>    -6.2622   122.6669   321.0361 </r>
       <r>    -6.1533   132.8114   335.4921 </r>
       <r>    -6.0445    66.1674   342.6942 </r>
       <r>    -5.9356    41.0220   347.1593 </r>
       <r>    -5.8268    61.4946   353.8527 </r>
       <r>    -5.7179   172.2446   372.6009 </r>
       <r>    -5.6091   175.2344   391.6744 </r>
       <r>    -5.5002    90.3468   401.5083 </r>
       <r>    -5.3914    12.8592   402.9080 </r>
       <r>    -5.2826    13.3079   404.3565 </r>
       <r>    -5.1737   150.9530   420.7872 </r>
       <r>    -5.0649   109.2619   432.6799 </r>
       <r>    -4.9560    42.5829   437.3149 </r>
       <r>    -4.8472    27.8566   440.3470 </r>
       <r>    -4.7383    21.2855   442.6638 </r>
       <r>    -4.6295    15.7631   444.3796 </r>
       <r>    -4.5206    50.3383   449.8587 </r>
       <r>    -4.4118   151.8881   466.3911 </r>
       <r>    -4.3029    95.4574   476.7813 </r>
       <r>    -4.1941    33.1721   480.3920 </r>
       <r>    -4.0852    63.8491   487.3417 </r>
       <r>    -3.9764    96.5832   497.8544 </r>
       <r>    -3.8676    69.8885   505.4615 </r>
       <r>    -3.7587    23.1588   507.9822 </r>
       <r>    -3.6499    28.6797   511.1039 </r>
       <r>    -3.5410   121.7521   524.3561 </r>
       <r>    -3.4322   129.0014   538.3975 </r>
       <r>    -3.3233    81.8975   547.3117 </r>
       <r>    -3.2145    41.3083   551.8079 </r>
       <r>    -3.1056    74.7750   559.9469 </r>
       <r>    -2.9968   117.5131   572.7377 </r>
       <r>    -2.8879   140.3262   588.0117 </r>
       <r>    -2.7791   121.1669   601.2002 </r>
       <r>    -2.6702   127.4716   615.0750 </r>
       <r>    -2.5614    52.7048   620.8117 </r>
       <r>    -2.4526    64.0145   627.7795 </r>
       <r>    -2.3437   150.3577   644.1453 </r>
       <r>    -2.2349   125.3176   657.7857 </r>
       <r>    -2.1260   115.4945   670.3568 </r>
       <r>    -2.0172   148.6037   686.5317 </r>
       <r>    -1.9083   130.8675   700.7762 </r>
       <r>    -1.7995   179.8613   720.3534 </r>
       <r>    -1.6906   193.3569   741.3995 </r>
       <r>    -1.5818   187.5679   761.8155 </r>
       <r>    -1.4729   170.3440   780.3568 </r>
       <r>    -1.3641   102.7719   791.5432 </r>
       <r>    -1.2552    77.6698   799.9972 </r>
       <r>    -1.1464   190.3025   820.7109 </r>
       <r>    -1.0376   131.4090   835.0143 </r>
       <r>    -0.9287    83.6548   844.1198 </r>
       <r>    -0.8199   110.1041   856.1042 </r>
       <r>    -0.7110   110.7960   868.1639 </r>
       <r>    -0.6022   103.5383   879.4336 </r>
       <r>    -0.4933    77.8770   887.9102 </r>
       <r>    -0.3845   172.4161   906.6771 </r>
       <r>    -0.2756   181.9768   926.4846 </r>
       <r>    -0.1668    99.5498   937.3202 </r>
       <r>    -0.0579    46.8549   942.4201 </r>
       <r>     0.0509    82.1704   951.3641 </r>
       <r>     0.1598    50.9218   956.9067 </r>
       <r>     0.2686   125.9742   970.6185 </r>
       <r>     0.3774   128.7426   984.6317 </r>
       <r>     0.4863   111.5125   996.7694 </r>
       <r>     0.5951   100.5888  1007.7181 </r>
       <r>     0.7040    96.2332  1018.1927 </r>
       <r>     0.8128    71.3944  1025.9637 </r>
       <r>     0.9217   153.6250  1042.6852 </r>
       <r>     1.0305    92.4147  1052.7442 </r>
       <r>     1.1394    93.9496  1062.9702 </r>
       <r>     1.2482    81.0641  1071.7937 </r>
       <r>     1.3571    88.4841  1081.4249 </r>
       <r>     1.4659    70.1694  1089.0625 </r>
       <r>     1.5748    57.6785  1095.3406 </r>
       <r>     1.6836    74.1672  1103.4134 </r>
       <r>     1.7924    58.6299  1109.7951 </r>
       <r>     1.9013   115.4304  1122.3592 </r>
       <r>     2.0101    81.7384  1131.2561 </r>
       <r>     2.1190    48.4047  1136.5248 </r>
       <r>     2.2278    44.1836  1141.3340 </r>
       <r>     2.3367    22.5101  1143.7841 </r>
       <r>     2.4455    61.4773  1150.4757 </r>
       <r>     2.5544    13.3591  1151.9298 </r>
       <r>     2.6632     0.6449  1152.0000 </r>
       <r>     2.7721     0.0000  1152.0000 </r>
       <r>     2.8809     0.0000  1152.0000 </r>
       <r>     2.9897     0.0000  1152.0000 </r>
       <r>     3.0986     0.0000  1152.0000 </r>
       <r>     3.2074     0.0000  1152.0000 </r>
       <r>     3.3163     0.0000  1152.0000 </r>
       <r>     3.4251     0.0000  1152.0000 </r>
       <r>     3.5340     0.0000  1152.0000 </r>
       <r>     3.6428     0.0000  1152.0000 </r>
       <r>     3.7517     0.0000  1152.0000 </r>
       <r>     3.8605     0.0000  1152.0000 </r>
       <r>     3.9694     0.0000  1152.0000 </r>
       <r>     4.0782     0.0000  1152.0000 </r>
       <r>     4.1871     0.0000  1152.0000 </r>
       <r>     4.2959     0.0000  1152.0000 </r>
       <r>     4.4047     0.0000  1152.0000 </r>
       <r>     4.5136     0.0004  1152.0000 </r>
       <r>     4.6224     2.8516  1152.3104 </r>
       <r>     4.7313    15.1534  1153.9598 </r>
       <r>     4.8401     0.3692  1154.0000 </r>
       <r>     4.9490     0.0000  1154.0000 </r>
       <r>     5.0578     0.0000  1154.0000 </r>
       <r>     5.1667     0.0000  1154.0000 </r>
       <r>     5.2755     0.0000  1154.0000 </r>
       <r>     5.3844     0.0000  1154.0000 </r>
       <r>     5.4932     0.0000  1154.0000 </r>
       <r>     5.6021     0.0000  1154.0000 </r>
       <r>     5.7109     0.0000  1154.0000 </r>
       <r>     5.8197     0.3962  1154.0431 </r>
       <r>     5.9286    13.7131  1155.5357 </r>
       <r>     6.0374     4.2621  1155.9997 </r>
       <r>     6.1463     0.0031  1156.0000 </r>
       <r>     6.2551     0.0000  1156.0000 </r>
       <r>     6.3640     0.0029  1156.0003 </r>
       <r>     6.4728     3.3490  1156.3648 </r>
       <r>     6.5817    11.0752  1157.5703 </r>
       <r>     6.6905    38.1052  1161.7179 </r>
       <r>     6.7994     7.4475  1162.5285 </r>
       <r>     6.9082    20.8691  1164.8001 </r>
       <r>     7.0171    37.9485  1168.9306 </r>
       <r>     7.1259    69.8168  1176.5299 </r>
       <r>     7.2347    65.6457  1183.6752 </r>
       <r>     7.3436   100.3800  1194.6012 </r>
       <r>     7.4524    95.7932  1205.0279 </r>
       <r>     7.5613    47.3234  1210.1788 </r>
       <r>     7.6701    66.2542  1217.3904 </r>
       <r>     7.7790    92.9205  1227.5044 </r>
       <r>     7.8878    86.5582  1236.9259 </r>
       <r>     7.9967    84.7494  1246.1506 </r>
       <r>     8.1055    49.8917  1251.5811 </r>
       <r>     8.2144    74.4756  1259.6875 </r>
       <r>     8.3232    74.3329  1267.7783 </r>
       <r>     8.4321    56.8594  1273.9672 </r>
       <r>     8.5409    83.0573  1283.0077 </r>
       <r>     8.6497    67.3421  1290.3376 </r>
       <r>     8.7586    47.3769  1295.4944 </r>
       <r>     8.8674    23.0024  1297.9981 </r>
       <r>     8.9763    45.5053  1302.9512 </r>
       <r>     9.0851    70.3593  1310.6095 </r>
       <r>     9.1940    69.6086  1318.1862 </r>
       <r>     9.3028    99.4821  1329.0144 </r>
       <r>     9.4117    69.4611  1336.5750 </r>
       <r>     9.5205    42.4731  1341.1980 </r>
       <r>     9.6294    66.1363  1348.3967 </r>
       <r>     9.7382    71.5175  1356.1811 </r>
       <r>     9.8471    40.4504  1360.5840 </r>
       <r>     9.9559    39.1146  1364.8414 </r>
       <r>    10.0647    45.1102  1369.7515 </r>
       <r>    10.1736    84.9056  1378.9932 </r>
       <r>    10.2824    62.9858  1385.8489 </r>
       <r>    10.3913    56.5482  1392.0040 </r>
       <r>    10.5001    72.9119  1399.9401 </r>
       <r>    10.6090    64.9301  1407.0075 </r>
       <r>    10.7178    42.5555  1411.6395 </r>
       <r>    10.8267    73.2680  1419.6145 </r>
       <r>    10.9355    36.9903  1423.6407 </r>
       <r>    11.0444    14.4182  1425.2101 </r>
       <r>    11.1532     1.2323  1425.3442 </r>
       <r>    11.2621    23.2979  1427.8801 </r>
       <r>    11.3709    18.9013  1429.9374 </r>
       <r>    11.4797    34.0775  1433.6466 </r>
       <r>    11.5886    49.2389  1439.0061 </r>
       <r>    11.6974    53.5391  1444.8336 </r>
       <r>    11.8063    46.3597  1449.8797 </r>
       <r>    11.9151    28.4662  1452.9781 </r>
       <r>    12.0240    14.4715  1454.5533 </r>
       <r>    12.1328     7.9149  1455.4148 </r>
       <r>    12.2417     1.6024  1455.5892 </r>
       <r>    12.3505     1.7713  1455.7820 </r>
       <r>    12.4594     1.9450  1455.9937 </r>
       <r>    12.5682     0.0575  1456.0000 </r>
       <r>    12.6771     0.0000  1456.0000 </r>
       <r>    12.7859     0.0000  1456.0000 </r>
       <r>    12.8947     0.0000  1456.0000 </r>
       <r>    13.0036     0.0000  1456.0000 </r>
       <r>    13.1124     0.0000  1456.0000 </r>
       <r>    13.2213     0.0000  1456.0000 </r>
       <r>    13.3301     0.0000  1456.0000 </r>
       <r>    13.4390     0.0000  1456.0000 </r>
       <r>    13.5478     0.0000  1456.0000 </r>
       <r>    13.6567     0.0000  1456.0000 </r>
       <r>    13.7655     0.0000  1456.0000 </r>
       <r>    13.8744     0.0000  1456.0000 </r>
      </set>
      <set comment="spin 2">
       <r>   -18.7795     0.0000     0.0000 </r>
       <r>   -18.6706     0.0000     0.0000 </r>
       <r>   -18.5618     0.0000     0.0000 </r>
       <r>   -18.4529     0.0000     0.0000 </r>
       <r>   -18.3441     0.0000     0.0000 </r>
       <r>   -18.2352     0.0000     0.0000 </r>
       <r>   -18.1264     0.0000     0.0000 </r>
       <r>   -18.0176     0.0000     0.0000 </r>
       <r>   -17.9087     0.0000     0.0000 </r>
       <r>   -17.7999     0.0000     0.0000 </r>
       <r>   -17.6910     0.0000     0.0000 </r>
       <r>   -17.5822     0.0000     0.0000 </r>
       <r>   -17.4733     0.0000     0.0000 </r>
       <r>   -17.3645     0.0000     0.0000 </r>
       <r>   -17.2556     0.1156     0.0126 </r>
       <r>   -17.1468    13.1166     1.4403 </r>
       <r>   -17.0379     5.1401     1.9997 </r>
       <r>   -16.9291     0.0023     2.0000 </r>
       <r>   -16.8202     0.0000     2.0000 </r>
       <r>   -16.7114     0.0000     2.0000 </r>
       <r>   -16.6026     0.0000     2.0000 </r>
       <r>   -16.4937     0.0000     2.0000 </r>
       <r>   -16.3849     0.0000     2.0000 </r>
       <r>   -16.2760     0.0000     2.0000 </r>
       <r>   -16.1672     0.0000     2.0000 </r>
       <r>   -16.0583     0.0000     2.0000 </r>
       <r>   -15.9495     0.0000     2.0000 </r>
       <r>   -15.8406     0.0421     2.0046 </r>
       <r>   -15.7318    10.8196     3.1823 </r>
       <r>   -15.6229    25.1941     5.9245 </r>
       <r>   -15.5141     5.0455     6.4737 </r>
       <r>   -15.4052     9.7213     7.5319 </r>
       <r>   -15.2964    21.4830     9.8702 </r>
       <r>   -15.1876    46.9964    14.9856 </r>
       <r>   -15.0787    42.1302    19.5713 </r>
       <r>   -14.9699    58.5910    25.9487 </r>
       <r>   -14.8610    59.8449    32.4626 </r>
       <r>   -14.7522    61.6074    39.1683 </r>
       <r>   -14.6433    37.4090    43.2401 </r>
       <r>   -14.5345    52.4591    48.9501 </r>
       <r>   -14.4256    70.8321    56.6599 </r>
       <r>   -14.3168    60.3380    63.2274 </r>
       <r>   -14.2079    75.3495    71.4289 </r>
       <r>   -14.0991    59.0683    77.8583 </r>
       <r>   -13.9902    35.0180    81.6699 </r>
       <r>   -13.8814    36.8193    85.6775 </r>
       <r>   -13.7726    67.5079    93.0255 </r>
       <r>   -13.6637   111.6818   105.1816 </r>
       <r>   -13.5549    68.1027   112.5943 </r>
       <r>   -13.4460    59.3080   119.0498 </r>
       <r>   -13.3372    62.1981   125.8198 </r>
       <r>   -13.2283    50.6543   131.3333 </r>
       <r>   -13.1195    41.6905   135.8712 </r>
       <r>   -13.0106    96.6752   146.3939 </r>
       <r>   -12.9018    85.3594   155.6849 </r>
       <r>   -12.7929   153.2075   172.3610 </r>
       <r>   -12.6841    58.7270   178.7532 </r>
       <r>   -12.5752    70.9965   186.4809 </r>
       <r>   -12.4664    82.8718   195.5012 </r>
       <r>   -12.3576    75.3312   203.7007 </r>
       <r>   -12.2487   161.4769   221.2768 </r>
       <r>   -12.1399   202.1142   243.2761 </r>
       <r>   -12.0310   119.9041   256.3272 </r>
       <r>   -11.9222    56.0671   262.4299 </r>
       <r>   -11.8133    61.8983   269.1673 </r>
       <r>   -11.7045    96.6382   279.6860 </r>
       <r>   -11.5956    56.1739   285.8003 </r>
       <r>   -11.4868    13.7978   287.3021 </r>
       <r>   -11.3779     6.3644   287.9949 </r>
       <r>   -11.2691     0.0470   288.0000 </r>
       <r>   -11.1602     0.0000   288.0000 </r>
       <r>   -11.0514     0.0000   288.0000 </r>
       <r>   -10.9426     0.0000   288.0000 </r>
       <r>   -10.8337     0.0000   288.0000 </r>
       <r>   -10.7249     0.0000   288.0000 </r>
       <r>   -10.6160     0.0000   288.0000 </r>
       <r>   -10.5072     0.0000   288.0000 </r>
       <r>   -10.3983     0.0000   288.0000 </r>
       <r>   -10.2895     0.0000   288.0000 </r>
       <r>   -10.1806     0.0000   288.0000 </r>
       <r>   -10.0718     0.0000   288.0000 </r>
       <r>    -9.9629     0.0000   288.0000 </r>
       <r>    -9.8541     0.0000   288.0000 </r>
       <r>    -9.7452     0.0000   288.0000 </r>
       <r>    -9.6364     0.0000   288.0000 </r>
       <r>    -9.5276     0.0000   288.0000 </r>
       <r>    -9.4187     0.0000   288.0000 </r>
       <r>    -9.3099     0.0000   288.0000 </r>
       <r>    -9.2010     0.0000   288.0000 </r>
       <r>    -9.0922     0.0000   288.0000 </r>
       <r>    -8.9833     0.0000   288.0000 </r>
       <r>    -8.8745     0.0000   288.0000 </r>
       <r>    -8.7656     0.0000   288.0000 </r>
       <r>    -8.6568     0.0000   288.0000 </r>
       <r>    -8.5479     0.0000   288.0000 </r>
       <r>    -8.4391     0.0000   288.0000 </r>
       <r>    -8.3302     0.0001   288.0000 </r>
       <r>    -8.2214     1.1917   288.1297 </r>
       <r>    -8.1126    15.9958   289.8708 </r>
       <r>    -8.0037     1.1870   290.0000 </r>
       <r>    -7.8949     0.0000   290.0000 </r>
       <r>    -7.7860     0.0000   290.0000 </r>
       <r>    -7.6772     0.0000   290.0000 </r>
       <r>    -7.5683     0.0000   290.0000 </r>
       <r>    -7.4595     0.0000   290.0000 </r>
       <r>    -7.3506     0.7257   290.0790 </r>
       <r>    -7.2418    22.2572   292.5016 </r>
       <r>    -7.1329    13.7359   293.9967 </r>
       <r>    -7.0241     0.0303   294.0000 </r>
       <r>    -6.9152     0.0013   294.0001 </r>
       <r>    -6.8064     3.5630   294.3880 </r>
       <r>    -6.6976    21.4392   296.7215 </r>
       <r>    -6.5887    22.4873   299.1692 </r>
       <r>    -6.4799    34.1081   302.8817 </r>
       <r>    -6.3710    42.7208   307.5317 </r>
       <r>    -6.2622   122.5424   320.8700 </r>
       <r>    -6.1533   133.7816   335.4316 </r>
       <r>    -6.0445    66.3561   342.6542 </r>
       <r>    -5.9356    41.1813   347.1366 </r>
       <r>    -5.8268    60.1386   353.6825 </r>
       <r>    -5.7179   171.5032   372.3499 </r>
       <r>    -5.6091   176.9507   391.6103 </r>
       <r>    -5.5002    90.9293   401.5076 </r>
       <r>    -5.3914    12.4458   402.8623 </r>
       <r>    -5.2826    13.1712   404.2959 </r>
       <r>    -5.1737   149.9540   420.6179 </r>
       <r>    -5.0649   107.6618   432.3364 </r>
       <r>    -4.9560    44.3558   437.1644 </r>
       <r>    -4.8472    28.3344   440.2485 </r>
       <r>    -4.7383    22.1067   442.6547 </r>
       <r>    -4.6295    13.9489   444.1730 </r>
       <r>    -4.5206    49.6582   449.5781 </r>
       <r>    -4.4118   154.2442   466.3670 </r>
       <r>    -4.3029    84.7204   475.5885 </r>
       <r>    -4.1941    24.1976   478.2223 </r>
       <r>    -4.0852    71.2164   485.9739 </r>
       <r>    -3.9764   107.5290   497.6780 </r>
       <r>    -3.8676    70.5581   505.3580 </r>
       <r>    -3.7587    22.0751   507.7608 </r>
       <r>    -3.6499    27.0237   510.7022 </r>
       <r>    -3.5410   121.9614   523.9772 </r>
       <r>    -3.4322   127.9820   537.9076 </r>
       <r>    -3.3233    79.1358   546.5212 </r>
       <r>    -3.2145    46.4455   551.5766 </r>
       <r>    -3.1056    70.4614   559.2461 </r>
       <r>    -2.9968   122.3366   572.5619 </r>
       <r>    -2.8879   138.3563   587.6215 </r>
       <r>    -2.7791   111.9120   599.8027 </r>
       <r>    -2.6702   135.7064   614.5738 </r>
       <r>    -2.5614    54.6689   620.5243 </r>
       <r>    -2.4526    63.7179   627.4597 </r>
       <r>    -2.3437   149.2987   643.7103 </r>
       <r>    -2.2349   125.3560   657.3548 </r>
       <r>    -2.1260   117.2752   670.1198 </r>
       <r>    -2.0172   141.4370   685.5146 </r>
       <r>    -1.9083   130.4666   699.7154 </r>
       <r>    -1.7995   184.1127   719.7554 </r>
       <r>    -1.6906   192.4904   740.7072 </r>
       <r>    -1.5818   191.4411   761.5448 </r>
       <r>    -1.4729   169.5855   780.0036 </r>
       <r>    -1.3641   103.0841   791.2239 </r>
       <r>    -1.2552    76.0156   799.4979 </r>
       <r>    -1.1464   189.9146   820.1693 </r>
       <r>    -1.0376   131.8637   834.5222 </r>
       <r>    -0.9287    78.1124   843.0244 </r>
       <r>    -0.8199   117.6453   855.8297 </r>
       <r>    -0.7110   105.4394   867.3063 </r>
       <r>    -0.6022   107.1505   878.9693 </r>
       <r>    -0.4933    79.5796   887.6312 </r>
       <r>    -0.3845   168.1528   905.9340 </r>
       <r>    -0.2756   186.1382   926.1944 </r>
       <r>    -0.1668   101.0419   937.1924 </r>
       <r>    -0.0579    46.4056   942.2435 </r>
       <r>     0.0509    76.2244   950.5402 </r>
       <r>     0.1598    55.1698   956.5453 </r>
       <r>     0.2686   126.2076   970.2825 </r>
       <r>     0.3774   125.5805   983.9514 </r>
       <r>     0.4863   113.4087   996.2955 </r>
       <r>     0.5951   101.7297  1007.3684 </r>
       <r>     0.7040    95.9858  1017.8161 </r>
       <r>     0.8128    73.5546  1025.8222 </r>
       <r>     0.9217   153.4127  1042.5206 </r>
       <r>     1.0305    92.0234  1052.5370 </r>
       <r>     1.1394    93.6683  1062.7324 </r>
       <r>     1.2482    79.4216  1071.3771 </r>
       <r>     1.3571    91.3144  1081.3164 </r>
       <r>     1.4659    68.8852  1088.8143 </r>
       <r>     1.5748    57.5374  1095.0770 </r>
       <r>     1.6836    75.7120  1103.3179 </r>
       <r>     1.7924    58.5568  1109.6916 </r>
       <r>     1.9013   115.6817  1122.2831 </r>
       <r>     2.0101    81.3212  1131.1346 </r>
       <r>     2.1190    49.3113  1136.5020 </r>
       <r>     2.2278    43.8452  1141.2744 </r>
       <r>     2.3367    22.7406  1143.7496 </r>
       <r>     2.4455    61.6304  1150.4578 </r>
       <r>     2.5544    13.5203  1151.9294 </r>
       <r>     2.6632     0.6482  1152.0000 </r>
       <r>     2.7721     0.0000  1152.0000 </r>
       <r>     2.8809     0.0000  1152.0000 </r>
       <r>     2.9897     0.0000  1152.0000 </r>
       <r>     3.0986     0.0000  1152.0000 </r>
       <r>     3.2074     0.0000  1152.0000 </r>
       <r>     3.3163     0.0000  1152.0000 </r>
       <r>     3.4251     0.0000  1152.0000 </r>
       <r>     3.5340     0.0000  1152.0000 </r>
       <r>     3.6428     0.0000  1152.0000 </r>
       <r>     3.7517     0.0000  1152.0000 </r>
       <r>     3.8605     0.0000  1152.0000 </r>
       <r>     3.9694     0.0000  1152.0000 </r>
       <r>     4.0782     0.0000  1152.0000 </r>
       <r>     4.1871     0.0000  1152.0000 </r>
       <r>     4.2959     0.0000  1152.0000 </r>
       <r>     4.4047     0.0000  1152.0000 </r>
       <r>     4.5136     0.0000  1152.0000 </r>
       <r>     4.6224     0.0000  1152.0000 </r>
       <r>     4.7313     0.0000  1152.0000 </r>
       <r>     4.8401     0.0000  1152.0000 </r>
       <r>     4.9490     0.0000  1152.0000 </r>
       <r>     5.0578     0.0000  1152.0000 </r>
       <r>     5.1667     0.0000  1152.0000 </r>
       <r>     5.2755     0.0000  1152.0000 </r>
       <r>     5.3844     0.0000  1152.0000 </r>
       <r>     5.4932     1.1149  1152.1214 </r>
       <r>     5.6021    16.0679  1153.8703 </r>
       <r>     5.7109     1.1917  1154.0000 </r>
       <r>     5.8197     0.0000  1154.0000 </r>
       <r>     5.9286     0.0000  1154.0000 </r>
       <r>     6.0374     0.0000  1154.0000 </r>
       <r>     6.1463     0.0000  1154.0000 </r>
       <r>     6.2551     0.0000  1154.0000 </r>
       <r>     6.3640     0.0000  1154.0000 </r>
       <r>     6.4728     0.7076  1154.0770 </r>
       <r>     6.5817     8.2308  1154.9729 </r>
       <r>     6.6905    29.2939  1158.1614 </r>
       <r>     6.7994    35.8526  1162.0639 </r>
       <r>     6.9082    23.0818  1164.5762 </r>
       <r>     7.0171    35.8572  1168.4791 </r>
       <r>     7.1259    70.8323  1176.1890 </r>
       <r>     7.2347    63.8027  1183.1336 </r>
       <r>     7.3436   101.1548  1194.1439 </r>
       <r>     7.4524    93.3261  1204.3021 </r>
       <r>     7.5613    51.9383  1209.9554 </r>
       <r>     7.6701    64.2823  1216.9523 </r>
       <r>     7.7790    93.1757  1227.0941 </r>
       <r>     7.8878    86.4003  1236.4985 </r>
       <r>     7.9967    84.2850  1245.6726 </r>
       <r>     8.1055    49.1405  1251.0213 </r>
       <r>     8.2144    71.8262  1258.8393 </r>
       <r>     8.3232    78.7492  1267.4109 </r>
       <r>     8.4321    55.4088  1273.4419 </r>
       <r>     8.5409    84.0437  1282.5897 </r>
       <r>     8.6497    67.2586  1289.9106 </r>
       <r>     8.7586    47.0483  1295.0316 </r>
       <r>     8.8674    19.3564  1297.1385 </r>
       <r>     8.9763    44.1247  1301.9413 </r>
       <r>     9.0851    71.7575  1309.7518 </r>
       <r>     9.1940    70.4877  1317.4241 </r>
       <r>     9.3028    90.8912  1327.3173 </r>
       <r>     9.4117    72.0259  1335.1570 </r>
       <r>     9.5205    47.6320  1340.3416 </r>
       <r>     9.6294    58.9429  1346.7573 </r>
       <r>     9.7382    77.9989  1355.2471 </r>
       <r>     9.8471    44.9234  1360.1369 </r>
       <r>     9.9559    38.9600  1364.3775 </r>
       <r>    10.0647    43.7653  1369.1412 </r>
       <r>    10.1736    85.1061  1378.4047 </r>
       <r>    10.2824    63.5654  1385.3235 </r>
       <r>    10.3913    59.1510  1391.7619 </r>
       <r>    10.5001    71.8388  1399.5812 </r>
       <r>    10.6090    66.3521  1406.8034 </r>
       <r>    10.7178    42.8396  1411.4663 </r>
       <r>    10.8267    72.6531  1419.3743 </r>
       <r>    10.9355    36.8235  1423.3824 </r>
       <r>    11.0444    16.3495  1425.1620 </r>
       <r>    11.1532     1.6233  1425.3387 </r>
       <r>    11.2621    21.7440  1427.7055 </r>
       <r>    11.3709    18.5865  1429.7285 </r>
       <r>    11.4797    34.8718  1433.5242 </r>
       <r>    11.5886    52.7576  1439.2666 </r>
       <r>    11.6974    49.0776  1444.6085 </r>
       <r>    11.8063    42.7397  1449.2606 </r>
       <r>    11.9151    27.0265  1452.2023 </r>
       <r>    12.0240    20.9055  1454.4778 </r>
       <r>    12.1328     7.0029  1455.2400 </r>
       <r>    12.2417     0.7344  1455.3200 </r>
       <r>    12.3505     4.1603  1455.7728 </r>
       <r>    12.4594     2.0332  1455.9941 </r>
       <r>    12.5682     0.0541  1456.0000 </r>
       <r>    12.6771     0.0000  1456.0000 </r>
       <r>    12.7859     0.0000  1456.0000 </r>
       <r>    12.8947     0.0000  1456.0000 </r>
       <r>    13.0036     0.0000  1456.0000 </r>
       <r>    13.1124     0.0000  1456.0000 </r>
       <r>    13.2213     0.0000  1456.0000 </r>
       <r>    13.3301     0.0000  1456.0000 </r>
       <r>    13.4390     0.0000  1456.0000 </r>
       <r>    13.5478     0.0000  1456.0000 </r>
       <r>    13.6567     0.0000  1456.0000 </r>
       <r>    13.7655     0.0000  1456.0000 </r>
       <r>    13.8744     0.0000  1456.0000 </r>
      </set>
     </set>
    </array>
   </total>
  </dos>
 </calculation>
 <structure name="finalpos" >
  <crystal>
   <varray name="basis" >
    <v>      14.93631415       0.00000000       0.00000000 </v>
    <v>      -7.46815707      12.93522749      -0.00000000 </v>
    <v>       0.00000000       0.00000000      13.34127628 </v>
   </varray>
   <i name="volume">   2577.59623255 </i>
   <varray name="rec_basis" >
    <v>       0.06695092       0.03865413      -0.00000000 </v>
    <v>       0.00000000       0.07730827      -0.00000000 </v>
    <v>       0.00000000       0.00000000       0.07495535 </v>
   </varray>
  </crystal>
  <varray name="positions" >
   <v>       0.44444444       0.38888889       0.37500000 </v>
   <v>       0.11110578       0.05553988       0.12514209 </v>
   <v>       0.61111893       0.55556454       0.12533815 </v>
   <v>       0.44443410       0.05553988       0.12514209 </v>
   <v>       0.94445577       0.55556472       0.12511237 </v>
   <v>       0.77777778       0.05555556       0.12508750 </v>
   <v>       0.11111111       0.72222222       0.62490204 </v>
   <v>       0.44443410       0.72222755       0.62485791 </v>
   <v>       0.27776879       0.22221440       0.62466185 </v>
   <v>       0.77779345       0.72222755       0.62485791 </v>
   <v>       0.61111409       0.22221925       0.62484996 </v>
   <v>       0.94444599       0.22222938       0.62490241 </v>
   <v>       0.27776861       0.72222439       0.12511237 </v>
   <v>       0.11110516       0.22221925       0.12515004 </v>
   <v>       0.44444561       0.22221440       0.12533815 </v>
   <v>       0.61111409       0.72222817       0.12515004 </v>
   <v>       0.94445577       0.72222439       0.12511237 </v>
   <v>       0.77778339       0.22222938       0.12509759 </v>
   <v>       0.11110895       0.88887756       0.62488763 </v>
   <v>       0.44443273       0.88888303       0.62489877 </v>
   <v>       0.27776879       0.38888773       0.62466185 </v>
   <v>       0.61111893       0.38888773       0.62466185 </v>
   <v>       0.77778339       0.88888734       0.62490241 </v>
   <v>       0.94445030       0.38890061       0.62489877 </v>
   <v>       0.11110578       0.38889924       0.12514209 </v>
   <v>       0.27776861       0.88887756       0.12511237 </v>
   <v>       0.61110395       0.88888734       0.12509759 </v>
   <v>       0.44444444       0.38888889       0.12572567 </v>
   <v>       0.94445030       0.88888303       0.12510123 </v>
   <v>       0.77779345       0.38889924       0.12514209 </v>
   <v>       0.27776995       0.55556338       0.62481384 </v>
   <v>       0.11110578       0.05553988       0.62485791 </v>
   <v>       0.61111893       0.55556454       0.62466185 </v>
   <v>       0.44443410       0.05553988       0.62485791 </v>
   <v>       0.94445577       0.55556472       0.62488763 </v>
   <v>       0.11110895       0.55556472       0.12511237 </v>
   <v>       0.77777778       0.05555556       0.62491250 </v>
   <v>       0.27776995       0.05553990       0.12518616 </v>
   <v>       0.44444561       0.55556454       0.12533815 </v>
   <v>       0.77779343       0.55556338       0.12518616 </v>
   <v>       0.61110395       0.05554994       0.12509759 </v>
   <v>       0.44444561       0.55556454       0.62466185 </v>
   <v>       0.94444599       0.05554994       0.12509759 </v>
   <v>       0.27776861       0.72222439       0.62488763 </v>
   <v>       0.11110516       0.22221925       0.62484996 </v>
   <v>       0.44444561       0.22221440       0.62466185 </v>
   <v>       0.61111409       0.72222817       0.62484996 </v>
   <v>       0.94445577       0.72222439       0.62488763 </v>
   <v>       0.77778339       0.22222938       0.62490241 </v>
   <v>       0.11111111       0.72222222       0.12509796 </v>
   <v>       0.44443410       0.72222755       0.12514209 </v>
   <v>       0.27776879       0.22221440       0.12533815 </v>
   <v>       0.77779345       0.72222755       0.12514209 </v>
   <v>       0.61111409       0.22221925       0.12515004 </v>
   <v>       0.94444599       0.22222938       0.12509759 </v>
   <v>       0.11110578       0.38889924       0.62485791 </v>
   <v>       0.27776861       0.88887756       0.62488763 </v>
   <v>       0.61110395       0.88888734       0.62490241 </v>
   <v>       0.44444444       0.38888889       0.62427433 </v>
   <v>       0.94445030       0.88888303       0.62489877 </v>
   <v>       0.11110895       0.88887756       0.12511237 </v>
   <v>       0.77779345       0.38889924       0.62485791 </v>
   <v>       0.44443273       0.88888303       0.12510123 </v>
   <v>       0.27776879       0.38888773       0.12533815 </v>
   <v>       0.27776995       0.55556338       0.12518616 </v>
   <v>       0.61111893       0.38888773       0.12533815 </v>
   <v>       0.77778339       0.88888734       0.12509759 </v>
   <v>       0.94445030       0.38890061       0.12510123 </v>
   <v>       0.11110895       0.55556472       0.62488763 </v>
   <v>       0.27776995       0.05553990       0.62481384 </v>
   <v>       0.77779343       0.55556338       0.62481384 </v>
   <v>       0.61110395       0.05554994       0.62490241 </v>
   <v>       0.94444599       0.05554994       0.62490241 </v>
   <v>       0.05492459       0.11067225       0.37500000 </v>
   <v>       0.55597948       0.61195895       0.37500000 </v>
   <v>       0.38821178       0.10798614       0.37500000 </v>
   <v>       0.88997050       0.61165191       0.37500000 </v>
   <v>       0.72233166       0.11100168       0.37500000 </v>
   <v>       0.05555347       0.77777986       0.87500000 </v>
   <v>       0.38889499       0.77778040       0.87500000 </v>
   <v>       0.22222211       0.27777772       0.87500000 </v>
   <v>       0.72222208       0.77778036       0.87500000 </v>
   <v>       0.55555561       0.27777772       0.87500000 </v>
   <v>       0.88888780       0.27777560       0.87500000 </v>
   <v>       0.22203010       0.77768172       0.37500000 </v>
   <v>       0.05492459       0.27758567       0.37500000 </v>
   <v>       0.38321436       0.26642872       0.37500000 </v>
   <v>       0.55574766       0.77840874       0.37500000 </v>
   <v>       0.88973042       0.77847773       0.37500000 </v>
   <v>       0.72266108       0.27758567       0.37500000 </v>
   <v>       0.05555294       0.94444793       0.87500000 </v>
   <v>       0.38889499       0.94444793       0.87500000 </v>
   <v>       0.22222295       0.44443974       0.87500000 </v>
   <v>       0.55555250       0.44444291       0.87500000 </v>
   <v>       0.72222259       0.94444517       0.87500000 </v>
   <v>       0.88888540       0.44443834       0.87500000 </v>
   <v>       0.05485561       0.44458602       0.37500000 </v>
   <v>       0.22168142       0.94336284       0.37500000 </v>
   <v>       0.55571596       0.94452465       0.37500000 </v>
   <v>       0.38321436       0.45011897       0.37500000 </v>
   <v>       0.88880868       0.94452465       0.37500000 </v>
   <v>       0.72534720       0.44512155       0.37500000 </v>
   <v>       0.22222502       0.61110832       0.87500000 </v>
   <v>       0.05555297       0.11111126       0.87500000 </v>
   <v>       0.55555561       0.61111123       0.87500000 </v>
   <v>       0.38889360       0.11111654       0.87500000 </v>
   <v>       0.88888330       0.61110832       0.87500000 </v>
   <v>       0.05565162       0.61130323       0.37500000 </v>
   <v>       0.72222259       0.11111075       0.87500000 </v>
   <v>       0.21977436       0.10798614       0.37500000 </v>
   <v>       0.38821178       0.61355898       0.37500000 </v>
   <v>       0.72534720       0.61355898       0.37500000 </v>
   <v>       0.55574766       0.11067225       0.37500000 </v>
   <v>       0.38889360       0.61111039       0.87500000 </v>
   <v>       0.88867002       0.11100168       0.37500000 </v>
   <v>       0.22222639       0.77777986       0.87500000 </v>
   <v>       0.05555297       0.27777505       0.87500000 </v>
   <v>       0.38889042       0.27778084       0.87500000 </v>
   <v>       0.55555829       0.77778036       0.87500000 </v>
   <v>       0.88888540       0.77778040       0.87500000 </v>
   <v>       0.72222208       0.27777505       0.87500000 </v>
   <v>       0.05565162       0.77768172       0.37500000 </v>
   <v>       0.38874731       0.77847773       0.37500000 </v>
   <v>       0.22137438       0.27735386       0.37500000 </v>
   <v>       0.72266108       0.77840874       0.37500000 </v>
   <v>       0.55597948       0.27735386       0.37500000 </v>
   <v>       0.88880868       0.27761737       0.37500000 </v>
   <v>       0.05555294       0.44443834       0.87500000 </v>
   <v>       0.22222502       0.94445003       0.87500000 </v>
   <v>       0.55555773       0.94444553       0.87500000 </v>
   <v>       0.38889042       0.44444291       0.87500000 </v>
   <v>       0.88888780       0.94444553       0.87500000 </v>
   <v>       0.05485561       0.94360291       0.37500000 </v>
   <v>       0.72221679       0.44443974       0.87500000 </v>
   <v>       0.38874731       0.94360291       0.37500000 </v>
   <v>       0.21977436       0.44512155       0.37500000 </v>
   <v>       0.22168142       0.61165191       0.37500000 </v>
   <v>       0.56690462       0.45011897       0.37500000 </v>
   <v>       0.72233166       0.94466331       0.37500000 </v>
   <v>       0.88973042       0.44458602       0.37500000 </v>
   <v>       0.05555347       0.61110694       0.87500000 </v>
   <v>       0.22222295       0.11111654       0.87500000 </v>
   <v>       0.72221679       0.61111039       0.87500000 </v>
   <v>       0.55555829       0.11111126       0.87500000 </v>
   <v>       0.88888816       0.11111075       0.87500000 </v>
   <v>       0.10888702       0.05363429       0.37500000 </v>
   <v>       0.61662821       0.56151023       0.37500000 </v>
   <v>       0.44474727       0.05363429       0.37500000 </v>
   <v>       0.94505350       0.55569452       0.37500000 </v>
   <v>       0.77777778       0.05555556       0.37500000 </v>
   <v>       0.11111111       0.72222222       0.87500000 </v>
   <v>       0.44445789       0.72225917       0.87500000 </v>
   <v>       0.27773656       0.22218886       0.87500000 </v>
   <v>       0.77780129       0.72225917       0.87500000 </v>
   <v>       0.61113701       0.22219632       0.87500000 </v>
   <v>       0.94441891       0.22220602       0.87500000 </v>
   <v>       0.27763881       0.72269232       0.37500000 </v>
   <v>       0.10939752       0.22136543       0.37500000 </v>
   <v>       0.44488202       0.21670513       0.37500000 </v>
   <v>       0.61196791       0.72393582       0.37500000 </v>
   <v>       0.94505350       0.72269232       0.37500000 </v>
   <v>       0.77798832       0.22181380       0.37500000 </v>
   <v>       0.11109976       0.88887925       0.87500000 </v>
   <v>       0.44445802       0.88889568       0.87500000 </v>
   <v>       0.27773656       0.38888103       0.87500000 </v>
   <v>       0.61114447       0.38888103       0.87500000 </v>
   <v>       0.77778711       0.88891442       0.87500000 </v>
   <v>       0.94443766       0.38887531       0.87500000 </v>
   <v>       0.10888702       0.38858606       0.37500000 </v>
   <v>       0.27763881       0.88827983       0.37500000 </v>
   <v>       0.61151953       0.88950785       0.37500000 </v>
   <v>       0.94428960       0.88904373       0.37500000 </v>
   <v>       0.77969904       0.38858606       0.37500000 </v>
   <v>       0.27776270       0.55557063       0.87500000 </v>
   <v>       0.11107416       0.05553205       0.87500000 </v>
   <v>       0.61114447       0.55559678       0.87500000 </v>
   <v>       0.44445789       0.05553205       0.87500000 </v>
   <v>       0.94445408       0.55555385       0.87500000 </v>
   <v>       0.11064101       0.55569452       0.37500000 </v>
   <v>       0.77777778       0.05555556       0.87500000 </v>
   <v>       0.27665444       0.05330889       0.37500000 </v>
   <v>       0.44488202       0.56151023       0.37500000 </v>
   <v>       0.78002445       0.55667889       0.37500000 </v>
   <v>       0.61151953       0.05534502       0.37500000 </v>
   <v>       0.44445231       0.55559678       0.87500000 </v>
   <v>       0.94382548       0.05534502       0.37500000 </v>
   <v>       0.27777949       0.72223357       0.87500000 </v>
   <v>       0.11105932       0.22219632       0.87500000 </v>
   <v>       0.44445231       0.22218886       0.87500000 </v>
   <v>       0.61113701       0.72227402       0.87500000 </v>
   <v>       0.94445408       0.72223357       0.87500000 </v>
   <v>       0.77778711       0.22220602       0.87500000 </v>
   <v>       0.11111111       0.72222222       0.37500000 </v>
   <v>       0.44474727       0.72444631       0.37500000 </v>
   <v>       0.27182310       0.21670513       0.37500000 </v>
   <v>       0.77969904       0.72444631       0.37500000 </v>
   <v>       0.61196791       0.22136543       0.37500000 </v>
   <v>       0.94382548       0.22181380       0.37500000 </v>
   <v>       0.11107416       0.38887545       0.87500000 </v>
   <v>       0.27777949       0.88887925       0.87500000 </v>
   <v>       0.61112731       0.88891442       0.87500000 </v>
   <v>       0.44444444       0.38888889       0.87500000 </v>
   <v>       0.94443766       0.88889568       0.87500000 </v>
   <v>       0.11064101       0.88827983       0.37500000 </v>
   <v>       0.77780129       0.38887545       0.87500000 </v>
   <v>       0.44475413       0.88904373       0.37500000 </v>
   <v>       0.27182310       0.38845131       0.37500000 </v>
   <v>       0.27665444       0.55667889       0.37500000 </v>
   <v>       0.61662821       0.38845131       0.37500000 </v>
   <v>       0.77798832       0.88950785       0.37500000 </v>
   <v>       0.94428960       0.38857921       0.37500000 </v>
   <v>       0.11109976       0.55555385       0.87500000 </v>
   <v>       0.27776270       0.05552540       0.87500000 </v>
   <v>       0.77780793       0.55557063       0.87500000 </v>
   <v>       0.61112731       0.05554622       0.87500000 </v>
   <v>       0.94441891       0.05554622       0.87500000 </v>
   <v>       0.05546928       0.11103632       0.12487403 </v>
   <v>       0.55563492       0.61126984       0.12476730 </v>
   <v>       0.38882801       0.11159570       0.12483104 </v>
   <v>       0.88900701       0.61117017       0.12488859 </v>
   <v>       0.72223458       0.11109875       0.12491481 </v>
   <v>       0.05557215       0.77776118       0.62509033 </v>
   <v>       0.38885004       0.77781495       0.62510653 </v>
   <v>       0.22206349       0.27769841       0.62523270 </v>
   <v>       0.72229702       0.77786405       0.62512597 </v>
   <v>       0.55563492       0.27769841       0.62523270 </v>
   <v>       0.88889259       0.27778519       0.62508998 </v>
   <v>       0.22218903       0.77776118       0.12490967 </v>
   <v>       0.05546928       0.27776630       0.12487403 </v>
   <v>       0.38878395       0.27756790       0.12459556 </v>
   <v>       0.55556704       0.77786405       0.12487403 </v>
   <v>       0.88896491       0.77781495       0.12489347 </v>
   <v>       0.72229702       0.27776630       0.12487403 </v>
   <v>       0.05551838       0.94436842       0.62510653 </v>
   <v>       0.38885004       0.94436842       0.62510653 </v>
   <v>       0.22209818       0.44450532       0.62516896 </v>
   <v>       0.55576543       0.44454938       0.62540444 </v>
   <v>       0.72223458       0.94446917       0.62508519 </v>
   <v>       0.88896491       0.44448330       0.62510653 </v>
   <v>       0.05551838       0.44448330       0.12489347 </v>
   <v>       0.22216316       0.94432633       0.12488859 </v>
   <v>       0.55554814       0.94444074       0.12491002 </v>
   <v>       0.38878395       0.44454938       0.12459556 </v>
   <v>       0.88889259       0.94444074       0.12491002 </v>
   <v>       0.72240714       0.44450532       0.12483104 </v>
   <v>       0.22216316       0.61117017       0.62511141 </v>
   <v>       0.05546928       0.11103632       0.62512597 </v>
   <v>       0.55563492       0.61126984       0.62523270 </v>
   <v>       0.38882801       0.11092619       0.62516896 </v>
   <v>       0.88900701       0.61117017       0.62511141 </v>
   <v>       0.05557215       0.61114430       0.12490967 </v>
   <v>       0.72223458       0.11109875       0.62508519 </v>
   <v>       0.22209818       0.11092619       0.12483104 </v>
   <v>       0.38882801       0.61123515       0.12483104 </v>
   <v>       0.72240714       0.61123515       0.12483104 </v>
   <v>       0.55556704       0.11103632       0.12487403 </v>
   <v>       0.38882801       0.61123515       0.62516896 </v>
   <v>       0.88886417       0.11109875       0.12491481 </v>
   <v>       0.22218903       0.77776118       0.62509033 </v>
   <v>       0.05546928       0.27776630       0.62512597 </v>
   <v>       0.38878395       0.27756790       0.62540444 </v>
   <v>       0.55556704       0.77786405       0.62512597 </v>
   <v>       0.88896491       0.77781495       0.62510653 </v>
   <v>       0.72229702       0.27776630       0.62512597 </v>
   <v>       0.05557215       0.77776118       0.12490967 </v>
   <v>       0.38885004       0.77781495       0.12489347 </v>
   <v>       0.22206349       0.27769841       0.12476730 </v>
   <v>       0.72229702       0.77786405       0.12487403 </v>
   <v>       0.55563492       0.27769841       0.12476730 </v>
   <v>       0.88889259       0.27778519       0.12491002 </v>
   <v>       0.05551838       0.44448330       0.62510653 </v>
   <v>       0.22216316       0.94432633       0.62511141 </v>
   <v>       0.55554814       0.94444074       0.62508998 </v>
   <v>       0.38878395       0.44454938       0.62540444 </v>
   <v>       0.88889259       0.94444074       0.62508998 </v>
   <v>       0.05551838       0.94436842       0.12489347 </v>
   <v>       0.72240714       0.44450532       0.62516896 </v>
   <v>       0.38885004       0.94436842       0.12489347 </v>
   <v>       0.22209818       0.44450532       0.12483104 </v>
   <v>       0.22216316       0.61117017       0.12488859 </v>
   <v>       0.55576543       0.44454938       0.12459556 </v>
   <v>       0.72223458       0.94446917       0.12491481 </v>
   <v>       0.88896491       0.44448330       0.12489347 </v>
   <v>       0.05557215       0.61114430       0.62509033 </v>
   <v>       0.22209818       0.11092619       0.62516896 </v>
   <v>       0.72240714       0.61123515       0.62516896 </v>
   <v>       0.55556704       0.11103632       0.62512597 </v>
   <v>       0.88886417       0.11109875       0.62508519 </v>
  </varray>
 </structure>
</modeling>
