<?xml version="1.0" encoding="ISO-8859-1"?>
<modeling>
 <generator>
  <i name="program" type="string">vasp </i>
  <i name="version" type="string">6.4.2  </i>
  <i name="subversion" type="string">20Jul23 (build Nov 06 2023 14:01:30) complex                          parallel </i>
  <i name="platform" type="string">LinuxIFC </i>
  <i name="date" type="string">2024 11 16 </i>
  <i name="time" type="string">03:28:23 </i>
 </generator>
 <incar>
  <i type="int" name="IALGO">    38</i>
  <i type="string" name="ALGO">Fast</i>
  <i type="logical" name="ADDGRID"> T  </i>
  <i type="int" name="ISPIN">     2</i>
  <i type="int" name="NELM">   100</i>
  <i type="int" name="NELMIN">     4</i>
  <i type="int" name="IBRION">    -1</i>
  <i name="EDIFF">      0.00000100</i>
  <i name="ENCUT">    500.00000000</i>
  <i name="NUPDOWN">      1.00000000</i>
  <i name="NELECT">   1153.00000000</i>
  <i type="logical" name="LREAL"> F  </i>
  <i type="int" name="ISMEAR">     0</i>
  <i name="SIGMA">      0.05000000</i>
  <i type="logical" name="LWAVE"> F  </i>
  <i type="logical" name="LCHARG"> F  </i>
  <i type="string" name="GGA">PE</i>
  <i type="int" name="IVDW">    11</i>
 </incar>
 <primitive_cell>
  <structure name="primitive_cell" >
   <crystal>
    <varray name="basis" >
     <v>      14.93631415       0.00000000       0.00000000 </v>
     <v>      -7.46815707      12.93522749      -0.00000000 </v>
     <v>       0.00000000       0.00000000      13.34127628 </v>
    </varray>
    <i name="volume">   2577.59623255 </i>
    <varray name="rec_basis" >
     <v>       0.06695092       0.03865413      -0.00000000 </v>
     <v>       0.00000000       0.07730827      -0.00000000 </v>
     <v>       0.00000000       0.00000000       0.07495535 </v>
    </varray>
   </crystal>
   <varray name="positions" >
    <v>       0.44444444       0.38888889       0.37500000 </v>
    <v>       0.11110578       0.05553988       0.12514209 </v>
    <v>       0.61111893       0.55556454       0.12533815 </v>
    <v>       0.44443410       0.05553988       0.12514209 </v>
    <v>       0.94445577       0.55556472       0.12511237 </v>
    <v>       0.77777778       0.05555556       0.12508750 </v>
    <v>       0.11111111       0.72222222       0.62490204 </v>
    <v>       0.44443410       0.72222755       0.62485791 </v>
    <v>       0.27776879       0.22221440       0.62466185 </v>
    <v>       0.77779345       0.72222755       0.62485791 </v>
    <v>       0.61111409       0.22221925       0.62484996 </v>
    <v>       0.94444599       0.22222938       0.62490241 </v>
    <v>       0.27776861       0.72222439       0.12511237 </v>
    <v>       0.11110516       0.22221925       0.12515004 </v>
    <v>       0.44444561       0.22221440       0.12533815 </v>
    <v>       0.61111409       0.72222817       0.12515004 </v>
    <v>       0.94445577       0.72222439       0.12511237 </v>
    <v>       0.77778339       0.22222938       0.12509759 </v>
    <v>       0.11110895       0.88887756       0.62488763 </v>
    <v>       0.44443273       0.88888303       0.62489877 </v>
    <v>       0.27776879       0.38888773       0.62466185 </v>
    <v>       0.61111893       0.38888773       0.62466185 </v>
    <v>       0.77778339       0.88888734       0.62490241 </v>
    <v>       0.94445030       0.38890061       0.62489877 </v>
    <v>       0.11110578       0.38889924       0.12514209 </v>
    <v>       0.27776861       0.88887756       0.12511237 </v>
    <v>       0.61110395       0.88888734       0.12509759 </v>
    <v>       0.44444444       0.38888889       0.12572567 </v>
    <v>       0.94445030       0.88888303       0.12510123 </v>
    <v>       0.77779345       0.38889924       0.12514209 </v>
    <v>       0.27776995       0.55556338       0.62481384 </v>
    <v>       0.11110578       0.05553988       0.62485791 </v>
    <v>       0.61111893       0.55556454       0.62466185 </v>
    <v>       0.44443410       0.05553988       0.62485791 </v>
    <v>       0.94445577       0.55556472       0.62488763 </v>
    <v>       0.11110895       0.55556472       0.12511237 </v>
    <v>       0.77777778       0.05555556       0.62491250 </v>
    <v>       0.27776995       0.05553990       0.12518616 </v>
    <v>       0.44444561       0.55556454       0.12533815 </v>
    <v>       0.77779343       0.55556338       0.12518616 </v>
    <v>       0.61110395       0.05554994       0.12509759 </v>
    <v>       0.44444561       0.55556454       0.62466185 </v>
    <v>       0.94444599       0.05554994       0.12509759 </v>
    <v>       0.27776861       0.72222439       0.62488763 </v>
    <v>       0.11110516       0.22221925       0.62484996 </v>
    <v>       0.44444561       0.22221440       0.62466185 </v>
    <v>       0.61111409       0.72222817       0.62484996 </v>
    <v>       0.94445577       0.72222439       0.62488763 </v>
    <v>       0.77778339       0.22222938       0.62490241 </v>
    <v>       0.11111111       0.72222222       0.12509796 </v>
    <v>       0.44443410       0.72222755       0.12514209 </v>
    <v>       0.27776879       0.22221440       0.12533815 </v>
    <v>       0.77779345       0.72222755       0.12514209 </v>
    <v>       0.61111409       0.22221925       0.12515004 </v>
    <v>       0.94444599       0.22222938       0.12509759 </v>
    <v>       0.11110578       0.38889924       0.62485791 </v>
    <v>       0.27776861       0.88887756       0.62488763 </v>
    <v>       0.61110395       0.88888734       0.62490241 </v>
    <v>       0.44444444       0.38888889       0.62427433 </v>
    <v>       0.94445030       0.88888303       0.62489877 </v>
    <v>       0.11110895       0.88887756       0.12511237 </v>
    <v>       0.77779345       0.38889924       0.62485791 </v>
    <v>       0.44443273       0.88888303       0.12510123 </v>
    <v>       0.27776879       0.38888773       0.12533815 </v>
    <v>       0.27776995       0.55556338       0.12518616 </v>
    <v>       0.61111893       0.38888773       0.12533815 </v>
    <v>       0.77778339       0.88888734       0.12509759 </v>
    <v>       0.94445030       0.38890061       0.12510123 </v>
    <v>       0.11110895       0.55556472       0.62488763 </v>
    <v>       0.27776995       0.05553990       0.62481384 </v>
    <v>       0.77779343       0.55556338       0.62481384 </v>
    <v>       0.61110395       0.05554994       0.62490241 </v>
    <v>       0.94444599       0.05554994       0.62490241 </v>
    <v>       0.05492459       0.11067225       0.37500000 </v>
    <v>       0.55597948       0.61195895       0.37500000 </v>
    <v>       0.38821178       0.10798614       0.37500000 </v>
    <v>       0.88997050       0.61165191       0.37500000 </v>
    <v>       0.72233166       0.11100168       0.37500000 </v>
    <v>       0.05555347       0.77777986       0.87500000 </v>
    <v>       0.38889499       0.77778040       0.87500000 </v>
    <v>       0.22222211       0.27777772       0.87500000 </v>
    <v>       0.72222208       0.77778036       0.87500000 </v>
    <v>       0.55555561       0.27777772       0.87500000 </v>
    <v>       0.88888780       0.27777560       0.87500000 </v>
    <v>       0.22203010       0.77768172       0.37500000 </v>
    <v>       0.05492459       0.27758567       0.37500000 </v>
    <v>       0.38321436       0.26642872       0.37500000 </v>
    <v>       0.55574766       0.77840874       0.37500000 </v>
    <v>       0.88973042       0.77847773       0.37500000 </v>
    <v>       0.72266108       0.27758567       0.37500000 </v>
    <v>       0.05555294       0.94444793       0.87500000 </v>
    <v>       0.38889499       0.94444793       0.87500000 </v>
    <v>       0.22222295       0.44443974       0.87500000 </v>
    <v>       0.55555250       0.44444291       0.87500000 </v>
    <v>       0.72222259       0.94444517       0.87500000 </v>
    <v>       0.88888540       0.44443834       0.87500000 </v>
    <v>       0.05485561       0.44458602       0.37500000 </v>
    <v>       0.22168142       0.94336284       0.37500000 </v>
    <v>       0.55571596       0.94452465       0.37500000 </v>
    <v>       0.38321436       0.45011897       0.37500000 </v>
    <v>       0.88880868       0.94452465       0.37500000 </v>
    <v>       0.72534720       0.44512155       0.37500000 </v>
    <v>       0.22222502       0.61110832       0.87500000 </v>
    <v>       0.05555297       0.11111126       0.87500000 </v>
    <v>       0.55555561       0.61111123       0.87500000 </v>
    <v>       0.38889360       0.11111654       0.87500000 </v>
    <v>       0.88888330       0.61110832       0.87500000 </v>
    <v>       0.05565162       0.61130323       0.37500000 </v>
    <v>       0.72222259       0.11111075       0.87500000 </v>
    <v>       0.21977436       0.10798614       0.37500000 </v>
    <v>       0.38821178       0.61355898       0.37500000 </v>
    <v>       0.72534720       0.61355898       0.37500000 </v>
    <v>       0.55574766       0.11067225       0.37500000 </v>
    <v>       0.38889360       0.61111039       0.87500000 </v>
    <v>       0.88867002       0.11100168       0.37500000 </v>
    <v>       0.22222639       0.77777986       0.87500000 </v>
    <v>       0.05555297       0.27777505       0.87500000 </v>
    <v>       0.38889042       0.27778084       0.87500000 </v>
    <v>       0.55555829       0.77778036       0.87500000 </v>
    <v>       0.88888540       0.77778040       0.87500000 </v>
    <v>       0.72222208       0.27777505       0.87500000 </v>
    <v>       0.05565162       0.77768172       0.37500000 </v>
    <v>       0.38874731       0.77847773       0.37500000 </v>
    <v>       0.22137438       0.27735386       0.37500000 </v>
    <v>       0.72266108       0.77840874       0.37500000 </v>
    <v>       0.55597948       0.27735386       0.37500000 </v>
    <v>       0.88880868       0.27761737       0.37500000 </v>
    <v>       0.05555294       0.44443834       0.87500000 </v>
    <v>       0.22222502       0.94445003       0.87500000 </v>
    <v>       0.55555773       0.94444553       0.87500000 </v>
    <v>       0.38889042       0.44444291       0.87500000 </v>
    <v>       0.88888780       0.94444553       0.87500000 </v>
    <v>       0.05485561       0.94360291       0.37500000 </v>
    <v>       0.72221679       0.44443974       0.87500000 </v>
    <v>       0.38874731       0.94360291       0.37500000 </v>
    <v>       0.21977436       0.44512155       0.37500000 </v>
    <v>       0.22168142       0.61165191       0.37500000 </v>
    <v>       0.56690462       0.45011897       0.37500000 </v>
    <v>       0.72233166       0.94466331       0.37500000 </v>
    <v>       0.88973042       0.44458602       0.37500000 </v>
    <v>       0.05555347       0.61110694       0.87500000 </v>
    <v>       0.22222295       0.11111654       0.87500000 </v>
    <v>       0.72221679       0.61111039       0.87500000 </v>
    <v>       0.55555829       0.11111126       0.87500000 </v>
    <v>       0.88888816       0.11111075       0.87500000 </v>
    <v>       0.10888702       0.05363429       0.37500000 </v>
    <v>       0.61662821       0.56151023       0.37500000 </v>
    <v>       0.44474727       0.05363429       0.37500000 </v>
    <v>       0.94505350       0.55569452       0.37500000 </v>
    <v>       0.77777778       0.05555556       0.37500000 </v>
    <v>       0.11111111       0.72222222       0.87500000 </v>
    <v>       0.44445789       0.72225917       0.87500000 </v>
    <v>       0.27773656       0.22218886       0.87500000 </v>
    <v>       0.77780129       0.72225917       0.87500000 </v>
    <v>       0.61113701       0.22219632       0.87500000 </v>
    <v>       0.94441891       0.22220602       0.87500000 </v>
    <v>       0.27763881       0.72269232       0.37500000 </v>
    <v>       0.10939752       0.22136543       0.37500000 </v>
    <v>       0.44488202       0.21670513       0.37500000 </v>
    <v>       0.61196791       0.72393582       0.37500000 </v>
    <v>       0.94505350       0.72269232       0.37500000 </v>
    <v>       0.77798832       0.22181380       0.37500000 </v>
    <v>       0.11109976       0.88954876       0.87500000 </v>
    <v>       0.44445802       0.88889568       0.87500000 </v>
    <v>       0.27773656       0.38888103       0.87500000 </v>
    <v>       0.61114447       0.38888103       0.87500000 </v>
    <v>       0.77778711       0.88891442       0.87500000 </v>
    <v>       0.94443766       0.38887531       0.87500000 </v>
    <v>       0.10888702       0.38858606       0.37500000 </v>
    <v>       0.27763881       0.88827983       0.37500000 </v>
    <v>       0.61151953       0.88950785       0.37500000 </v>
    <v>       0.94428960       0.88904373       0.37500000 </v>
    <v>       0.77969904       0.38858606       0.37500000 </v>
    <v>       0.27776270       0.55557063       0.87500000 </v>
    <v>       0.11107416       0.05553205       0.87500000 </v>
    <v>       0.61114447       0.55559678       0.87500000 </v>
    <v>       0.44445789       0.05553205       0.87500000 </v>
    <v>       0.94445408       0.55555385       0.87500000 </v>
    <v>       0.11064101       0.55569452       0.37500000 </v>
    <v>       0.77777778       0.05555556       0.87500000 </v>
    <v>       0.27665444       0.05330889       0.37500000 </v>
    <v>       0.44488202       0.56151023       0.37500000 </v>
    <v>       0.78002445       0.55667889       0.37500000 </v>
    <v>       0.61151953       0.05534502       0.37500000 </v>
    <v>       0.44445231       0.55559678       0.87500000 </v>
    <v>       0.94382548       0.05534502       0.37500000 </v>
    <v>       0.27777949       0.72223357       0.87500000 </v>
    <v>       0.11105932       0.22219632       0.87500000 </v>
    <v>       0.44445231       0.22218886       0.87500000 </v>
    <v>       0.61113701       0.72227402       0.87500000 </v>
    <v>       0.94445408       0.72223357       0.87500000 </v>
    <v>       0.77778711       0.22220602       0.87500000 </v>
    <v>       0.11111111       0.72222222       0.37500000 </v>
    <v>       0.44474727       0.72444631       0.37500000 </v>
    <v>       0.27182310       0.21670513       0.37500000 </v>
    <v>       0.77969904       0.72444631       0.37500000 </v>
    <v>       0.61196791       0.22136543       0.37500000 </v>
    <v>       0.94382548       0.22181380       0.37500000 </v>
    <v>       0.11107416       0.38887545       0.87500000 </v>
    <v>       0.27777949       0.88887925       0.87500000 </v>
    <v>       0.61112731       0.88891442       0.87500000 </v>
    <v>       0.44444444       0.38888889       0.87500000 </v>
    <v>       0.94443766       0.88889568       0.87500000 </v>
    <v>       0.11064101       0.88827983       0.37500000 </v>
    <v>       0.77780129       0.38887545       0.87500000 </v>
    <v>       0.44475413       0.88904373       0.37500000 </v>
    <v>       0.27182310       0.38845131       0.37500000 </v>
    <v>       0.27665444       0.55667889       0.37500000 </v>
    <v>       0.61662821       0.38845131       0.37500000 </v>
    <v>       0.77798832       0.88950785       0.37500000 </v>
    <v>       0.94428960       0.38857921       0.37500000 </v>
    <v>       0.11109976       0.55555385       0.87500000 </v>
    <v>       0.27776270       0.05552540       0.87500000 </v>
    <v>       0.77780793       0.55557063       0.87500000 </v>
    <v>       0.61112731       0.05554622       0.87500000 </v>
    <v>       0.94441891       0.05554622       0.87500000 </v>
    <v>       0.05546928       0.11103632       0.12487403 </v>
    <v>       0.55563492       0.61126984       0.12476730 </v>
    <v>       0.38882801       0.11092619       0.12483104 </v>
    <v>       0.88900701       0.61117017       0.12488859 </v>
    <v>       0.72223458       0.11109875       0.12491481 </v>
    <v>       0.05557215       0.77776118       0.62509033 </v>
    <v>       0.38885004       0.77781495       0.62510653 </v>
    <v>       0.22206349       0.27769841       0.62523270 </v>
    <v>       0.72229702       0.77786405       0.62512597 </v>
    <v>       0.55563492       0.27769841       0.62523270 </v>
    <v>       0.88889259       0.27778519       0.62508998 </v>
    <v>       0.22218903       0.77776118       0.12490967 </v>
    <v>       0.05546928       0.27776630       0.12487403 </v>
    <v>       0.38878395       0.27756790       0.12459556 </v>
    <v>       0.55556704       0.77786405       0.12487403 </v>
    <v>       0.88896491       0.77781495       0.12489347 </v>
    <v>       0.72229702       0.27776630       0.12487403 </v>
    <v>       0.05551838       0.94436842       0.62510653 </v>
    <v>       0.38885004       0.94436842       0.62510653 </v>
    <v>       0.22209818       0.44450532       0.62516896 </v>
    <v>       0.55576543       0.44454938       0.62540444 </v>
    <v>       0.72223458       0.94446917       0.62508519 </v>
    <v>       0.88896491       0.44448330       0.62510653 </v>
    <v>       0.05551838       0.44448330       0.12489347 </v>
    <v>       0.22216316       0.94432633       0.12488859 </v>
    <v>       0.55554814       0.94444074       0.12491002 </v>
    <v>       0.38878395       0.44454938       0.12459556 </v>
    <v>       0.88889259       0.94444074       0.12491002 </v>
    <v>       0.72240714       0.44450532       0.12483104 </v>
    <v>       0.22216316       0.61117017       0.62511141 </v>
    <v>       0.05546928       0.11103632       0.62512597 </v>
    <v>       0.55563492       0.61126984       0.62523270 </v>
    <v>       0.38882801       0.11092619       0.62516896 </v>
    <v>       0.88900701       0.61117017       0.62511141 </v>
    <v>       0.05557215       0.61114430       0.12490967 </v>
    <v>       0.72223458       0.11109875       0.62508519 </v>
    <v>       0.22209818       0.11092619       0.12483104 </v>
    <v>       0.38882801       0.61123515       0.12483104 </v>
    <v>       0.72240714       0.61123515       0.12483104 </v>
    <v>       0.55556704       0.11103632       0.12487403 </v>
    <v>       0.38882801       0.61123515       0.62516896 </v>
    <v>       0.88886417       0.11109875       0.12491481 </v>
    <v>       0.22218903       0.77776118       0.62509033 </v>
    <v>       0.05546928       0.27776630       0.62512597 </v>
    <v>       0.38878395       0.27756790       0.62540444 </v>
    <v>       0.55556704       0.77786405       0.62512597 </v>
    <v>       0.88896491       0.77781495       0.62510653 </v>
    <v>       0.72229702       0.27776630       0.62512597 </v>
    <v>       0.05557215       0.77776118       0.12490967 </v>
    <v>       0.38885004       0.77781495       0.12489347 </v>
    <v>       0.22206349       0.27769841       0.12476730 </v>
    <v>       0.72229702       0.77786405       0.12487403 </v>
    <v>       0.55563492       0.27769841       0.12476730 </v>
    <v>       0.88889259       0.27778519       0.12491002 </v>
    <v>       0.05551838       0.44448330       0.62510653 </v>
    <v>       0.22216316       0.94432633       0.62511141 </v>
    <v>       0.55554814       0.94444074       0.62508998 </v>
    <v>       0.38878395       0.44454938       0.62540444 </v>
    <v>       0.88889259       0.94444074       0.62508998 </v>
    <v>       0.05551838       0.94436842       0.12489347 </v>
    <v>       0.72240714       0.44450532       0.62516896 </v>
    <v>       0.38885004       0.94436842       0.12489347 </v>
    <v>       0.22209818       0.44450532       0.12483104 </v>
    <v>       0.22216316       0.61117017       0.12488859 </v>
    <v>       0.55576543       0.44454938       0.12459556 </v>
    <v>       0.72223458       0.94446917       0.12491481 </v>
    <v>       0.88896491       0.44448330       0.12489347 </v>
    <v>       0.05557215       0.61114430       0.62509033 </v>
    <v>       0.22209818       0.11092619       0.62516896 </v>
    <v>       0.72240714       0.61123515       0.62516896 </v>
    <v>       0.55556704       0.11103632       0.62512597 </v>
    <v>       0.88886417       0.11109875       0.62508519 </v>
   </varray>
  </structure>
  <varray name="primitive_index" >
   <v type="int" >        1 </v>
   <v type="int" >        2 </v>
   <v type="int" >        3 </v>
   <v type="int" >        4 </v>
   <v type="int" >        5 </v>
   <v type="int" >        6 </v>
   <v type="int" >        7 </v>
   <v type="int" >        8 </v>
   <v type="int" >        9 </v>
   <v type="int" >       10 </v>
   <v type="int" >       11 </v>
   <v type="int" >       12 </v>
   <v type="int" >       13 </v>
   <v type="int" >       14 </v>
   <v type="int" >       15 </v>
   <v type="int" >       16 </v>
   <v type="int" >       17 </v>
   <v type="int" >       18 </v>
   <v type="int" >       19 </v>
   <v type="int" >       20 </v>
   <v type="int" >       21 </v>
   <v type="int" >       22 </v>
   <v type="int" >       23 </v>
   <v type="int" >       24 </v>
   <v type="int" >       25 </v>
   <v type="int" >       26 </v>
   <v type="int" >       27 </v>
   <v type="int" >       28 </v>
   <v type="int" >       29 </v>
   <v type="int" >       30 </v>
   <v type="int" >       31 </v>
   <v type="int" >       32 </v>
   <v type="int" >       33 </v>
   <v type="int" >       34 </v>
   <v type="int" >       35 </v>
   <v type="int" >       36 </v>
   <v type="int" >       37 </v>
   <v type="int" >       38 </v>
   <v type="int" >       39 </v>
   <v type="int" >       40 </v>
   <v type="int" >       41 </v>
   <v type="int" >       42 </v>
   <v type="int" >       43 </v>
   <v type="int" >       44 </v>
   <v type="int" >       45 </v>
   <v type="int" >       46 </v>
   <v type="int" >       47 </v>
   <v type="int" >       48 </v>
   <v type="int" >       49 </v>
   <v type="int" >       50 </v>
   <v type="int" >       51 </v>
   <v type="int" >       52 </v>
   <v type="int" >       53 </v>
   <v type="int" >       54 </v>
   <v type="int" >       55 </v>
   <v type="int" >       56 </v>
   <v type="int" >       57 </v>
   <v type="int" >       58 </v>
   <v type="int" >       59 </v>
   <v type="int" >       60 </v>
   <v type="int" >       61 </v>
   <v type="int" >       62 </v>
   <v type="int" >       63 </v>
   <v type="int" >       64 </v>
   <v type="int" >       65 </v>
   <v type="int" >       66 </v>
   <v type="int" >       67 </v>
   <v type="int" >       68 </v>
   <v type="int" >       69 </v>
   <v type="int" >       70 </v>
   <v type="int" >       71 </v>
   <v type="int" >       72 </v>
   <v type="int" >       73 </v>
   <v type="int" >       74 </v>
   <v type="int" >       75 </v>
   <v type="int" >       76 </v>
   <v type="int" >       77 </v>
   <v type="int" >       78 </v>
   <v type="int" >       79 </v>
   <v type="int" >       80 </v>
   <v type="int" >       81 </v>
   <v type="int" >       82 </v>
   <v type="int" >       83 </v>
   <v type="int" >       84 </v>
   <v type="int" >       85 </v>
   <v type="int" >       86 </v>
   <v type="int" >       87 </v>
   <v type="int" >       88 </v>
   <v type="int" >       89 </v>
   <v type="int" >       90 </v>
   <v type="int" >       91 </v>
   <v type="int" >       92 </v>
   <v type="int" >       93 </v>
   <v type="int" >       94 </v>
   <v type="int" >       95 </v>
   <v type="int" >       96 </v>
   <v type="int" >       97 </v>
   <v type="int" >       98 </v>
   <v type="int" >       99 </v>
   <v type="int" >      100 </v>
   <v type="int" >      101 </v>
   <v type="int" >      102 </v>
   <v type="int" >      103 </v>
   <v type="int" >      104 </v>
   <v type="int" >      105 </v>
   <v type="int" >      106 </v>
   <v type="int" >      107 </v>
   <v type="int" >      108 </v>
   <v type="int" >      109 </v>
   <v type="int" >      110 </v>
   <v type="int" >      111 </v>
   <v type="int" >      112 </v>
   <v type="int" >      113 </v>
   <v type="int" >      114 </v>
   <v type="int" >      115 </v>
   <v type="int" >      116 </v>
   <v type="int" >      117 </v>
   <v type="int" >      118 </v>
   <v type="int" >      119 </v>
   <v type="int" >      120 </v>
   <v type="int" >      121 </v>
   <v type="int" >      122 </v>
   <v type="int" >      123 </v>
   <v type="int" >      124 </v>
   <v type="int" >      125 </v>
   <v type="int" >      126 </v>
   <v type="int" >      127 </v>
   <v type="int" >      128 </v>
   <v type="int" >      129 </v>
   <v type="int" >      130 </v>
   <v type="int" >      131 </v>
   <v type="int" >      132 </v>
   <v type="int" >      133 </v>
   <v type="int" >      134 </v>
   <v type="int" >      135 </v>
   <v type="int" >      136 </v>
   <v type="int" >      137 </v>
   <v type="int" >      138 </v>
   <v type="int" >      139 </v>
   <v type="int" >      140 </v>
   <v type="int" >      141 </v>
   <v type="int" >      142 </v>
   <v type="int" >      143 </v>
   <v type="int" >      144 </v>
   <v type="int" >      145 </v>
   <v type="int" >      146 </v>
   <v type="int" >      147 </v>
   <v type="int" >      148 </v>
   <v type="int" >      149 </v>
   <v type="int" >      150 </v>
   <v type="int" >      151 </v>
   <v type="int" >      152 </v>
   <v type="int" >      153 </v>
   <v type="int" >      154 </v>
   <v type="int" >      155 </v>
   <v type="int" >      156 </v>
   <v type="int" >      157 </v>
   <v type="int" >      158 </v>
   <v type="int" >      159 </v>
   <v type="int" >      160 </v>
   <v type="int" >      161 </v>
   <v type="int" >      162 </v>
   <v type="int" >      163 </v>
   <v type="int" >      164 </v>
   <v type="int" >      165 </v>
   <v type="int" >      166 </v>
   <v type="int" >      167 </v>
   <v type="int" >      168 </v>
   <v type="int" >      169 </v>
   <v type="int" >      170 </v>
   <v type="int" >      171 </v>
   <v type="int" >      172 </v>
   <v type="int" >      173 </v>
   <v type="int" >      174 </v>
   <v type="int" >      175 </v>
   <v type="int" >      176 </v>
   <v type="int" >      177 </v>
   <v type="int" >      178 </v>
   <v type="int" >      179 </v>
   <v type="int" >      180 </v>
   <v type="int" >      181 </v>
   <v type="int" >      182 </v>
   <v type="int" >      183 </v>
   <v type="int" >      184 </v>
   <v type="int" >      185 </v>
   <v type="int" >      186 </v>
   <v type="int" >      187 </v>
   <v type="int" >      188 </v>
   <v type="int" >      189 </v>
   <v type="int" >      190 </v>
   <v type="int" >      191 </v>
   <v type="int" >      192 </v>
   <v type="int" >      193 </v>
   <v type="int" >      194 </v>
   <v type="int" >      195 </v>
   <v type="int" >      196 </v>
   <v type="int" >      197 </v>
   <v type="int" >      198 </v>
   <v type="int" >      199 </v>
   <v type="int" >      200 </v>
   <v type="int" >      201 </v>
   <v type="int" >      202 </v>
   <v type="int" >      203 </v>
   <v type="int" >      204 </v>
   <v type="int" >      205 </v>
   <v type="int" >      206 </v>
   <v type="int" >      207 </v>
   <v type="int" >      208 </v>
   <v type="int" >      209 </v>
   <v type="int" >      210 </v>
   <v type="int" >      211 </v>
   <v type="int" >      212 </v>
   <v type="int" >      213 </v>
   <v type="int" >      214 </v>
   <v type="int" >      215 </v>
   <v type="int" >      216 </v>
   <v type="int" >      217 </v>
   <v type="int" >      218 </v>
   <v type="int" >      219 </v>
   <v type="int" >      220 </v>
   <v type="int" >      221 </v>
   <v type="int" >      222 </v>
   <v type="int" >      223 </v>
   <v type="int" >      224 </v>
   <v type="int" >      225 </v>
   <v type="int" >      226 </v>
   <v type="int" >      227 </v>
   <v type="int" >      228 </v>
   <v type="int" >      229 </v>
   <v type="int" >      230 </v>
   <v type="int" >      231 </v>
   <v type="int" >      232 </v>
   <v type="int" >      233 </v>
   <v type="int" >      234 </v>
   <v type="int" >      235 </v>
   <v type="int" >      236 </v>
   <v type="int" >      237 </v>
   <v type="int" >      238 </v>
   <v type="int" >      239 </v>
   <v type="int" >      240 </v>
   <v type="int" >      241 </v>
   <v type="int" >      242 </v>
   <v type="int" >      243 </v>
   <v type="int" >      244 </v>
   <v type="int" >      245 </v>
   <v type="int" >      246 </v>
   <v type="int" >      247 </v>
   <v type="int" >      248 </v>
   <v type="int" >      249 </v>
   <v type="int" >      250 </v>
   <v type="int" >      251 </v>
   <v type="int" >      252 </v>
   <v type="int" >      253 </v>
   <v type="int" >      254 </v>
   <v type="int" >      255 </v>
   <v type="int" >      256 </v>
   <v type="int" >      257 </v>
   <v type="int" >      258 </v>
   <v type="int" >      259 </v>
   <v type="int" >      260 </v>
   <v type="int" >      261 </v>
   <v type="int" >      262 </v>
   <v type="int" >      263 </v>
   <v type="int" >      264 </v>
   <v type="int" >      265 </v>
   <v type="int" >      266 </v>
   <v type="int" >      267 </v>
   <v type="int" >      268 </v>
   <v type="int" >      269 </v>
   <v type="int" >      270 </v>
   <v type="int" >      271 </v>
   <v type="int" >      272 </v>
   <v type="int" >      273 </v>
   <v type="int" >      274 </v>
   <v type="int" >      275 </v>
   <v type="int" >      276 </v>
   <v type="int" >      277 </v>
   <v type="int" >      278 </v>
   <v type="int" >      279 </v>
   <v type="int" >      280 </v>
   <v type="int" >      281 </v>
   <v type="int" >      282 </v>
   <v type="int" >      283 </v>
   <v type="int" >      284 </v>
   <v type="int" >      285 </v>
   <v type="int" >      286 </v>
   <v type="int" >      287 </v>
   <v type="int" >      288 </v>
  </varray>
 </primitive_cell>
 <kpoints>
  <generation param="Gamma">
   <v type="int" name="divisions">       2        2        2 </v>
   <v name="usershift">      0.00000000       0.00000000       0.00000000 </v>
   <v name="genvec1">      0.50000000       0.00000000       0.00000000 </v>
   <v name="genvec2">      0.00000000       0.50000000      -0.00000000 </v>
   <v name="genvec3">      0.00000000      -0.00000000       0.50000000 </v>
   <v name="shift">      0.00000000       0.00000000       0.00000000 </v>
  </generation>
  <varray name="kpointlist" >
   <v>       0.00000000       0.00000000       0.00000000 </v>
   <v>       0.50000000       0.00000000       0.00000000 </v>
   <v>       0.00000000       0.50000000       0.00000000 </v>
   <v>       0.50000000       0.50000000       0.00000000 </v>
   <v>       0.00000000      -0.00000000       0.50000000 </v>
   <v>       0.50000000      -0.00000000       0.50000000 </v>
   <v>       0.00000000       0.50000000       0.50000000 </v>
   <v>       0.50000000       0.50000000       0.50000000 </v>
  </varray>
  <varray name="weights" >
   <v>       0.12500000 </v>
   <v>       0.12500000 </v>
   <v>       0.12500000 </v>
   <v>       0.12500000 </v>
   <v>       0.12500000 </v>
   <v>       0.12500000 </v>
   <v>       0.12500000 </v>
   <v>       0.12500000 </v>
  </varray>
 </kpoints>
 <parameters>
  <separator name="general" >
   <i type="string" name="SYSTEM">unknown system</i>
   <i type="logical" name="LCOMPAT"> F  </i>
  </separator>
  <separator name="electronic" >
   <i type="string" name="PREC">normal</i>
   <i name="ENMAX">    500.00000000</i>
   <i name="ENAUG">    627.11200000</i>
   <i name="EDIFF">      0.00000100</i>
   <i type="int" name="IALGO">    68</i>
   <i type="int" name="IWAVPR">    10</i>
   <i type="int" name="NBANDS">   728</i>
   <i type="int" name="NBANDSLOW">    -1</i>
   <i type="int" name="NBANDSHIGH">    -1</i>
   <i name="NELECT">   1153.00000000</i>
   <i type="int" name="TURBO">     0</i>
   <i type="int" name="IRESTART">     0</i>
   <i type="int" name="NREBOOT">     0</i>
   <i type="int" name="NMIN">     0</i>
   <i name="EREF">      0.00000000</i>
   <separator name="electronic smearing" >
    <i type="int" name="ISMEAR">     0</i>
    <i name="SIGMA">      0.05000000</i>
    <i name="KSPACING">      0.50000000</i>
    <i type="logical" name="KGAMMA"> T  </i>
    <i type="logical" name="KBLOWUP"> T  </i>
   </separator>
   <separator name="electronic projectors" >
    <i type="logical" name="LREAL"> F  </i>
    <v name="ROPT">      0.00000000      0.00000000      0.00000000</v>
    <i type="int" name="LMAXPAW">  -100</i>
    <i type="int" name="LMAXMIX">     2</i>
    <i type="logical" name="NLSPLINE"> F  </i>
   </separator>
   <separator name="electronic startup" >
    <i type="int" name="ISTART">     0</i>
    <i type="int" name="ICHARG">     2</i>
    <i type="int" name="INIWAV">     1</i>
   </separator>
   <separator name="electronic spin" >
    <i type="int" name="ISPIN">     2</i>
    <i type="logical" name="LNONCOLLINEAR"> F  </i>
    <v name="MAGMOM">      0.00347222      0.00347222      0.00347222      0.00347222      0.00347222      0.00347222      0.00347222      0.00347222      0.00347222      0.00347222      0.00347222      0.00347222      0.00347222      0.00347222      0.00347222      0.00347222      0.00347222      0.00347222      0.00347222      0.00347222
      0.00347222      0.00347222      0.00347222      0.00347222      0.00347222      0.00347222      0.00347222      0.00347222      0.00347222      0.00347222      0.00347222      0.00347222      0.00347222      0.00347222      0.00347222      0.00347222      0.00347222      0.00347222      0.00347222      0.00347222
      0.00347222      0.00347222      0.00347222      0.00347222      0.00347222      0.00347222      0.00347222      0.00347222      0.00347222      0.00347222      0.00347222      0.00347222      0.00347222      0.00347222      0.00347222      0.00347222      0.00347222      0.00347222      0.00347222      0.00347222
      0.00347222      0.00347222      0.00347222      0.00347222      0.00347222      0.00347222      0.00347222      0.00347222      0.00347222      0.00347222      0.00347222      0.00347222      0.00347222      0.00347222      0.00347222      0.00347222      0.00347222      0.00347222      0.00347222      0.00347222
      0.00347222      0.00347222      0.00347222      0.00347222      0.00347222      0.00347222      0.00347222      0.00347222      0.00347222      0.00347222      0.00347222      0.00347222      0.00347222      0.00347222      0.00347222      0.00347222      0.00347222      0.00347222      0.00347222      0.00347222
      0.00347222      0.00347222      0.00347222      0.00347222      0.00347222      0.00347222      0.00347222      0.00347222      0.00347222      0.00347222      0.00347222      0.00347222      0.00347222      0.00347222      0.00347222      0.00347222      0.00347222      0.00347222      0.00347222      0.00347222
      0.00347222      0.00347222      0.00347222      0.00347222      0.00347222      0.00347222      0.00347222      0.00347222      0.00347222      0.00347222      0.00347222      0.00347222      0.00347222      0.00347222      0.00347222      0.00347222      0.00347222      0.00347222      0.00347222      0.00347222
      0.00347222      0.00347222      0.00347222      0.00347222      0.00347222      0.00347222      0.00347222      0.00347222      0.00347222      0.00347222      0.00347222      0.00347222      0.00347222      0.00347222      0.00347222      0.00347222      0.00347222      0.00347222      0.00347222      0.00347222
      0.00347222      0.00347222      0.00347222      0.00347222      0.00347222      0.00347222      0.00347222      0.00347222      0.00347222      0.00347222      0.00347222      0.00347222      0.00347222      0.00347222      0.00347222      0.00347222      0.00347222      0.00347222      0.00347222      0.00347222
      0.00347222      0.00347222      0.00347222      0.00347222      0.00347222      0.00347222      0.00347222      0.00347222      0.00347222      0.00347222      0.00347222      0.00347222      0.00347222      0.00347222      0.00347222      0.00347222      0.00347222      0.00347222      0.00347222      0.00347222
      0.00347222      0.00347222      0.00347222      0.00347222      0.00347222      0.00347222      0.00347222      0.00347222      0.00347222      0.00347222      0.00347222      0.00347222      0.00347222      0.00347222      0.00347222      0.00347222      0.00347222      0.00347222      0.00347222      0.00347222
      0.00347222      0.00347222      0.00347222      0.00347222      0.00347222      0.00347222      0.00347222      0.00347222      0.00347222      0.00347222      0.00347222      0.00347222      0.00347222      0.00347222      0.00347222      0.00347222      0.00347222      0.00347222      0.00347222      0.00347222
      0.00347222      0.00347222      0.00347222      0.00347222      0.00347222      0.00347222      0.00347222      0.00347222      0.00347222      0.00347222      0.00347222      0.00347222      0.00347222      0.00347222      0.00347222      0.00347222      0.00347222      0.00347222      0.00347222      0.00347222
      0.00347222      0.00347222      0.00347222      0.00347222      0.00347222      0.00347222      0.00347222      0.00347222      0.00347222      0.00347222      0.00347222      0.00347222      0.00347222      0.00347222      0.00347222      0.00347222      0.00347222      0.00347222      0.00347222      0.00347222
      0.00347222      0.00347222      0.00347222      0.00347222      0.00347222      0.00347222      0.00347222      0.00347222</v>
    <i name="NUPDOWN">      1.00000000</i>
    <i type="logical" name="LSORBIT"> F  </i>
    <v name="SAXIS">      0.00000000      0.00000000      1.00000000</v>
    <i type="logical" name="LSPIRAL"> F  </i>
    <v name="QSPIRAL">      0.00000000      0.00000000      0.00000000</v>
    <i type="logical" name="LZEROZ"> F  </i>
   </separator>
   <separator name="electronic exchange-correlation" >
    <i type="logical" name="LASPH"> F  </i>
    <i type="logical" name="LMETAGGA"> F  </i>
   </separator>
   <separator name="electronic convergence" >
    <i type="int" name="NELM">   100</i>
    <i type="int" name="NELMDL">    -5</i>
    <i type="int" name="NELMIN">     4</i>
    <i name="ENINI">    500.00000000</i>
    <separator name="electronic convergence detail" >
     <i type="logical" name="LDIAG"> T  </i>
     <i type="logical" name="LSUBROT"> F  </i>
     <i name="WEIMIN">      0.00000000</i>
     <i name="EBREAK">      0.00000000</i>
     <i name="DEPER">      0.30000000</i>
     <i type="int" name="NRMM">     4</i>
     <i name="TIME">      0.40000000</i>
    </separator>
   </separator>
   <separator name="electronic mixer" >
    <i name="AMIX">      0.40000000</i>
    <i name="BMIX">      1.00000000</i>
    <i name="AMIN">      0.10000000</i>
    <i name="AMIX_MAG">      1.60000000</i>
    <i name="BMIX_MAG">      1.00000000</i>
    <separator name="electronic mixer details" >
     <i type="int" name="IMIX">     4</i>
     <i type="logical" name="MIXFIRST"> F  </i>
     <i type="int" name="MAXMIX">   -45</i>
     <i name="WC">    100.00000000</i>
     <i type="int" name="INIMIX">     1</i>
     <i type="int" name="MIXPRE">     1</i>
     <i type="int" name="MREMOVE">     5</i>
    </separator>
   </separator>
   <separator name="electronic dipolcorrection" >
    <i type="logical" name="LDIPOL"> F  </i>
    <i type="logical" name="LMONO"> F  </i>
    <i type="int" name="IDIPOL">     0</i>
    <i name="EPSILON">      1.00000000</i>
    <v name="DIPOL">   -100.00000000   -100.00000000   -100.00000000</v>
    <i name="EFIELD">      0.00000000</i>
   </separator>
  </separator>
  <separator name="grids" >
   <i type="int" name="NGX">    84</i>
   <i type="int" name="NGY">    84</i>
   <i type="int" name="NGZ">    80</i>
   <i type="int" name="NGXF">   168</i>
   <i type="int" name="NGYF">   168</i>
   <i type="int" name="NGZF">   160</i>
   <i type="logical" name="ADDGRID"> T  </i>
  </separator>
  <separator name="ionic" >
   <i type="int" name="NSW">     0</i>
   <i type="int" name="IBRION">    -1</i>
   <i type="int" name="MDALGO">     0</i>
   <i type="int" name="ISIF">     2</i>
   <i name="PSTRESS">      0.00000000</i>
   <i name="EDIFFG">      0.00001000</i>
   <i type="int" name="NFREE">     0</i>
   <i name="POTIM">      0.50000000</i>
   <i name="SMASS">     -3.00000000</i>
   <i name="SCALEE">      1.00000000</i>
  </separator>
  <separator name="ionic md" >
   <i name="TEBEG">      0.00010000</i>
   <i name="TEEND">      0.00010000</i>
   <i type="int" name="NBLOCK">     1</i>
   <i type="int" name="KBLOCK">     1</i>
   <i type="int" name="NPACO">   256</i>
   <i name="APACO">     10.00000000</i>
  </separator>
  <separator name="symmetry" >
   <i type="int" name="ISYM">     2</i>
   <i name="SYMPREC">      0.00001000</i>
  </separator>
  <separator name="dos" >
   <i type="int" name="LORBIT">     0</i>
   <v name="RWIGS">     -1.00000000     -1.00000000     -1.00000000</v>
   <i type="int" name="NEDOS">   301</i>
   <i name="EMIN">     10.00000000</i>
   <i name="EMAX">    -10.00000000</i>
   <i name="EFERMI">      0.00000000</i>
  </separator>
  <separator name="writing" >
   <i type="int" name="NWRITE">     2</i>
   <i type="logical" name="LWAVE"> F  </i>
   <i type="logical" name="LDOWNSAMPLE"> F  </i>
   <i type="logical" name="LCHARG"> F  </i>
   <i type="logical" name="LPARD"> F  </i>
   <i type="logical" name="LVTOT"> F  </i>
   <i type="logical" name="LVHAR"> F  </i>
   <i type="logical" name="LELF"> F  </i>
   <i type="logical" name="LOPTICS"> F  </i>
   <v name="STM">      0.00000000      0.00000000      0.00000000      0.00000000      0.00000000      0.00000000      0.00000000</v>
  </separator>
  <separator name="performance" >
   <i type="int" name="NPAR">     8</i>
   <i type="int" name="NSIM">     4</i>
   <i type="int" name="NBLK">    -1</i>
   <i type="logical" name="LPLANE"> T  </i>
   <i type="logical" name="LSCALAPACK"> T  </i>
   <i type="logical" name="LSCAAWARE"> T  </i>
   <i type="logical" name="LSCALU"> F  </i>
   <i type="logical" name="LASYNC"> F  </i>
   <i type="logical" name="LORBITALREAL"> F  </i>
  </separator>
  <separator name="miscellaneous" >
   <i type="int" name="IDIOT">     3</i>
   <i type="int" name="PHON_NSTRUCT">    -1</i>
   <i type="logical" name="LMUSIC"> F  </i>
   <v name="POMASS">     30.97400000     14.00100000     10.81100000</v>
   <v name="DARWINR">      0.00000000      0.00000000      0.00000000</v>
   <v name="DARWINV">      1.00000000      1.00000000      1.00000000</v>
   <i type="logical" name="LCORR"> T  </i>
  </separator>
  <i type="logical" name="GGA_COMPAT"> T  </i>
  <i type="logical" name="LBERRY"> F  </i>
  <i type="int" name="ICORELEVEL">     0</i>
  <i type="logical" name="LDAU"> F  </i>
  <i type="int" name="I_CONSTRAINED_M">     0</i>
  <separator name="electronic exchange-correlation" >
   <i type="string" name="GGA">PE</i>
   <i type="int" name="VOSKOWN">     0</i>
   <i type="logical" name="LHFCALC"> F  </i>
   <i type="string" name="PRECFOCK"></i>
   <i type="logical" name="LSYMGRAD"> F  </i>
   <i type="logical" name="LHFONE"> F  </i>
   <i type="logical" name="LRHFCALC"> F  </i>
   <i type="logical" name="LTHOMAS"> F  </i>
   <i type="logical" name="LMODELHF"> F  </i>
   <i type="logical" name="LFOCKACE"> F  </i>
   <i name="ENCUT4O">     -1.00000000</i>
   <i type="int" name="EXXOEP">     0</i>
   <i type="int" name="FOURORBIT">     0</i>
   <i name="AEXX">      0.00000000</i>
   <i name="HFALPHA">      0.00000000</i>
   <i name="MCALPHA">      0.00000000</i>
   <i name="ALDAX">      1.00000000</i>
   <i name="AGGAX">      1.00000000</i>
   <i name="ALDAC">      1.00000000</i>
   <i name="AGGAC">      1.00000000</i>
   <i type="int" name="NKREDX">     1</i>
   <i type="int" name="NKREDY">     1</i>
   <i type="int" name="NKREDZ">     1</i>
   <i type="logical" name="SHIFTRED"> F  </i>
   <i type="logical" name="ODDONLY"> F  </i>
   <i type="logical" name="EVENONLY"> F  </i>
   <i type="int" name="LMAXFOCK">     0</i>
   <i type="int" name="NMAXFOCKAE">     0</i>
   <i type="logical" name="LFOCKAEDFT"> F  </i>
   <i name="HFSCREEN">      0.00000000</i>
   <i name="HFSCREENC">      0.00000000</i>
   <i type="int" name="NBANDSGWLOW">     0</i>
  </separator>
  <separator name="vdW DFT" >
   <i type="logical" name="LUSE_VDW"> F  </i>
   <i type="int" name="IVDW_NL">     1</i>
   <i type="logical" name="LSPIN_VDW"> F  </i>
   <i name="Zab_VDW">     -0.84910000</i>
   <i name="PARAM1">      0.12340000</i>
   <i name="PARAM2">      1.00000000</i>
   <i name="PARAM3">      0.00000000</i>
  </separator>
  <separator name="model GW" >
   <i type="int" name="MODEL_GW">     0</i>
   <i name="MODEL_EPS0">      5.36999215</i>
   <i name="MODEL_ALPHA">      1.00000000</i>
  </separator>
  <separator name="linear response parameters" >
   <i type="logical" name="LEPSILON"> F  </i>
   <i type="logical" name="LRPA"> F  </i>
   <i type="logical" name="LNABLA"> F  </i>
   <i type="logical" name="LVEL"> F  </i>
   <i name="CSHIFT">      0.10000000</i>
   <i name="OMEGAMAX">     -1.00000000</i>
   <i name="DEG_THRESHOLD">      0.00200000</i>
   <i name="RTIME">     -0.10000000</i>
   <i name="WPLASMAI">      0.00000000</i>
   <v name="DFIELD">      0.00000000      0.00000000      0.00000000</v>
   <v name="WPLASMA">      0.00000000      0.00000000      0.00000000      0.00000000      0.00000000      0.00000000      0.00000000      0.00000000      0.00000000</v>
  </separator>
  <separator name="orbital magnetization" >
   <i type="logical" name="NUCIND"> F  </i>
   <v name="MAGPOS">      0.00000000      0.00000000      0.00000000</v>
   <i type="logical" name="LNICSALL"> T  </i>
   <i type="logical" name="ORBITALMAG"> F  </i>
   <i type="logical" name="LMAGBLOCH"> F  </i>
   <i type="logical" name="LCHIMAG"> F  </i>
   <i type="logical" name="LGAUGE"> T  </i>
   <i type="int" name="MAGATOM">     0</i>
   <v name="MAGDIPOL">      0.00000000      0.00000000      0.00000000</v>
   <v name="AVECCONST">      0.00000000      0.00000000      0.00000000</v>
  </separator>
  <separator name="response functions" >
   <i type="logical" name="LALL_IN_ONE"> F  </i>
   <i type="int" name="IALL_IN_ONE">    -1</i>
   <i type="int" name="NBANDS_WAVE">    -1</i>
   <i type="logical" name="LFINITE_TEMPERATURE"> F  </i>
   <i type="logical" name="LADDER"> F  </i>
   <i type="logical" name="LRPAFORCE"> F  </i>
   <i type="logical" name="LFXC"> F  </i>
   <i type="logical" name="LHARTREE"> T  </i>
   <i type="int" name="IBSE">     0</i>
   <v type="int" name="KPOINT">    -1     0     0     0</v>
   <i type="logical" name="LTCTC"> F  </i>
   <i type="logical" name="LTCTE"> F  </i>
   <i type="logical" name="LTETE"> F  </i>
   <i type="logical" name="LTRIPLET"> F  </i>
   <i type="logical" name="LFXCEPS"> F  </i>
   <i type="logical" name="LFXHEG"> F  </i>
   <i type="int" name="NATURALO">     2</i>
   <i type="logical" name="LHOLEGF"> F  </i>
   <i type="logical" name="L2ORDER"> F  </i>
   <i type="logical" name="LDMP1"> F  </i>
   <i type="logical" name="LMP2LT"> F  </i>
   <i type="logical" name="LSMP2LT"> F  </i>
   <i type="logical" name="LGWLF"> F  </i>
   <i name="ENCUTGW">     -1.60000002</i>
   <i name="ENCUTGWSOFT">     -1.60000002</i>
   <i name="ENCUTLF">     -1.00000000</i>
   <i type="logical" name="LESF_SPLINES"> F  </i>
   <i type="int" name="LMAXMP2">    -1</i>
   <i name="SCISSOR">      0.00000000</i>
   <i type="int" name="NOMEGA">     0</i>
   <i type="int" name="NOMEGAR">     0</i>
   <i type="int" name="NBANDSGW">    -1</i>
   <i type="int" name="NBANDSO">    -1</i>
   <i type="int" name="NBANDSV">    -1</i>
   <i type="int" name="NELMGW">     1</i>
   <i type="int" name="NELMHF">     1</i>
   <i type="int" name="DIM">     3</i>
   <i type="int" name="IESPILON">     4</i>
   <i type="int" name="ANTIRES">     0</i>
   <i name="OMEGAMAX">    -30.00000000</i>
   <i name="OMEGAMIN">    -30.00000000</i>
   <i name="OMEGATL">   -200.00000000</i>
   <i type="int" name="OMEGAGRID">     0</i>
   <i name="CSHIFT">     -0.10000000</i>
   <i type="logical" name="LSELFENERGY"> F  </i>
   <i type="logical" name="LSPECTRAL"> F  </i>
   <i type="logical" name="LSPECTRALGW"> F  </i>
   <i type="logical" name="LSINGLES"> F  </i>
   <i type="logical" name="LFERMIGW"> F  </i>
   <i type="logical" name="ODDONLYGW"> F  </i>
   <i type="logical" name="EVENONLYGW"> F  </i>
   <i type="int" name="NKREDLFX">     1</i>
   <i type="int" name="NKREDLFY">     1</i>
   <i type="int" name="NKREDLFZ">     1</i>
   <i type="int" name="MAXMEM">  2800</i>
   <i type="int" name="TELESCOPE">     0</i>
   <i type="int" name="NTAUPAR">    -1</i>
   <i type="int" name="NOMEGAPAR">    -1</i>
   <i name="DAMP_NEWTON">      0.80000001</i>
   <i name="LAMBDA">      1.00000000</i>
  </separator>
  <separator name="External order field" >
   <i name="OFIELD_KAPPA">      0.00000000</i>
   <v name="OFIELD_K">      0.00000000      0.00000000      0.00000000</v>
   <i name="OFIELD_Q6_NEAR">      0.00000000</i>
   <i name="OFIELD_Q6_FAR">      0.00000000</i>
   <i name="OFIELD_A">      0.00000000</i>
  </separator>
  <separator name="optional k-points parameters" >
   <i type="int" name="KPOINTS_OPT_MODE">     1</i>
   <i type="logical" name="LKPOINTS_OPT"> F  </i>
  </separator>
  <separator name="solvation model" >
   <i type="logical" name="LSOL"> F  </i>
  </separator>
 </parameters>
 <atominfo>
  <atoms>     288 </atoms>
  <types>       3 </types>
  <array name="atoms" >
   <dimension dim="1">ion</dimension>
   <field type="string">element</field>
   <field type="int">atomtype</field>
   <set>
    <rc><c>P </c><c>   1</c></rc>
    <rc><c>N </c><c>   2</c></rc>
    <rc><c>N </c><c>   2</c></rc>
    <rc><c>N </c><c>   2</c></rc>
    <rc><c>N </c><c>   2</c></rc>
    <rc><c>N </c><c>   2</c></rc>
    <rc><c>N </c><c>   2</c></rc>
    <rc><c>N </c><c>   2</c></rc>
    <rc><c>N </c><c>   2</c></rc>
    <rc><c>N </c><c>   2</c></rc>
    <rc><c>N </c><c>   2</c></rc>
    <rc><c>N </c><c>   2</c></rc>
    <rc><c>N </c><c>   2</c></rc>
    <rc><c>N </c><c>   2</c></rc>
    <rc><c>N </c><c>   2</c></rc>
    <rc><c>N </c><c>   2</c></rc>
    <rc><c>N </c><c>   2</c></rc>
    <rc><c>N </c><c>   2</c></rc>
    <rc><c>N </c><c>   2</c></rc>
    <rc><c>N </c><c>   2</c></rc>
    <rc><c>N </c><c>   2</c></rc>
    <rc><c>N </c><c>   2</c></rc>
    <rc><c>N </c><c>   2</c></rc>
    <rc><c>N </c><c>   2</c></rc>
    <rc><c>N </c><c>   2</c></rc>
    <rc><c>N </c><c>   2</c></rc>
    <rc><c>N </c><c>   2</c></rc>
    <rc><c>N </c><c>   2</c></rc>
    <rc><c>N </c><c>   2</c></rc>
    <rc><c>N </c><c>   2</c></rc>
    <rc><c>N </c><c>   2</c></rc>
    <rc><c>N </c><c>   2</c></rc>
    <rc><c>N </c><c>   2</c></rc>
    <rc><c>N </c><c>   2</c></rc>
    <rc><c>N </c><c>   2</c></rc>
    <rc><c>N </c><c>   2</c></rc>
    <rc><c>N </c><c>   2</c></rc>
    <rc><c>N </c><c>   2</c></rc>
    <rc><c>N </c><c>   2</c></rc>
    <rc><c>N </c><c>   2</c></rc>
    <rc><c>N </c><c>   2</c></rc>
    <rc><c>N </c><c>   2</c></rc>
    <rc><c>N </c><c>   2</c></rc>
    <rc><c>N </c><c>   2</c></rc>
    <rc><c>N </c><c>   2</c></rc>
    <rc><c>N </c><c>   2</c></rc>
    <rc><c>N </c><c>   2</c></rc>
    <rc><c>N </c><c>   2</c></rc>
    <rc><c>N </c><c>   2</c></rc>
    <rc><c>N </c><c>   2</c></rc>
    <rc><c>N </c><c>   2</c></rc>
    <rc><c>N </c><c>   2</c></rc>
    <rc><c>N </c><c>   2</c></rc>
    <rc><c>N </c><c>   2</c></rc>
    <rc><c>N </c><c>   2</c></rc>
    <rc><c>N </c><c>   2</c></rc>
    <rc><c>N </c><c>   2</c></rc>
    <rc><c>N </c><c>   2</c></rc>
    <rc><c>N </c><c>   2</c></rc>
    <rc><c>N </c><c>   2</c></rc>
    <rc><c>N </c><c>   2</c></rc>
    <rc><c>N </c><c>   2</c></rc>
    <rc><c>N </c><c>   2</c></rc>
    <rc><c>N </c><c>   2</c></rc>
    <rc><c>N </c><c>   2</c></rc>
    <rc><c>N </c><c>   2</c></rc>
    <rc><c>N </c><c>   2</c></rc>
    <rc><c>N </c><c>   2</c></rc>
    <rc><c>N </c><c>   2</c></rc>
    <rc><c>N </c><c>   2</c></rc>
    <rc><c>N </c><c>   2</c></rc>
    <rc><c>N </c><c>   2</c></rc>
    <rc><c>N </c><c>   2</c></rc>
    <rc><c>N </c><c>   2</c></rc>
    <rc><c>N </c><c>   2</c></rc>
    <rc><c>N </c><c>   2</c></rc>
    <rc><c>N </c><c>   2</c></rc>
    <rc><c>N </c><c>   2</c></rc>
    <rc><c>N </c><c>   2</c></rc>
    <rc><c>N </c><c>   2</c></rc>
    <rc><c>N </c><c>   2</c></rc>
    <rc><c>N </c><c>   2</c></rc>
    <rc><c>N </c><c>   2</c></rc>
    <rc><c>N </c><c>   2</c></rc>
    <rc><c>N </c><c>   2</c></rc>
    <rc><c>N </c><c>   2</c></rc>
    <rc><c>N </c><c>   2</c></rc>
    <rc><c>N </c><c>   2</c></rc>
    <rc><c>N </c><c>   2</c></rc>
    <rc><c>N </c><c>   2</c></rc>
    <rc><c>N </c><c>   2</c></rc>
    <rc><c>N </c><c>   2</c></rc>
    <rc><c>N </c><c>   2</c></rc>
    <rc><c>N </c><c>   2</c></rc>
    <rc><c>N </c><c>   2</c></rc>
    <rc><c>N </c><c>   2</c></rc>
    <rc><c>N </c><c>   2</c></rc>
    <rc><c>N </c><c>   2</c></rc>
    <rc><c>N </c><c>   2</c></rc>
    <rc><c>N </c><c>   2</c></rc>
    <rc><c>N </c><c>   2</c></rc>
    <rc><c>N </c><c>   2</c></rc>
    <rc><c>N </c><c>   2</c></rc>
    <rc><c>N </c><c>   2</c></rc>
    <rc><c>N </c><c>   2</c></rc>
    <rc><c>N </c><c>   2</c></rc>
    <rc><c>N </c><c>   2</c></rc>
    <rc><c>N </c><c>   2</c></rc>
    <rc><c>N </c><c>   2</c></rc>
    <rc><c>N </c><c>   2</c></rc>
    <rc><c>N </c><c>   2</c></rc>
    <rc><c>N </c><c>   2</c></rc>
    <rc><c>N </c><c>   2</c></rc>
    <rc><c>N </c><c>   2</c></rc>
    <rc><c>N </c><c>   2</c></rc>
    <rc><c>N </c><c>   2</c></rc>
    <rc><c>N </c><c>   2</c></rc>
    <rc><c>N </c><c>   2</c></rc>
    <rc><c>N </c><c>   2</c></rc>
    <rc><c>N </c><c>   2</c></rc>
    <rc><c>N </c><c>   2</c></rc>
    <rc><c>N </c><c>   2</c></rc>
    <rc><c>N </c><c>   2</c></rc>
    <rc><c>N </c><c>   2</c></rc>
    <rc><c>N </c><c>   2</c></rc>
    <rc><c>N </c><c>   2</c></rc>
    <rc><c>N </c><c>   2</c></rc>
    <rc><c>N </c><c>   2</c></rc>
    <rc><c>N </c><c>   2</c></rc>
    <rc><c>N </c><c>   2</c></rc>
    <rc><c>N </c><c>   2</c></rc>
    <rc><c>N </c><c>   2</c></rc>
    <rc><c>N </c><c>   2</c></rc>
    <rc><c>N </c><c>   2</c></rc>
    <rc><c>N </c><c>   2</c></rc>
    <rc><c>N </c><c>   2</c></rc>
    <rc><c>N </c><c>   2</c></rc>
    <rc><c>N </c><c>   2</c></rc>
    <rc><c>N </c><c>   2</c></rc>
    <rc><c>N </c><c>   2</c></rc>
    <rc><c>N </c><c>   2</c></rc>
    <rc><c>N </c><c>   2</c></rc>
    <rc><c>N </c><c>   2</c></rc>
    <rc><c>N </c><c>   2</c></rc>
    <rc><c>N </c><c>   2</c></rc>
    <rc><c>B </c><c>   3</c></rc>
    <rc><c>B </c><c>   3</c></rc>
    <rc><c>B </c><c>   3</c></rc>
    <rc><c>B </c><c>   3</c></rc>
    <rc><c>B </c><c>   3</c></rc>
    <rc><c>B </c><c>   3</c></rc>
    <rc><c>B </c><c>   3</c></rc>
    <rc><c>B </c><c>   3</c></rc>
    <rc><c>B </c><c>   3</c></rc>
    <rc><c>B </c><c>   3</c></rc>
    <rc><c>B </c><c>   3</c></rc>
    <rc><c>B </c><c>   3</c></rc>
    <rc><c>B </c><c>   3</c></rc>
    <rc><c>B </c><c>   3</c></rc>
    <rc><c>B </c><c>   3</c></rc>
    <rc><c>B </c><c>   3</c></rc>
    <rc><c>B </c><c>   3</c></rc>
    <rc><c>B </c><c>   3</c></rc>
    <rc><c>B </c><c>   3</c></rc>
    <rc><c>B </c><c>   3</c></rc>
    <rc><c>B </c><c>   3</c></rc>
    <rc><c>B </c><c>   3</c></rc>
    <rc><c>B </c><c>   3</c></rc>
    <rc><c>B </c><c>   3</c></rc>
    <rc><c>B </c><c>   3</c></rc>
    <rc><c>B </c><c>   3</c></rc>
    <rc><c>B </c><c>   3</c></rc>
    <rc><c>B </c><c>   3</c></rc>
    <rc><c>B </c><c>   3</c></rc>
    <rc><c>B </c><c>   3</c></rc>
    <rc><c>B </c><c>   3</c></rc>
    <rc><c>B </c><c>   3</c></rc>
    <rc><c>B </c><c>   3</c></rc>
    <rc><c>B </c><c>   3</c></rc>
    <rc><c>B </c><c>   3</c></rc>
    <rc><c>B </c><c>   3</c></rc>
    <rc><c>B </c><c>   3</c></rc>
    <rc><c>B </c><c>   3</c></rc>
    <rc><c>B </c><c>   3</c></rc>
    <rc><c>B </c><c>   3</c></rc>
    <rc><c>B </c><c>   3</c></rc>
    <rc><c>B </c><c>   3</c></rc>
    <rc><c>B </c><c>   3</c></rc>
    <rc><c>B </c><c>   3</c></rc>
    <rc><c>B </c><c>   3</c></rc>
    <rc><c>B </c><c>   3</c></rc>
    <rc><c>B </c><c>   3</c></rc>
    <rc><c>B </c><c>   3</c></rc>
    <rc><c>B </c><c>   3</c></rc>
    <rc><c>B </c><c>   3</c></rc>
    <rc><c>B </c><c>   3</c></rc>
    <rc><c>B </c><c>   3</c></rc>
    <rc><c>B </c><c>   3</c></rc>
    <rc><c>B </c><c>   3</c></rc>
    <rc><c>B </c><c>   3</c></rc>
    <rc><c>B </c><c>   3</c></rc>
    <rc><c>B </c><c>   3</c></rc>
    <rc><c>B </c><c>   3</c></rc>
    <rc><c>B </c><c>   3</c></rc>
    <rc><c>B </c><c>   3</c></rc>
    <rc><c>B </c><c>   3</c></rc>
    <rc><c>B </c><c>   3</c></rc>
    <rc><c>B </c><c>   3</c></rc>
    <rc><c>B </c><c>   3</c></rc>
    <rc><c>B </c><c>   3</c></rc>
    <rc><c>B </c><c>   3</c></rc>
    <rc><c>B </c><c>   3</c></rc>
    <rc><c>B </c><c>   3</c></rc>
    <rc><c>B </c><c>   3</c></rc>
    <rc><c>B </c><c>   3</c></rc>
    <rc><c>B </c><c>   3</c></rc>
    <rc><c>B </c><c>   3</c></rc>
    <rc><c>B </c><c>   3</c></rc>
    <rc><c>B </c><c>   3</c></rc>
    <rc><c>B </c><c>   3</c></rc>
    <rc><c>B </c><c>   3</c></rc>
    <rc><c>B </c><c>   3</c></rc>
    <rc><c>B </c><c>   3</c></rc>
    <rc><c>B </c><c>   3</c></rc>
    <rc><c>B </c><c>   3</c></rc>
    <rc><c>B </c><c>   3</c></rc>
    <rc><c>B </c><c>   3</c></rc>
    <rc><c>B </c><c>   3</c></rc>
    <rc><c>B </c><c>   3</c></rc>
    <rc><c>B </c><c>   3</c></rc>
    <rc><c>B </c><c>   3</c></rc>
    <rc><c>B </c><c>   3</c></rc>
    <rc><c>B </c><c>   3</c></rc>
    <rc><c>B </c><c>   3</c></rc>
    <rc><c>B </c><c>   3</c></rc>
    <rc><c>B </c><c>   3</c></rc>
    <rc><c>B </c><c>   3</c></rc>
    <rc><c>B </c><c>   3</c></rc>
    <rc><c>B </c><c>   3</c></rc>
    <rc><c>B </c><c>   3</c></rc>
    <rc><c>B </c><c>   3</c></rc>
    <rc><c>B </c><c>   3</c></rc>
    <rc><c>B </c><c>   3</c></rc>
    <rc><c>B </c><c>   3</c></rc>
    <rc><c>B </c><c>   3</c></rc>
    <rc><c>B </c><c>   3</c></rc>
    <rc><c>B </c><c>   3</c></rc>
    <rc><c>B </c><c>   3</c></rc>
    <rc><c>B </c><c>   3</c></rc>
    <rc><c>B </c><c>   3</c></rc>
    <rc><c>B </c><c>   3</c></rc>
    <rc><c>B </c><c>   3</c></rc>
    <rc><c>B </c><c>   3</c></rc>
    <rc><c>B </c><c>   3</c></rc>
    <rc><c>B </c><c>   3</c></rc>
    <rc><c>B </c><c>   3</c></rc>
    <rc><c>B </c><c>   3</c></rc>
    <rc><c>B </c><c>   3</c></rc>
    <rc><c>B </c><c>   3</c></rc>
    <rc><c>B </c><c>   3</c></rc>
    <rc><c>B </c><c>   3</c></rc>
    <rc><c>B </c><c>   3</c></rc>
    <rc><c>B </c><c>   3</c></rc>
    <rc><c>B </c><c>   3</c></rc>
    <rc><c>B </c><c>   3</c></rc>
    <rc><c>B </c><c>   3</c></rc>
    <rc><c>B </c><c>   3</c></rc>
    <rc><c>B </c><c>   3</c></rc>
    <rc><c>B </c><c>   3</c></rc>
    <rc><c>B </c><c>   3</c></rc>
    <rc><c>B </c><c>   3</c></rc>
    <rc><c>B </c><c>   3</c></rc>
    <rc><c>B </c><c>   3</c></rc>
    <rc><c>B </c><c>   3</c></rc>
    <rc><c>B </c><c>   3</c></rc>
    <rc><c>B </c><c>   3</c></rc>
    <rc><c>B </c><c>   3</c></rc>
    <rc><c>B </c><c>   3</c></rc>
    <rc><c>B </c><c>   3</c></rc>
    <rc><c>B </c><c>   3</c></rc>
    <rc><c>B </c><c>   3</c></rc>
    <rc><c>B </c><c>   3</c></rc>
    <rc><c>B </c><c>   3</c></rc>
    <rc><c>B </c><c>   3</c></rc>
    <rc><c>B </c><c>   3</c></rc>
    <rc><c>B </c><c>   3</c></rc>
    <rc><c>B </c><c>   3</c></rc>
    <rc><c>B </c><c>   3</c></rc>
   </set>
  </array>
  <array name="atomtypes" >
   <dimension dim="1">type</dimension>
   <field type="int">atomspertype</field>
   <field type="string">element</field>
   <field>mass</field>
   <field>valence</field>
   <field type="string">pseudopotential</field>
   <set>
    <rc><c>   1</c><c>P </c><c>     30.97400000</c><c>      5.00000000</c><c>  PAW_PBE P 06Sep2000                   </c></rc>
    <rc><c> 144</c><c>N </c><c>     14.00100000</c><c>      5.00000000</c><c>  PAW_PBE N 08Apr2002                   </c></rc>
    <rc><c> 143</c><c>B </c><c>     10.81100000</c><c>      3.00000000</c><c>  PAW_PBE B 06Sep2000                   </c></rc>
   </set>
  </array>
 </atominfo>
 <structure name="initialpos" >
  <crystal>
   <varray name="basis" >
    <v>      14.93631415       0.00000000       0.00000000 </v>
    <v>      -7.46815707      12.93522749      -0.00000000 </v>
    <v>       0.00000000       0.00000000      13.34127628 </v>
   </varray>
   <i name="volume">   2577.59623255 </i>
   <varray name="rec_basis" >
    <v>       0.06695092       0.03865413      -0.00000000 </v>
    <v>       0.00000000       0.07730827      -0.00000000 </v>
    <v>       0.00000000       0.00000000       0.07495535 </v>
   </varray>
  </crystal>
  <varray name="positions" >
   <v>       0.44444444       0.38888889       0.37500000 </v>
   <v>       0.11110578       0.05553988       0.12514209 </v>
   <v>       0.61111893       0.55556454       0.12533815 </v>
   <v>       0.44443410       0.05553988       0.12514209 </v>
   <v>       0.94445577       0.55556472       0.12511237 </v>
   <v>       0.77777778       0.05555556       0.12508750 </v>
   <v>       0.11111111       0.72222222       0.62490204 </v>
   <v>       0.44443410       0.72222755       0.62485791 </v>
   <v>       0.27776879       0.22221440       0.62466185 </v>
   <v>       0.77779345       0.72222755       0.62485791 </v>
   <v>       0.61111409       0.22221925       0.62484996 </v>
   <v>       0.94444599       0.22222938       0.62490241 </v>
   <v>       0.27776861       0.72222439       0.12511237 </v>
   <v>       0.11110516       0.22221925       0.12515004 </v>
   <v>       0.44444561       0.22221440       0.12533815 </v>
   <v>       0.61111409       0.72222817       0.12515004 </v>
   <v>       0.94445577       0.72222439       0.12511237 </v>
   <v>       0.77778339       0.22222938       0.12509759 </v>
   <v>       0.11110895       0.88887756       0.62488763 </v>
   <v>       0.44443273       0.88888303       0.62489877 </v>
   <v>       0.27776879       0.38888773       0.62466185 </v>
   <v>       0.61111893       0.38888773       0.62466185 </v>
   <v>       0.77778339       0.88888734       0.62490241 </v>
   <v>       0.94445030       0.38890061       0.62489877 </v>
   <v>       0.11110578       0.38889924       0.12514209 </v>
   <v>       0.27776861       0.88887756       0.12511237 </v>
   <v>       0.61110395       0.88888734       0.12509759 </v>
   <v>       0.44444444       0.38888889       0.12572567 </v>
   <v>       0.94445030       0.88888303       0.12510123 </v>
   <v>       0.77779345       0.38889924       0.12514209 </v>
   <v>       0.27776995       0.55556338       0.62481384 </v>
   <v>       0.11110578       0.05553988       0.62485791 </v>
   <v>       0.61111893       0.55556454       0.62466185 </v>
   <v>       0.44443410       0.05553988       0.62485791 </v>
   <v>       0.94445577       0.55556472       0.62488763 </v>
   <v>       0.11110895       0.55556472       0.12511237 </v>
   <v>       0.77777778       0.05555556       0.62491250 </v>
   <v>       0.27776995       0.05553990       0.12518616 </v>
   <v>       0.44444561       0.55556454       0.12533815 </v>
   <v>       0.77779343       0.55556338       0.12518616 </v>
   <v>       0.61110395       0.05554994       0.12509759 </v>
   <v>       0.44444561       0.55556454       0.62466185 </v>
   <v>       0.94444599       0.05554994       0.12509759 </v>
   <v>       0.27776861       0.72222439       0.62488763 </v>
   <v>       0.11110516       0.22221925       0.62484996 </v>
   <v>       0.44444561       0.22221440       0.62466185 </v>
   <v>       0.61111409       0.72222817       0.62484996 </v>
   <v>       0.94445577       0.72222439       0.62488763 </v>
   <v>       0.77778339       0.22222938       0.62490241 </v>
   <v>       0.11111111       0.72222222       0.12509796 </v>
   <v>       0.44443410       0.72222755       0.12514209 </v>
   <v>       0.27776879       0.22221440       0.12533815 </v>
   <v>       0.77779345       0.72222755       0.12514209 </v>
   <v>       0.61111409       0.22221925       0.12515004 </v>
   <v>       0.94444599       0.22222938       0.12509759 </v>
   <v>       0.11110578       0.38889924       0.62485791 </v>
   <v>       0.27776861       0.88887756       0.62488763 </v>
   <v>       0.61110395       0.88888734       0.62490241 </v>
   <v>       0.44444444       0.38888889       0.62427433 </v>
   <v>       0.94445030       0.88888303       0.62489877 </v>
   <v>       0.11110895       0.88887756       0.12511237 </v>
   <v>       0.77779345       0.38889924       0.62485791 </v>
   <v>       0.44443273       0.88888303       0.12510123 </v>
   <v>       0.27776879       0.38888773       0.12533815 </v>
   <v>       0.27776995       0.55556338       0.12518616 </v>
   <v>       0.61111893       0.38888773       0.12533815 </v>
   <v>       0.77778339       0.88888734       0.12509759 </v>
   <v>       0.94445030       0.38890061       0.12510123 </v>
   <v>       0.11110895       0.55556472       0.62488763 </v>
   <v>       0.27776995       0.05553990       0.62481384 </v>
   <v>       0.77779343       0.55556338       0.62481384 </v>
   <v>       0.61110395       0.05554994       0.62490241 </v>
   <v>       0.94444599       0.05554994       0.62490241 </v>
   <v>       0.05492459       0.11067225       0.37500000 </v>
   <v>       0.55597948       0.61195895       0.37500000 </v>
   <v>       0.38821178       0.10798614       0.37500000 </v>
   <v>       0.88997050       0.61165191       0.37500000 </v>
   <v>       0.72233166       0.11100168       0.37500000 </v>
   <v>       0.05555347       0.77777986       0.87500000 </v>
   <v>       0.38889499       0.77778040       0.87500000 </v>
   <v>       0.22222211       0.27777772       0.87500000 </v>
   <v>       0.72222208       0.77778036       0.87500000 </v>
   <v>       0.55555561       0.27777772       0.87500000 </v>
   <v>       0.88888780       0.27777560       0.87500000 </v>
   <v>       0.22203010       0.77768172       0.37500000 </v>
   <v>       0.05492459       0.27758567       0.37500000 </v>
   <v>       0.38321436       0.26642872       0.37500000 </v>
   <v>       0.55574766       0.77840874       0.37500000 </v>
   <v>       0.88973042       0.77847773       0.37500000 </v>
   <v>       0.72266108       0.27758567       0.37500000 </v>
   <v>       0.05555294       0.94444793       0.87500000 </v>
   <v>       0.38889499       0.94444793       0.87500000 </v>
   <v>       0.22222295       0.44443974       0.87500000 </v>
   <v>       0.55555250       0.44444291       0.87500000 </v>
   <v>       0.72222259       0.94444517       0.87500000 </v>
   <v>       0.88888540       0.44443834       0.87500000 </v>
   <v>       0.05485561       0.44458602       0.37500000 </v>
   <v>       0.22168142       0.94336284       0.37500000 </v>
   <v>       0.55571596       0.94452465       0.37500000 </v>
   <v>       0.38321436       0.45011897       0.37500000 </v>
   <v>       0.88880868       0.94452465       0.37500000 </v>
   <v>       0.72534720       0.44512155       0.37500000 </v>
   <v>       0.22222502       0.61110832       0.87500000 </v>
   <v>       0.05555297       0.11111126       0.87500000 </v>
   <v>       0.55555561       0.61111123       0.87500000 </v>
   <v>       0.38889360       0.11111654       0.87500000 </v>
   <v>       0.88888330       0.61110832       0.87500000 </v>
   <v>       0.05565162       0.61130323       0.37500000 </v>
   <v>       0.72222259       0.11111075       0.87500000 </v>
   <v>       0.21977436       0.10798614       0.37500000 </v>
   <v>       0.38821178       0.61355898       0.37500000 </v>
   <v>       0.72534720       0.61355898       0.37500000 </v>
   <v>       0.55574766       0.11067225       0.37500000 </v>
   <v>       0.38889360       0.61111039       0.87500000 </v>
   <v>       0.88867002       0.11100168       0.37500000 </v>
   <v>       0.22222639       0.77777986       0.87500000 </v>
   <v>       0.05555297       0.27777505       0.87500000 </v>
   <v>       0.38889042       0.27778084       0.87500000 </v>
   <v>       0.55555829       0.77778036       0.87500000 </v>
   <v>       0.88888540       0.77778040       0.87500000 </v>
   <v>       0.72222208       0.27777505       0.87500000 </v>
   <v>       0.05565162       0.77768172       0.37500000 </v>
   <v>       0.38874731       0.77847773       0.37500000 </v>
   <v>       0.22137438       0.27735386       0.37500000 </v>
   <v>       0.72266108       0.77840874       0.37500000 </v>
   <v>       0.55597948       0.27735386       0.37500000 </v>
   <v>       0.88880868       0.27761737       0.37500000 </v>
   <v>       0.05555294       0.44443834       0.87500000 </v>
   <v>       0.22222502       0.94445003       0.87500000 </v>
   <v>       0.55555773       0.94444553       0.87500000 </v>
   <v>       0.38889042       0.44444291       0.87500000 </v>
   <v>       0.88888780       0.94444553       0.87500000 </v>
   <v>       0.05485561       0.94360291       0.37500000 </v>
   <v>       0.72221679       0.44443974       0.87500000 </v>
   <v>       0.38874731       0.94360291       0.37500000 </v>
   <v>       0.21977436       0.44512155       0.37500000 </v>
   <v>       0.22168142       0.61165191       0.37500000 </v>
   <v>       0.56690462       0.45011897       0.37500000 </v>
   <v>       0.72233166       0.94466331       0.37500000 </v>
   <v>       0.88973042       0.44458602       0.37500000 </v>
   <v>       0.05555347       0.61110694       0.87500000 </v>
   <v>       0.22222295       0.11111654       0.87500000 </v>
   <v>       0.72221679       0.61111039       0.87500000 </v>
   <v>       0.55555829       0.11111126       0.87500000 </v>
   <v>       0.88888816       0.11111075       0.87500000 </v>
   <v>       0.10888702       0.05363429       0.37500000 </v>
   <v>       0.61662821       0.56151023       0.37500000 </v>
   <v>       0.44474727       0.05363429       0.37500000 </v>
   <v>       0.94505350       0.55569452       0.37500000 </v>
   <v>       0.77777778       0.05555556       0.37500000 </v>
   <v>       0.11111111       0.72222222       0.87500000 </v>
   <v>       0.44445789       0.72225917       0.87500000 </v>
   <v>       0.27773656       0.22218886       0.87500000 </v>
   <v>       0.77780129       0.72225917       0.87500000 </v>
   <v>       0.61113701       0.22219632       0.87500000 </v>
   <v>       0.94441891       0.22220602       0.87500000 </v>
   <v>       0.27763881       0.72269232       0.37500000 </v>
   <v>       0.10939752       0.22136543       0.37500000 </v>
   <v>       0.44488202       0.21670513       0.37500000 </v>
   <v>       0.61196791       0.72393582       0.37500000 </v>
   <v>       0.94505350       0.72269232       0.37500000 </v>
   <v>       0.77798832       0.22181380       0.37500000 </v>
   <v>       0.11109976       0.88954876       0.87500000 </v>
   <v>       0.44445802       0.88889568       0.87500000 </v>
   <v>       0.27773656       0.38888103       0.87500000 </v>
   <v>       0.61114447       0.38888103       0.87500000 </v>
   <v>       0.77778711       0.88891442       0.87500000 </v>
   <v>       0.94443766       0.38887531       0.87500000 </v>
   <v>       0.10888702       0.38858606       0.37500000 </v>
   <v>       0.27763881       0.88827983       0.37500000 </v>
   <v>       0.61151953       0.88950785       0.37500000 </v>
   <v>       0.94428960       0.88904373       0.37500000 </v>
   <v>       0.77969904       0.38858606       0.37500000 </v>
   <v>       0.27776270       0.55557063       0.87500000 </v>
   <v>       0.11107416       0.05553205       0.87500000 </v>
   <v>       0.61114447       0.55559678       0.87500000 </v>
   <v>       0.44445789       0.05553205       0.87500000 </v>
   <v>       0.94445408       0.55555385       0.87500000 </v>
   <v>       0.11064101       0.55569452       0.37500000 </v>
   <v>       0.77777778       0.05555556       0.87500000 </v>
   <v>       0.27665444       0.05330889       0.37500000 </v>
   <v>       0.44488202       0.56151023       0.37500000 </v>
   <v>       0.78002445       0.55667889       0.37500000 </v>
   <v>       0.61151953       0.05534502       0.37500000 </v>
   <v>       0.44445231       0.55559678       0.87500000 </v>
   <v>       0.94382548       0.05534502       0.37500000 </v>
   <v>       0.27777949       0.72223357       0.87500000 </v>
   <v>       0.11105932       0.22219632       0.87500000 </v>
   <v>       0.44445231       0.22218886       0.87500000 </v>
   <v>       0.61113701       0.72227402       0.87500000 </v>
   <v>       0.94445408       0.72223357       0.87500000 </v>
   <v>       0.77778711       0.22220602       0.87500000 </v>
   <v>       0.11111111       0.72222222       0.37500000 </v>
   <v>       0.44474727       0.72444631       0.37500000 </v>
   <v>       0.27182310       0.21670513       0.37500000 </v>
   <v>       0.77969904       0.72444631       0.37500000 </v>
   <v>       0.61196791       0.22136543       0.37500000 </v>
   <v>       0.94382548       0.22181380       0.37500000 </v>
   <v>       0.11107416       0.38887545       0.87500000 </v>
   <v>       0.27777949       0.88887925       0.87500000 </v>
   <v>       0.61112731       0.88891442       0.87500000 </v>
   <v>       0.44444444       0.38888889       0.87500000 </v>
   <v>       0.94443766       0.88889568       0.87500000 </v>
   <v>       0.11064101       0.88827983       0.37500000 </v>
   <v>       0.77780129       0.38887545       0.87500000 </v>
   <v>       0.44475413       0.88904373       0.37500000 </v>
   <v>       0.27182310       0.38845131       0.37500000 </v>
   <v>       0.27665444       0.55667889       0.37500000 </v>
   <v>       0.61662821       0.38845131       0.37500000 </v>
   <v>       0.77798832       0.88950785       0.37500000 </v>
   <v>       0.94428960       0.38857921       0.37500000 </v>
   <v>       0.11109976       0.55555385       0.87500000 </v>
   <v>       0.27776270       0.05552540       0.87500000 </v>
   <v>       0.77780793       0.55557063       0.87500000 </v>
   <v>       0.61112731       0.05554622       0.87500000 </v>
   <v>       0.94441891       0.05554622       0.87500000 </v>
   <v>       0.05546928       0.11103632       0.12487403 </v>
   <v>       0.55563492       0.61126984       0.12476730 </v>
   <v>       0.38882801       0.11092619       0.12483104 </v>
   <v>       0.88900701       0.61117017       0.12488859 </v>
   <v>       0.72223458       0.11109875       0.12491481 </v>
   <v>       0.05557215       0.77776118       0.62509033 </v>
   <v>       0.38885004       0.77781495       0.62510653 </v>
   <v>       0.22206349       0.27769841       0.62523270 </v>
   <v>       0.72229702       0.77786405       0.62512597 </v>
   <v>       0.55563492       0.27769841       0.62523270 </v>
   <v>       0.88889259       0.27778519       0.62508998 </v>
   <v>       0.22218903       0.77776118       0.12490967 </v>
   <v>       0.05546928       0.27776630       0.12487403 </v>
   <v>       0.38878395       0.27756790       0.12459556 </v>
   <v>       0.55556704       0.77786405       0.12487403 </v>
   <v>       0.88896491       0.77781495       0.12489347 </v>
   <v>       0.72229702       0.27776630       0.12487403 </v>
   <v>       0.05551838       0.94436842       0.62510653 </v>
   <v>       0.38885004       0.94436842       0.62510653 </v>
   <v>       0.22209818       0.44450532       0.62516896 </v>
   <v>       0.55576543       0.44454938       0.62540444 </v>
   <v>       0.72223458       0.94446917       0.62508519 </v>
   <v>       0.88896491       0.44448330       0.62510653 </v>
   <v>       0.05551838       0.44448330       0.12489347 </v>
   <v>       0.22216316       0.94432633       0.12488859 </v>
   <v>       0.55554814       0.94444074       0.12491002 </v>
   <v>       0.38878395       0.44454938       0.12459556 </v>
   <v>       0.88889259       0.94444074       0.12491002 </v>
   <v>       0.72240714       0.44450532       0.12483104 </v>
   <v>       0.22216316       0.61117017       0.62511141 </v>
   <v>       0.05546928       0.11103632       0.62512597 </v>
   <v>       0.55563492       0.61126984       0.62523270 </v>
   <v>       0.38882801       0.11092619       0.62516896 </v>
   <v>       0.88900701       0.61117017       0.62511141 </v>
   <v>       0.05557215       0.61114430       0.12490967 </v>
   <v>       0.72223458       0.11109875       0.62508519 </v>
   <v>       0.22209818       0.11092619       0.12483104 </v>
   <v>       0.38882801       0.61123515       0.12483104 </v>
   <v>       0.72240714       0.61123515       0.12483104 </v>
   <v>       0.55556704       0.11103632       0.12487403 </v>
   <v>       0.38882801       0.61123515       0.62516896 </v>
   <v>       0.88886417       0.11109875       0.12491481 </v>
   <v>       0.22218903       0.77776118       0.62509033 </v>
   <v>       0.05546928       0.27776630       0.62512597 </v>
   <v>       0.38878395       0.27756790       0.62540444 </v>
   <v>       0.55556704       0.77786405       0.62512597 </v>
   <v>       0.88896491       0.77781495       0.62510653 </v>
   <v>       0.72229702       0.27776630       0.62512597 </v>
   <v>       0.05557215       0.77776118       0.12490967 </v>
   <v>       0.38885004       0.77781495       0.12489347 </v>
   <v>       0.22206349       0.27769841       0.12476730 </v>
   <v>       0.72229702       0.77786405       0.12487403 </v>
   <v>       0.55563492       0.27769841       0.12476730 </v>
   <v>       0.88889259       0.27778519       0.12491002 </v>
   <v>       0.05551838       0.44448330       0.62510653 </v>
   <v>       0.22216316       0.94432633       0.62511141 </v>
   <v>       0.55554814       0.94444074       0.62508998 </v>
   <v>       0.38878395       0.44454938       0.62540444 </v>
   <v>       0.88889259       0.94444074       0.62508998 </v>
   <v>       0.05551838       0.94436842       0.12489347 </v>
   <v>       0.72240714       0.44450532       0.62516896 </v>
   <v>       0.38885004       0.94436842       0.12489347 </v>
   <v>       0.22209818       0.44450532       0.12483104 </v>
   <v>       0.22216316       0.61117017       0.12488859 </v>
   <v>       0.55576543       0.44454938       0.12459556 </v>
   <v>       0.72223458       0.94446917       0.12491481 </v>
   <v>       0.88896491       0.44448330       0.12489347 </v>
   <v>       0.05557215       0.61114430       0.62509033 </v>
   <v>       0.22209818       0.11092619       0.62516896 </v>
   <v>       0.72240714       0.61123515       0.62516896 </v>
   <v>       0.55556704       0.11103632       0.62512597 </v>
   <v>       0.88886417       0.11109875       0.62508519 </v>
  </varray>
 </structure>
 <calculation>
  <scstep>
   <time name="dav">    8.31    8.31</time>
   <time name="total">    8.53    8.53</time>
   <energy>
    <i name="alphaZ">   2866.36594071 </i>
    <i name="ewald"> -35860.82675324 </i>
    <i name="hartreedc"> -13235.40917968 </i>
    <i name="XCdc">   3913.00039264 </i>
    <i name="pawpsdc">  35870.55371313 </i>
    <i name="pawaedc"> -35911.58316637 </i>
    <i name="eentropy">     -0.04272435 </i>
    <i name="bandstr">     62.64441114 </i>
    <i name="atom">  48446.24376545 </i>
    <i name="e_fr_energy">   6150.94639943 </i>
    <i name="e_wo_entrp">   6150.98912378 </i>
    <i name="e_0_energy">   6150.96776160 </i>
   </energy>
  </scstep>
  <scstep>
   <time name="dav">    9.69    9.69</time>
   <time name="total">    9.70    9.70</time>
   <energy>
    <i name="e_fr_energy">  -2175.98454823 </i>
    <i name="e_wo_entrp">  -2175.96828136 </i>
    <i name="e_0_energy">  -2175.97641480 </i>
   </energy>
  </scstep>
  <scstep>
   <time name="dav">    9.13    9.13</time>
   <time name="total">    9.14    9.13</time>
   <energy>
    <i name="e_fr_energy">  -2778.36061008 </i>
    <i name="e_wo_entrp">  -2778.34821039 </i>
    <i name="e_0_energy">  -2778.35441023 </i>
   </energy>
  </scstep>
  <scstep>
   <time name="dav">    9.27    9.26</time>
   <time name="total">    9.27    9.27</time>
   <energy>
    <i name="e_fr_energy">  -2792.06905761 </i>
    <i name="e_wo_entrp">  -2792.05854357 </i>
    <i name="e_0_energy">  -2792.06380059 </i>
   </energy>
  </scstep>
  <scstep>
   <time name="dav">    9.15    9.15</time>
   <time name="total">    9.51    9.51</time>
   <energy>
    <i name="e_fr_energy">  -2792.43897306 </i>
    <i name="e_wo_entrp">  -2792.42853720 </i>
    <i name="e_0_energy">  -2792.43375513 </i>
   </energy>
  </scstep>
  <scstep>
   <time name="diag">    0.64    0.64</time>
   <time name="diis">    5.07    5.07</time>
   <time name="orth">    0.27    0.27</time>
   <time name="total">    6.53    6.53</time>
   <energy>
    <i name="e_fr_energy">  -2547.78415249 </i>
    <i name="e_wo_entrp">  -2547.78415249 </i>
    <i name="e_0_energy">  -2547.78415249 </i>
   </energy>
  </scstep>
  <scstep>
   <time name="diag">    0.67    0.67</time>
   <time name="diis">    5.19    5.18</time>
   <time name="orth">    0.27    0.27</time>
   <time name="total">    6.68    6.67</time>
   <energy>
    <i name="e_fr_energy">  -2533.08059923 </i>
    <i name="e_wo_entrp">  -2533.08059923 </i>
    <i name="e_0_energy">  -2533.08059923 </i>
   </energy>
  </scstep>
  <scstep>
   <time name="diag">    0.64    0.64</time>
   <time name="diis">    5.24    5.24</time>
   <time name="orth">    0.27    0.27</time>
   <time name="total">    6.71    6.70</time>
   <energy>
    <i name="e_fr_energy">  -2530.01956167 </i>
    <i name="e_wo_entrp">  -2530.01956167 </i>
    <i name="e_0_energy">  -2530.01956167 </i>
   </energy>
  </scstep>
  <scstep>
   <time name="diag">    0.63    0.63</time>
   <time name="diis">    5.36    5.35</time>
   <time name="orth">    0.27    0.27</time>
   <time name="total">    6.79    6.79</time>
   <energy>
    <i name="e_fr_energy">  -2526.12918618 </i>
    <i name="e_wo_entrp">  -2526.12918618 </i>
    <i name="e_0_energy">  -2526.12918618 </i>
   </energy>
  </scstep>
  <scstep>
   <time name="diag">    0.63    0.63</time>
   <time name="diis">    5.57    5.57</time>
   <time name="orth">    0.28    0.27</time>
   <time name="total">    7.04    7.03</time>
   <energy>
    <i name="e_fr_energy">  -2526.20185489 </i>
    <i name="e_wo_entrp">  -2526.20185489 </i>
    <i name="e_0_energy">  -2526.20185489 </i>
   </energy>
  </scstep>
  <scstep>
   <time name="diag">    0.64    0.64</time>
   <time name="diis">    5.58    5.58</time>
   <time name="orth">    0.27    0.27</time>
   <time name="total">    7.03    7.02</time>
   <energy>
    <i name="e_fr_energy">  -2526.22357146 </i>
    <i name="e_wo_entrp">  -2526.22357146 </i>
    <i name="e_0_energy">  -2526.22357146 </i>
   </energy>
  </scstep>
  <scstep>
   <time name="diag">    0.67    0.67</time>
   <time name="diis">    5.58    5.58</time>
   <time name="orth">    0.28    0.28</time>
   <time name="total">    7.07    7.07</time>
   <energy>
    <i name="e_fr_energy">  -2526.19620811 </i>
    <i name="e_wo_entrp">  -2526.19620811 </i>
    <i name="e_0_energy">  -2526.19620811 </i>
   </energy>
  </scstep>
  <scstep>
   <time name="diag">    0.63    0.63</time>
   <time name="diis">    5.70    5.70</time>
   <time name="orth">    0.27    0.27</time>
   <time name="total">    7.21    7.21</time>
   <energy>
    <i name="e_fr_energy">  -2526.19511931 </i>
    <i name="e_wo_entrp">  -2526.19511931 </i>
    <i name="e_0_energy">  -2526.19511931 </i>
   </energy>
  </scstep>
  <scstep>
   <time name="diag">    0.69    0.69</time>
   <time name="diis">    5.87    5.87</time>
   <time name="orth">    0.27    0.27</time>
   <time name="total">    7.37    7.36</time>
   <energy>
    <i name="e_fr_energy">  -2526.19539737 </i>
    <i name="e_wo_entrp">  -2526.19539737 </i>
    <i name="e_0_energy">  -2526.19539737 </i>
   </energy>
  </scstep>
  <scstep>
   <time name="diag">    0.64    0.64</time>
   <time name="diis">    5.95    5.94</time>
   <time name="orth">    0.27    0.27</time>
   <time name="total">    7.43    7.42</time>
   <energy>
    <i name="e_fr_energy">  -2526.19548296 </i>
    <i name="e_wo_entrp">  -2526.19548296 </i>
    <i name="e_0_energy">  -2526.19548296 </i>
   </energy>
  </scstep>
  <scstep>
   <time name="diag">    0.63    0.63</time>
   <time name="diis">    5.85    5.84</time>
   <time name="orth">    0.27    0.27</time>
   <time name="total">    7.33    7.32</time>
   <energy>
    <i name="e_fr_energy">  -2526.19545294 </i>
    <i name="e_wo_entrp">  -2526.19545294 </i>
    <i name="e_0_energy">  -2526.19545294 </i>
   </energy>
  </scstep>
  <scstep>
   <time name="diag">    0.68    0.67</time>
   <time name="diis">    5.80    5.80</time>
   <time name="orth">    0.27    0.27</time>
   <time name="total">    7.30    7.30</time>
   <energy>
    <i name="e_fr_energy">  -2526.19544479 </i>
    <i name="e_wo_entrp">  -2526.19544479 </i>
    <i name="e_0_energy">  -2526.19544479 </i>
   </energy>
  </scstep>
  <scstep>
   <time name="diag">    0.63    0.63</time>
   <time name="diis">    5.57    5.57</time>
   <time name="orth">    0.27    0.27</time>
   <time name="total">    7.03    7.02</time>
   <energy>
    <i name="e_fr_energy">  -2526.19544514 </i>
    <i name="e_wo_entrp">  -2526.19544514 </i>
    <i name="e_0_energy">  -2526.19544514 </i>
   </energy>
  </scstep>
  <scstep>
   <time name="diag">    0.62    0.62</time>
   <time name="diis">    4.47    4.46</time>
   <time name="orth">    0.28    0.28</time>
   <time name="total">    5.58    5.58</time>
   <energy>
    <i name="alphaZ">   2866.36594071 </i>
    <i name="ewald"> -35860.82675324 </i>
    <i name="hartreedc"> -16414.54460150 </i>
    <i name="XCdc">   4103.41376338 </i>
    <i name="pawpsdc"> 140225.01085310 </i>
    <i name="pawaedc">-140325.58940125 </i>
    <i name="eentropy">     -0.00000000 </i>
    <i name="bandstr">  -5566.26901143 </i>
    <i name="atom">  48446.24376545 </i>
    <i name="e_fr_energy">  -2526.19544478 </i>
    <i name="e_wo_entrp">  -2526.19544478 </i>
    <i name="e_0_energy">  -2526.19544478 </i>
   </energy>
  </scstep>
  <structure>
   <crystal>
    <varray name="basis" >
     <v>      14.93631415       0.00000000       0.00000000 </v>
     <v>      -7.46815707      12.93522749      -0.00000000 </v>
     <v>       0.00000000       0.00000000      13.34127628 </v>
    </varray>
    <i name="volume">   2577.59623255 </i>
    <varray name="rec_basis" >
     <v>       0.06695092       0.03865413      -0.00000000 </v>
     <v>       0.00000000       0.07730827      -0.00000000 </v>
     <v>       0.00000000       0.00000000       0.07495535 </v>
    </varray>
   </crystal>
   <varray name="positions" >
    <v>       0.44444444       0.38888889       0.37500000 </v>
    <v>       0.11110578       0.05553988       0.12514209 </v>
    <v>       0.61111893       0.55556454       0.12533815 </v>
    <v>       0.44443410       0.05553988       0.12514209 </v>
    <v>       0.94445577       0.55556472       0.12511237 </v>
    <v>       0.77777778       0.05555556       0.12508750 </v>
    <v>       0.11111111       0.72222222       0.62490204 </v>
    <v>       0.44443410       0.72222755       0.62485791 </v>
    <v>       0.27776879       0.22221440       0.62466185 </v>
    <v>       0.77779345       0.72222755       0.62485791 </v>
    <v>       0.61111409       0.22221925       0.62484996 </v>
    <v>       0.94444599       0.22222938       0.62490241 </v>
    <v>       0.27776861       0.72222439       0.12511237 </v>
    <v>       0.11110516       0.22221925       0.12515004 </v>
    <v>       0.44444561       0.22221440       0.12533815 </v>
    <v>       0.61111409       0.72222817       0.12515004 </v>
    <v>       0.94445577       0.72222439       0.12511237 </v>
    <v>       0.77778339       0.22222938       0.12509759 </v>
    <v>       0.11110895       0.88887756       0.62488763 </v>
    <v>       0.44443273       0.88888303       0.62489877 </v>
    <v>       0.27776879       0.38888773       0.62466185 </v>
    <v>       0.61111893       0.38888773       0.62466185 </v>
    <v>       0.77778339       0.88888734       0.62490241 </v>
    <v>       0.94445030       0.38890061       0.62489877 </v>
    <v>       0.11110578       0.38889924       0.12514209 </v>
    <v>       0.27776861       0.88887756       0.12511237 </v>
    <v>       0.61110395       0.88888734       0.12509759 </v>
    <v>       0.44444444       0.38888889       0.12572567 </v>
    <v>       0.94445030       0.88888303       0.12510123 </v>
    <v>       0.77779345       0.38889924       0.12514209 </v>
    <v>       0.27776995       0.55556338       0.62481384 </v>
    <v>       0.11110578       0.05553988       0.62485791 </v>
    <v>       0.61111893       0.55556454       0.62466185 </v>
    <v>       0.44443410       0.05553988       0.62485791 </v>
    <v>       0.94445577       0.55556472       0.62488763 </v>
    <v>       0.11110895       0.55556472       0.12511237 </v>
    <v>       0.77777778       0.05555556       0.62491250 </v>
    <v>       0.27776995       0.05553990       0.12518616 </v>
    <v>       0.44444561       0.55556454       0.12533815 </v>
    <v>       0.77779343       0.55556338       0.12518616 </v>
    <v>       0.61110395       0.05554994       0.12509759 </v>
    <v>       0.44444561       0.55556454       0.62466185 </v>
    <v>       0.94444599       0.05554994       0.12509759 </v>
    <v>       0.27776861       0.72222439       0.62488763 </v>
    <v>       0.11110516       0.22221925       0.62484996 </v>
    <v>       0.44444561       0.22221440       0.62466185 </v>
    <v>       0.61111409       0.72222817       0.62484996 </v>
    <v>       0.94445577       0.72222439       0.62488763 </v>
    <v>       0.77778339       0.22222938       0.62490241 </v>
    <v>       0.11111111       0.72222222       0.12509796 </v>
    <v>       0.44443410       0.72222755       0.12514209 </v>
    <v>       0.27776879       0.22221440       0.12533815 </v>
    <v>       0.77779345       0.72222755       0.12514209 </v>
    <v>       0.61111409       0.22221925       0.12515004 </v>
    <v>       0.94444599       0.22222938       0.12509759 </v>
    <v>       0.11110578       0.38889924       0.62485791 </v>
    <v>       0.27776861       0.88887756       0.62488763 </v>
    <v>       0.61110395       0.88888734       0.62490241 </v>
    <v>       0.44444444       0.38888889       0.62427433 </v>
    <v>       0.94445030       0.88888303       0.62489877 </v>
    <v>       0.11110895       0.88887756       0.12511237 </v>
    <v>       0.77779345       0.38889924       0.62485791 </v>
    <v>       0.44443273       0.88888303       0.12510123 </v>
    <v>       0.27776879       0.38888773       0.12533815 </v>
    <v>       0.27776995       0.55556338       0.12518616 </v>
    <v>       0.61111893       0.38888773       0.12533815 </v>
    <v>       0.77778339       0.88888734       0.12509759 </v>
    <v>       0.94445030       0.38890061       0.12510123 </v>
    <v>       0.11110895       0.55556472       0.62488763 </v>
    <v>       0.27776995       0.05553990       0.62481384 </v>
    <v>       0.77779343       0.55556338       0.62481384 </v>
    <v>       0.61110395       0.05554994       0.62490241 </v>
    <v>       0.94444599       0.05554994       0.62490241 </v>
    <v>       0.05492459       0.11067225       0.37500000 </v>
    <v>       0.55597948       0.61195895       0.37500000 </v>
    <v>       0.38821178       0.10798614       0.37500000 </v>
    <v>       0.88997050       0.61165191       0.37500000 </v>
    <v>       0.72233166       0.11100168       0.37500000 </v>
    <v>       0.05555347       0.77777986       0.87500000 </v>
    <v>       0.38889499       0.77778040       0.87500000 </v>
    <v>       0.22222211       0.27777772       0.87500000 </v>
    <v>       0.72222208       0.77778036       0.87500000 </v>
    <v>       0.55555561       0.27777772       0.87500000 </v>
    <v>       0.88888780       0.27777560       0.87500000 </v>
    <v>       0.22203010       0.77768172       0.37500000 </v>
    <v>       0.05492459       0.27758567       0.37500000 </v>
    <v>       0.38321436       0.26642872       0.37500000 </v>
    <v>       0.55574766       0.77840874       0.37500000 </v>
    <v>       0.88973042       0.77847773       0.37500000 </v>
    <v>       0.72266108       0.27758567       0.37500000 </v>
    <v>       0.05555294       0.94444793       0.87500000 </v>
    <v>       0.38889499       0.94444793       0.87500000 </v>
    <v>       0.22222295       0.44443974       0.87500000 </v>
    <v>       0.55555250       0.44444291       0.87500000 </v>
    <v>       0.72222259       0.94444517       0.87500000 </v>
    <v>       0.88888540       0.44443834       0.87500000 </v>
    <v>       0.05485561       0.44458602       0.37500000 </v>
    <v>       0.22168142       0.94336284       0.37500000 </v>
    <v>       0.55571596       0.94452465       0.37500000 </v>
    <v>       0.38321436       0.45011897       0.37500000 </v>
    <v>       0.88880868       0.94452465       0.37500000 </v>
    <v>       0.72534720       0.44512155       0.37500000 </v>
    <v>       0.22222502       0.61110832       0.87500000 </v>
    <v>       0.05555297       0.11111126       0.87500000 </v>
    <v>       0.55555561       0.61111123       0.87500000 </v>
    <v>       0.38889360       0.11111654       0.87500000 </v>
    <v>       0.88888330       0.61110832       0.87500000 </v>
    <v>       0.05565162       0.61130323       0.37500000 </v>
    <v>       0.72222259       0.11111075       0.87500000 </v>
    <v>       0.21977436       0.10798614       0.37500000 </v>
    <v>       0.38821178       0.61355898       0.37500000 </v>
    <v>       0.72534720       0.61355898       0.37500000 </v>
    <v>       0.55574766       0.11067225       0.37500000 </v>
    <v>       0.38889360       0.61111039       0.87500000 </v>
    <v>       0.88867002       0.11100168       0.37500000 </v>
    <v>       0.22222639       0.77777986       0.87500000 </v>
    <v>       0.05555297       0.27777505       0.87500000 </v>
    <v>       0.38889042       0.27778084       0.87500000 </v>
    <v>       0.55555829       0.77778036       0.87500000 </v>
    <v>       0.88888540       0.77778040       0.87500000 </v>
    <v>       0.72222208       0.27777505       0.87500000 </v>
    <v>       0.05565162       0.77768172       0.37500000 </v>
    <v>       0.38874731       0.77847773       0.37500000 </v>
    <v>       0.22137438       0.27735386       0.37500000 </v>
    <v>       0.72266108       0.77840874       0.37500000 </v>
    <v>       0.55597948       0.27735386       0.37500000 </v>
    <v>       0.88880868       0.27761737       0.37500000 </v>
    <v>       0.05555294       0.44443834       0.87500000 </v>
    <v>       0.22222502       0.94445003       0.87500000 </v>
    <v>       0.55555773       0.94444553       0.87500000 </v>
    <v>       0.38889042       0.44444291       0.87500000 </v>
    <v>       0.88888780       0.94444553       0.87500000 </v>
    <v>       0.05485561       0.94360291       0.37500000 </v>
    <v>       0.72221679       0.44443974       0.87500000 </v>
    <v>       0.38874731       0.94360291       0.37500000 </v>
    <v>       0.21977436       0.44512155       0.37500000 </v>
    <v>       0.22168142       0.61165191       0.37500000 </v>
    <v>       0.56690462       0.45011897       0.37500000 </v>
    <v>       0.72233166       0.94466331       0.37500000 </v>
    <v>       0.88973042       0.44458602       0.37500000 </v>
    <v>       0.05555347       0.61110694       0.87500000 </v>
    <v>       0.22222295       0.11111654       0.87500000 </v>
    <v>       0.72221679       0.61111039       0.87500000 </v>
    <v>       0.55555829       0.11111126       0.87500000 </v>
    <v>       0.88888816       0.11111075       0.87500000 </v>
    <v>       0.10888702       0.05363429       0.37500000 </v>
    <v>       0.61662821       0.56151023       0.37500000 </v>
    <v>       0.44474727       0.05363429       0.37500000 </v>
    <v>       0.94505350       0.55569452       0.37500000 </v>
    <v>       0.77777778       0.05555556       0.37500000 </v>
    <v>       0.11111111       0.72222222       0.87500000 </v>
    <v>       0.44445789       0.72225917       0.87500000 </v>
    <v>       0.27773656       0.22218886       0.87500000 </v>
    <v>       0.77780129       0.72225917       0.87500000 </v>
    <v>       0.61113701       0.22219632       0.87500000 </v>
    <v>       0.94441891       0.22220602       0.87500000 </v>
    <v>       0.27763881       0.72269232       0.37500000 </v>
    <v>       0.10939752       0.22136543       0.37500000 </v>
    <v>       0.44488202       0.21670513       0.37500000 </v>
    <v>       0.61196791       0.72393582       0.37500000 </v>
    <v>       0.94505350       0.72269232       0.37500000 </v>
    <v>       0.77798832       0.22181380       0.37500000 </v>
    <v>       0.11109976       0.88954876       0.87500000 </v>
    <v>       0.44445802       0.88889568       0.87500000 </v>
    <v>       0.27773656       0.38888103       0.87500000 </v>
    <v>       0.61114447       0.38888103       0.87500000 </v>
    <v>       0.77778711       0.88891442       0.87500000 </v>
    <v>       0.94443766       0.38887531       0.87500000 </v>
    <v>       0.10888702       0.38858606       0.37500000 </v>
    <v>       0.27763881       0.88827983       0.37500000 </v>
    <v>       0.61151953       0.88950785       0.37500000 </v>
    <v>       0.94428960       0.88904373       0.37500000 </v>
    <v>       0.77969904       0.38858606       0.37500000 </v>
    <v>       0.27776270       0.55557063       0.87500000 </v>
    <v>       0.11107416       0.05553205       0.87500000 </v>
    <v>       0.61114447       0.55559678       0.87500000 </v>
    <v>       0.44445789       0.05553205       0.87500000 </v>
    <v>       0.94445408       0.55555385       0.87500000 </v>
    <v>       0.11064101       0.55569452       0.37500000 </v>
    <v>       0.77777778       0.05555556       0.87500000 </v>
    <v>       0.27665444       0.05330889       0.37500000 </v>
    <v>       0.44488202       0.56151023       0.37500000 </v>
    <v>       0.78002445       0.55667889       0.37500000 </v>
    <v>       0.61151953       0.05534502       0.37500000 </v>
    <v>       0.44445231       0.55559678       0.87500000 </v>
    <v>       0.94382548       0.05534502       0.37500000 </v>
    <v>       0.27777949       0.72223357       0.87500000 </v>
    <v>       0.11105932       0.22219632       0.87500000 </v>
    <v>       0.44445231       0.22218886       0.87500000 </v>
    <v>       0.61113701       0.72227402       0.87500000 </v>
    <v>       0.94445408       0.72223357       0.87500000 </v>
    <v>       0.77778711       0.22220602       0.87500000 </v>
    <v>       0.11111111       0.72222222       0.37500000 </v>
    <v>       0.44474727       0.72444631       0.37500000 </v>
    <v>       0.27182310       0.21670513       0.37500000 </v>
    <v>       0.77969904       0.72444631       0.37500000 </v>
    <v>       0.61196791       0.22136543       0.37500000 </v>
    <v>       0.94382548       0.22181380       0.37500000 </v>
    <v>       0.11107416       0.38887545       0.87500000 </v>
    <v>       0.27777949       0.88887925       0.87500000 </v>
    <v>       0.61112731       0.88891442       0.87500000 </v>
    <v>       0.44444444       0.38888889       0.87500000 </v>
    <v>       0.94443766       0.88889568       0.87500000 </v>
    <v>       0.11064101       0.88827983       0.37500000 </v>
    <v>       0.77780129       0.38887545       0.87500000 </v>
    <v>       0.44475413       0.88904373       0.37500000 </v>
    <v>       0.27182310       0.38845131       0.37500000 </v>
    <v>       0.27665444       0.55667889       0.37500000 </v>
    <v>       0.61662821       0.38845131       0.37500000 </v>
    <v>       0.77798832       0.88950785       0.37500000 </v>
    <v>       0.94428960       0.38857921       0.37500000 </v>
    <v>       0.11109976       0.55555385       0.87500000 </v>
    <v>       0.27776270       0.05552540       0.87500000 </v>
    <v>       0.77780793       0.55557063       0.87500000 </v>
    <v>       0.61112731       0.05554622       0.87500000 </v>
    <v>       0.94441891       0.05554622       0.87500000 </v>
    <v>       0.05546928       0.11103632       0.12487403 </v>
    <v>       0.55563492       0.61126984       0.12476730 </v>
    <v>       0.38882801       0.11092619       0.12483104 </v>
    <v>       0.88900701       0.61117017       0.12488859 </v>
    <v>       0.72223458       0.11109875       0.12491481 </v>
    <v>       0.05557215       0.77776118       0.62509033 </v>
    <v>       0.38885004       0.77781495       0.62510653 </v>
    <v>       0.22206349       0.27769841       0.62523270 </v>
    <v>       0.72229702       0.77786405       0.62512597 </v>
    <v>       0.55563492       0.27769841       0.62523270 </v>
    <v>       0.88889259       0.27778519       0.62508998 </v>
    <v>       0.22218903       0.77776118       0.12490967 </v>
    <v>       0.05546928       0.27776630       0.12487403 </v>
    <v>       0.38878395       0.27756790       0.12459556 </v>
    <v>       0.55556704       0.77786405       0.12487403 </v>
    <v>       0.88896491       0.77781495       0.12489347 </v>
    <v>       0.72229702       0.27776630       0.12487403 </v>
    <v>       0.05551838       0.94436842       0.62510653 </v>
    <v>       0.38885004       0.94436842       0.62510653 </v>
    <v>       0.22209818       0.44450532       0.62516896 </v>
    <v>       0.55576543       0.44454938       0.62540444 </v>
    <v>       0.72223458       0.94446917       0.62508519 </v>
    <v>       0.88896491       0.44448330       0.62510653 </v>
    <v>       0.05551838       0.44448330       0.12489347 </v>
    <v>       0.22216316       0.94432633       0.12488859 </v>
    <v>       0.55554814       0.94444074       0.12491002 </v>
    <v>       0.38878395       0.44454938       0.12459556 </v>
    <v>       0.88889259       0.94444074       0.12491002 </v>
    <v>       0.72240714       0.44450532       0.12483104 </v>
    <v>       0.22216316       0.61117017       0.62511141 </v>
    <v>       0.05546928       0.11103632       0.62512597 </v>
    <v>       0.55563492       0.61126984       0.62523270 </v>
    <v>       0.38882801       0.11092619       0.62516896 </v>
    <v>       0.88900701       0.61117017       0.62511141 </v>
    <v>       0.05557215       0.61114430       0.12490967 </v>
    <v>       0.72223458       0.11109875       0.62508519 </v>
    <v>       0.22209818       0.11092619       0.12483104 </v>
    <v>       0.38882801       0.61123515       0.12483104 </v>
    <v>       0.72240714       0.61123515       0.12483104 </v>
    <v>       0.55556704       0.11103632       0.12487403 </v>
    <v>       0.38882801       0.61123515       0.62516896 </v>
    <v>       0.88886417       0.11109875       0.12491481 </v>
    <v>       0.22218903       0.77776118       0.62509033 </v>
    <v>       0.05546928       0.27776630       0.62512597 </v>
    <v>       0.38878395       0.27756790       0.62540444 </v>
    <v>       0.55556704       0.77786405       0.62512597 </v>
    <v>       0.88896491       0.77781495       0.62510653 </v>
    <v>       0.72229702       0.27776630       0.62512597 </v>
    <v>       0.05557215       0.77776118       0.12490967 </v>
    <v>       0.38885004       0.77781495       0.12489347 </v>
    <v>       0.22206349       0.27769841       0.12476730 </v>
    <v>       0.72229702       0.77786405       0.12487403 </v>
    <v>       0.55563492       0.27769841       0.12476730 </v>
    <v>       0.88889259       0.27778519       0.12491002 </v>
    <v>       0.05551838       0.44448330       0.62510653 </v>
    <v>       0.22216316       0.94432633       0.62511141 </v>
    <v>       0.55554814       0.94444074       0.62508998 </v>
    <v>       0.38878395       0.44454938       0.62540444 </v>
    <v>       0.88889259       0.94444074       0.62508998 </v>
    <v>       0.05551838       0.94436842       0.12489347 </v>
    <v>       0.72240714       0.44450532       0.62516896 </v>
    <v>       0.38885004       0.94436842       0.12489347 </v>
    <v>       0.22209818       0.44450532       0.12483104 </v>
    <v>       0.22216316       0.61117017       0.12488859 </v>
    <v>       0.55576543       0.44454938       0.12459556 </v>
    <v>       0.72223458       0.94446917       0.12491481 </v>
    <v>       0.88896491       0.44448330       0.12489347 </v>
    <v>       0.05557215       0.61114430       0.62509033 </v>
    <v>       0.22209818       0.11092619       0.62516896 </v>
    <v>       0.72240714       0.61123515       0.62516896 </v>
    <v>       0.55556704       0.11103632       0.62512597 </v>
    <v>       0.88886417       0.11109875       0.62508519 </v>
   </varray>
  </structure>
  <varray name="forces" >
   <v>       0.00013778       0.00018603       0.00000000 </v>
   <v>      -0.00230523      -0.00471599      -0.00198805 </v>
   <v>       0.00352669       0.00734944      -0.00321531 </v>
   <v>       0.00158950      -0.00416418      -0.00018539 </v>
   <v>       0.00169277       0.00158877       0.00130938 </v>
   <v>       0.00058861      -0.00009142      -0.00019732 </v>
   <v>       0.00034593       0.00028894      -0.00306611 </v>
   <v>      -0.00254770       0.00393928       0.00013433 </v>
   <v>      -0.00487623      -0.00770049       0.00362317 </v>
   <v>       0.00254035       0.00464573       0.00018593 </v>
   <v>       0.00766974      -0.00474000       0.00253370 </v>
   <v>      -0.00158638      -0.00286507       0.00068756 </v>
   <v>      -0.00217591       0.00060823       0.00102913 </v>
   <v>      -0.00761364      -0.00543087      -0.00290448 </v>
   <v>       0.00382978      -0.00720687      -0.00331488 </v>
   <v>       0.00015989       0.00940726      -0.00260711 </v>
   <v>       0.00147705       0.00139780       0.00211655 </v>
   <v>       0.00235290      -0.00263347      -0.00054491 </v>
   <v>      -0.00045366      -0.00034548      -0.00068025 </v>
   <v>      -0.00019233       0.00007008      -0.00021436 </v>
   <v>      -0.00822651      -0.00097357       0.00336757 </v>
   <v>       0.00784919      -0.00055980       0.00320590 </v>
   <v>      -0.00033470       0.00352735       0.00084163 </v>
   <v>       0.00030149      -0.00016614      -0.00030845 </v>
   <v>      -0.00439423      -0.00014508      -0.00018790 </v>
   <v>      -0.00106070      -0.00161244       0.00103586 </v>
   <v>       0.00128390       0.00315747      -0.00060179 </v>
   <v>      -0.00033989      -0.00037536       0.00700540 </v>
   <v>       0.00050890       0.00134446      -0.00128152 </v>
   <v>       0.00460036       0.00011155      -0.00001949 </v>
   <v>      -0.00536398       0.00294356      -0.00023776 </v>
   <v>      -0.00230523      -0.00471599       0.00198805 </v>
   <v>       0.00352669       0.00734944       0.00321531 </v>
   <v>       0.00158950      -0.00416418       0.00018539 </v>
   <v>       0.00169277       0.00158877      -0.00130938 </v>
   <v>      -0.00131660       0.00158305       0.00101905 </v>
   <v>       0.00058861      -0.00009142       0.00019732 </v>
   <v>      -0.00105124      -0.00617071      -0.00021803 </v>
   <v>      -0.00382503       0.00713009      -0.00326411 </v>
   <v>       0.00508579       0.00326242       0.00043340 </v>
   <v>       0.00317629      -0.00070214      -0.00056756 </v>
   <v>      -0.00382503       0.00713009       0.00326411 </v>
   <v>      -0.00226592      -0.00089291      -0.00118085 </v>
   <v>      -0.00217591       0.00060823      -0.00102913 </v>
   <v>      -0.00761364      -0.00543087       0.00290448 </v>
   <v>       0.00382978      -0.00720687       0.00331488 </v>
   <v>       0.00015989       0.00940726       0.00260711 </v>
   <v>       0.00147705       0.00139780      -0.00211655 </v>
   <v>       0.00235290      -0.00263347       0.00054491 </v>
   <v>       0.00034593       0.00028894       0.00306611 </v>
   <v>      -0.00254770       0.00393928      -0.00013433 </v>
   <v>      -0.00487623      -0.00770049      -0.00362317 </v>
   <v>       0.00254035       0.00464573      -0.00018593 </v>
   <v>       0.00766974      -0.00474000      -0.00253370 </v>
   <v>      -0.00158638      -0.00286507      -0.00068756 </v>
   <v>      -0.00439423      -0.00014508       0.00018790 </v>
   <v>      -0.00106070      -0.00161244      -0.00103586 </v>
   <v>       0.00128390       0.00315747       0.00060179 </v>
   <v>      -0.00033989      -0.00037536      -0.00700540 </v>
   <v>       0.00050890       0.00134446       0.00128152 </v>
   <v>      -0.00045366      -0.00034548       0.00068025 </v>
   <v>       0.00460036       0.00011155       0.00001949 </v>
   <v>      -0.00019233       0.00007008       0.00021436 </v>
   <v>      -0.00822651      -0.00097357      -0.00336757 </v>
   <v>      -0.00536398       0.00294356       0.00023776 </v>
   <v>       0.00784919      -0.00055980      -0.00320590 </v>
   <v>      -0.00033470       0.00352735      -0.00084163 </v>
   <v>       0.00030149      -0.00016614       0.00030845 </v>
   <v>      -0.00131660       0.00158305      -0.00101905 </v>
   <v>      -0.00105124      -0.00617071       0.00021803 </v>
   <v>       0.00508579       0.00326242      -0.00043340 </v>
   <v>       0.00317629      -0.00070214       0.00056756 </v>
   <v>      -0.00226592      -0.00089291       0.00118085 </v>
   <v>      -0.00133836      -0.01215012       0.00000000 </v>
   <v>       0.00001891       0.02528818      -0.00000000 </v>
   <v>      -0.04217725      -0.04724318       0.00000000 </v>
   <v>       0.01666671       0.00979173      -0.00000000 </v>
   <v>       0.00158734      -0.00091890       0.00000000 </v>
   <v>      -0.03851414       0.19844394      -0.00000000 </v>
   <v>       0.00118507       0.00080718      -0.00000000 </v>
   <v>      -0.00262045      -0.00580145       0.00000000 </v>
   <v>       0.00101334       0.00500354      -0.00000000 </v>
   <v>       0.00176098      -0.00201342       0.00000000 </v>
   <v>       0.00144803      -0.00306884       0.00000000 </v>
   <v>      -0.00131232      -0.00068850       0.00000000 </v>
   <v>      -0.01092674       0.00448069      -0.00000000 </v>
   <v>      -0.00027077      -0.31786432       0.00000000 </v>
   <v>      -0.00952971       0.00730804      -0.00000000 </v>
   <v>       0.02285555      -0.00657368       0.00000000 </v>
   <v>       0.01106914       0.00467550      -0.00000000 </v>
   <v>      -0.16261319       0.13798637      -0.00000000 </v>
   <v>      -0.00468578       0.00207046      -0.00000000 </v>
   <v>      -0.00213367      -0.00073804       0.00000000 </v>
   <v>       0.00079055       0.00036043      -0.00000000 </v>
   <v>       0.00295359       0.00192159      -0.00000000 </v>
   <v>       0.00103290      -0.00269293       0.00000000 </v>
   <v>      -0.00534242       0.02302118      -0.00000000 </v>
   <v>      -0.00018558      -0.01914300       0.00000000 </v>
   <v>      -0.00474920      -0.00275131       0.00000000 </v>
   <v>      -0.27497925       0.15857987      -0.00000000 </v>
   <v>       0.00499870      -0.00267788       0.00000000 </v>
   <v>       0.01980261       0.05991837      -0.00000000 </v>
   <v>       0.00112172      -0.00076440       0.00000000 </v>
   <v>       0.00589313      -0.00859046       0.00000000 </v>
   <v>      -0.00017817       0.00352085      -0.00000000 </v>
   <v>      -0.00101408       0.00124238      -0.00000000 </v>
   <v>      -0.00507537      -0.00974186       0.00000000 </v>
   <v>       0.00011836       0.00158006      -0.00000000 </v>
   <v>       0.00259648      -0.00153773       0.00000000 </v>
   <v>       0.04166274      -0.04711303       0.00000000 </v>
   <v>      -0.06129743      -0.01270773       0.00000000 </v>
   <v>       0.06158551      -0.01259140       0.00000000 </v>
   <v>       0.00133733      -0.01201656       0.00000000 </v>
   <v>      -0.00172513       0.00168511      -0.00000000 </v>
   <v>      -0.00122846      -0.00097656       0.00000000 </v>
   <v>       0.01161825       0.00316106      -0.00000000 </v>
   <v>      -0.00000618      -0.00386815       0.00000000 </v>
   <v>      -0.00242190      -0.00460563       0.00000000 </v>
   <v>       0.00086872       0.00270079      -0.00000000 </v>
   <v>      -0.00803500       0.01743222      -0.00000000 </v>
   <v>       0.00206905      -0.00225903       0.00000000 </v>
   <v>       0.00131383      -0.00051743       0.00000000 </v>
   <v>      -0.02275460      -0.00679726       0.00000000 </v>
   <v>      -0.02187565      -0.01288416       0.00000000 </v>
   <v>       0.00978914       0.00743122      -0.00000000 </v>
   <v>       0.02165324      -0.01268324       0.00000000 </v>
   <v>       0.00014861       0.00539390      -0.00000000 </v>
   <v>       0.00099204      -0.00149175       0.00000000 </v>
   <v>      -0.04009584       0.06544697      -0.00000000 </v>
   <v>       0.00143970       0.00096140      -0.00000000 </v>
   <v>      -0.00220139      -0.00027031       0.00000000 </v>
   <v>       0.01296461       0.00125178      -0.00000000 </v>
   <v>       0.01732414      -0.01617718       0.00000000 </v>
   <v>       0.00152026      -0.00067439       0.00000000 </v>
   <v>      -0.01748900      -0.01637595       0.00000000 </v>
   <v>      -0.01962255       0.05927487      -0.00000000 </v>
   <v>      -0.01644430       0.00950763      -0.00000000 </v>
   <v>       0.27506149       0.15890371      -0.00000000 </v>
   <v>       0.00020733       0.00173553      -0.00000000 </v>
   <v>       0.00558188       0.02322259      -0.00000000 </v>
   <v>       0.00254770      -0.00812522       0.00000000 </v>
   <v>      -0.01054025      -0.01312994       0.00000000 </v>
   <v>       0.00028077       0.00328957      -0.00000000 </v>
   <v>       0.00167701      -0.00165287       0.00000000 </v>
   <v>       0.00275163      -0.00305182       0.00000000 </v>
   <v>      -0.01399036       0.02888702      -0.00000000 </v>
   <v>      -0.06815570      -0.00324915       0.00000000 </v>
   <v>       0.01414482       0.02892110      -0.00000000 </v>
   <v>      -0.00779956      -0.00483727       0.00000000 </v>
   <v>      -0.00029068       0.00003399       0.00000000 </v>
   <v>      -0.03087647       0.03494216      -0.00000000 </v>
   <v>      -0.00031897      -0.00243899       0.00000000 </v>
   <v>       0.00090103       0.00867323      -0.00000000 </v>
   <v>      -0.00129224      -0.00305498       0.00000000 </v>
   <v>      -0.00282527       0.00226925      -0.00000000 </v>
   <v>       0.00019715       0.00282825      -0.00000000 </v>
   <v>       0.00803233      -0.00429600       0.00000000 </v>
   <v>       0.03040530       0.01794074      -0.00000000 </v>
   <v>       0.03130354       0.06075750      -0.00000000 </v>
   <v>      -0.00014556      -0.03532879       0.00000000 </v>
   <v>      -0.00801259      -0.00455166       0.00000000 </v>
   <v>      -0.00714167       0.00219535      -0.00000000 </v>
   <v>       0.27327486      -0.45585327       0.00000000 </v>
   <v>      -0.00059722      -0.00236446       0.00000000 </v>
   <v>       0.00186244       0.00263673      -0.00000000 </v>
   <v>      -0.00076723       0.00036013      -0.00000000 </v>
   <v>      -0.00559174      -0.00668537       0.00000000 </v>
   <v>      -0.00136364       0.00249575      -0.00000000 </v>
   <v>       0.01788374      -0.02627859       0.00000000 </v>
   <v>       0.00047310       0.00896699      -0.00000000 </v>
   <v>       0.00149069      -0.00711996       0.00000000 </v>
   <v>      -0.01228222       0.00674451      -0.00000000 </v>
   <v>      -0.01808009      -0.02652362       0.00000000 </v>
   <v>       0.00055972       0.00032822      -0.00000000 </v>
   <v>      -0.01343321       0.04735024      -0.00000000 </v>
   <v>      -0.00045806      -0.00107097       0.00000000 </v>
   <v>      -0.00172453       0.00239587      -0.00000000 </v>
   <v>      -0.00173926       0.00544698      -0.00000000 </v>
   <v>       0.00762543      -0.00474340       0.00000000 </v>
   <v>      -0.00244060      -0.00002674       0.00000000 </v>
   <v>       0.00021151       0.02787009      -0.00000000 </v>
   <v>       0.06823328      -0.00313610       0.00000000 </v>
   <v>      -0.02414437      -0.01396765       0.00000000 </v>
   <v>      -0.00538503       0.00502767      -0.00000000 </v>
   <v>       0.00095730      -0.00076907       0.00000000 </v>
   <v>       0.00498690       0.00504944      -0.00000000 </v>
   <v>      -0.00390268       0.00187453      -0.00000000 </v>
   <v>       0.00251972       0.00796672      -0.00000000 </v>
   <v>       0.00162469       0.00173304      -0.00000000 </v>
   <v>      -0.00137040      -0.00439782       0.00000000 </v>
   <v>       0.03975682       0.01063711      -0.00000000 </v>
   <v>      -0.00257399       0.00147008      -0.00000000 </v>
   <v>       0.00004031      -0.00015307       0.00000000 </v>
   <v>       0.03191039      -0.00234275       0.00000000 </v>
   <v>      -0.03111416       0.06092207      -0.00000000 </v>
   <v>      -0.03210350      -0.00250343       0.00000000 </v>
   <v>      -0.03054057       0.01773731      -0.00000000 </v>
   <v>       0.00671554       0.00228409      -0.00000000 </v>
   <v>       0.00152265       0.00301431      -0.00000000 </v>
   <v>      -0.01525855      -0.01863044       0.00000000 </v>
   <v>      -0.00098771      -0.00288051       0.00000000 </v>
   <v>       0.00043178       0.00162281      -0.00000000 </v>
   <v>      -0.03122957      -0.02987605       0.00000000 </v>
   <v>      -0.00014882       0.00881247      -0.00000000 </v>
   <v>      -0.00196756       0.00230594      -0.00000000 </v>
   <v>       0.01216539       0.00701663      -0.00000000 </v>
   <v>       0.03690565      -0.05719008       0.00000000 </v>
   <v>       0.02411044      -0.01381197       0.00000000 </v>
   <v>      -0.03683652      -0.05719334       0.00000000 </v>
   <v>      -0.00199147      -0.00721806       0.00000000 </v>
   <v>      -0.00018681      -0.01392257       0.00000000 </v>
   <v>      -0.00309734       0.00279857      -0.00000000 </v>
   <v>       0.02551335       0.00600790      -0.00000000 </v>
   <v>       0.00365774       0.00006457       0.00000000 </v>
   <v>      -0.00185151       0.00125553      -0.00000000 </v>
   <v>      -0.00432371       0.00450275      -0.00000000 </v>
   <v>       0.00205924       0.00761513       0.00036803 </v>
   <v>       0.00020346      -0.01021210       0.00686451 </v>
   <v>      -0.00140218       0.01258593       0.00140338 </v>
   <v>      -0.00589741      -0.00345547      -0.00185893 </v>
   <v>      -0.00169215       0.00109426      -0.00141048 </v>
   <v>      -0.00132197      -0.00086041       0.00527791 </v>
   <v>       0.00434189      -0.00255259       0.00182081 </v>
   <v>       0.00875257       0.00573415      -0.00714067 </v>
   <v>      -0.00428210      -0.00663235       0.00029095 </v>
   <v>      -0.00817818       0.00528883      -0.00684346 </v>
   <v>      -0.00046397      -0.00085071       0.00168780 </v>
   <v>       0.00092903       0.00025176      -0.00295507 </v>
   <v>       0.00663452      -0.00010930      -0.00025245 </v>
   <v>       0.00076895      -0.00495770       0.01355015 </v>
   <v>       0.00411773      -0.00604095      -0.00039278 </v>
   <v>      -0.00347751      -0.00479564      -0.00167153 </v>
   <v>      -0.00721787      -0.00036743      -0.00047476 </v>
   <v>       0.00079131       0.00363168      -0.00150070 </v>
   <v>       0.00026379       0.00484894       0.00167147 </v>
   <v>       0.01159419      -0.00376739      -0.00140749 </v>
   <v>       0.00514642       0.00282286      -0.01337507 </v>
   <v>      -0.00053317      -0.00153233       0.00128582 </v>
   <v>      -0.00442324      -0.00224678       0.00193941 </v>
   <v>       0.00391853      -0.00238149      -0.00183387 </v>
   <v>       0.00087629       0.00622960      -0.00109032 </v>
   <v>       0.00102589       0.00069049      -0.00166895 </v>
   <v>      -0.00444740       0.00299655       0.01344732 </v>
   <v>      -0.00214969       0.00041316      -0.00090601 </v>
   <v>      -0.01149227      -0.00394354       0.00122374 </v>
   <v>       0.00595593      -0.00355560       0.00135127 </v>
   <v>       0.00205924       0.00761513      -0.00036803 </v>
   <v>       0.00020346      -0.01021210      -0.00686451 </v>
   <v>      -0.00140218       0.01258593      -0.00140338 </v>
   <v>      -0.00589741      -0.00345547       0.00185893 </v>
   <v>      -0.00041281      -0.00146781      -0.00288570 </v>
   <v>      -0.00169215       0.00109426       0.00141048 </v>
   <v>       0.00374936       0.01311353       0.00226132 </v>
   <v>       0.00941623      -0.00811550       0.00135830 </v>
   <v>      -0.00896847      -0.00869011       0.00128303 </v>
   <v>      -0.00278298       0.00684632      -0.00041733 </v>
   <v>       0.00941623      -0.00811550      -0.00135830 </v>
   <v>       0.00037966       0.00131523      -0.00119951 </v>
   <v>       0.00092903       0.00025176       0.00295507 </v>
   <v>       0.00663452      -0.00010930       0.00025245 </v>
   <v>       0.00076895      -0.00495770      -0.01355015 </v>
   <v>       0.00411773      -0.00604095       0.00039278 </v>
   <v>      -0.00347751      -0.00479564       0.00167153 </v>
   <v>      -0.00721787      -0.00036743       0.00047476 </v>
   <v>      -0.00132197      -0.00086041      -0.00527791 </v>
   <v>       0.00434189      -0.00255259      -0.00182081 </v>
   <v>       0.00875257       0.00573415       0.00714067 </v>
   <v>      -0.00428210      -0.00663235      -0.00029095 </v>
   <v>      -0.00817818       0.00528883       0.00684346 </v>
   <v>      -0.00046397      -0.00085071      -0.00168780 </v>
   <v>       0.00391853      -0.00238149       0.00183387 </v>
   <v>       0.00087629       0.00622960       0.00109032 </v>
   <v>       0.00102589       0.00069049       0.00166895 </v>
   <v>      -0.00444740       0.00299655      -0.01344732 </v>
   <v>      -0.00214969       0.00041316       0.00090601 </v>
   <v>       0.00079131       0.00363168       0.00150070 </v>
   <v>      -0.01149227      -0.00394354      -0.00122374 </v>
   <v>       0.00026379       0.00484894      -0.00167147 </v>
   <v>       0.01159419      -0.00376739       0.00140749 </v>
   <v>       0.00595593      -0.00355560      -0.00135127 </v>
   <v>       0.00514642       0.00282286       0.01337507 </v>
   <v>      -0.00053317      -0.00153233      -0.00128582 </v>
   <v>      -0.00442324      -0.00224678      -0.00193941 </v>
   <v>      -0.00041281      -0.00146781       0.00288570 </v>
   <v>       0.00374936       0.01311353      -0.00226132 </v>
   <v>      -0.00896847      -0.00869011      -0.00128303 </v>
   <v>      -0.00278298       0.00684632       0.00041733 </v>
   <v>       0.00037966       0.00131523       0.00119951 </v>
  </varray>
  <varray name="stress" >
   <v>      97.01053625      -0.10189341       0.00000000 </v>
   <v>      -0.10189343      96.79401665      -0.00000000 </v>
   <v>       0.00000000      -0.00000000      -3.47032306 </v>
  </varray>
  <energy>
   <i name="e_fr_energy">  -2554.40024384 </i>
   <i name="e_wo_entrp">  -2554.40024384 </i>
   <i name="e_0_energy">  -2554.40024384 </i>
  </energy>
  <time name="totalsc">  173.48  173.39</time>
  <eigenvalues>
   <array>
    <dimension dim="1">band</dimension>
    <dimension dim="2">kpoint</dimension>
    <dimension dim="3">spin</dimension>
    <field>eigene</field>
    <field>occ</field>
    <set>
     <set comment="spin 1">
      <set comment="kpoint 1">
       <r>  -17.2939    1.0000 </r>
       <r>  -15.7201    1.0000 </r>
       <r>  -15.7201    1.0000 </r>
       <r>  -15.5763    1.0000 </r>
       <r>  -15.3639    1.0000 </r>
       <r>  -15.3445    1.0000 </r>
       <r>  -15.1593    1.0000 </r>
       <r>  -15.1592    1.0000 </r>
       <r>  -15.1529    1.0000 </r>
       <r>  -15.0727    1.0000 </r>
       <r>  -14.8867    1.0000 </r>
       <r>  -14.8766    1.0000 </r>
       <r>  -14.8757    1.0000 </r>
       <r>  -14.8463    1.0000 </r>
       <r>  -14.8194    1.0000 </r>
       <r>  -14.8192    1.0000 </r>
       <r>  -14.8190    1.0000 </r>
       <r>  -14.8173    1.0000 </r>
       <r>  -14.7992    1.0000 </r>
       <r>  -14.7878    1.0000 </r>
       <r>  -14.7873    1.0000 </r>
       <r>  -14.7744    1.0000 </r>
       <r>  -14.7411    1.0000 </r>
       <r>  -14.7404    1.0000 </r>
       <r>  -14.6475    1.0000 </r>
       <r>  -14.6291    1.0000 </r>
       <r>  -14.6261    1.0000 </r>
       <r>  -14.6171    1.0000 </r>
       <r>  -14.6133    1.0000 </r>
       <r>  -14.6025    1.0000 </r>
       <r>  -14.5582    1.0000 </r>
       <r>  -14.2539    1.0000 </r>
       <r>  -14.2539    1.0000 </r>
       <r>  -14.2428    1.0000 </r>
       <r>  -13.9204    1.0000 </r>
       <r>  -13.9203    1.0000 </r>
       <r>  -13.8662    1.0000 </r>
       <r>  -13.8304    1.0000 </r>
       <r>  -13.8300    1.0000 </r>
       <r>  -13.8292    1.0000 </r>
       <r>  -13.8247    1.0000 </r>
       <r>  -13.8133    1.0000 </r>
       <r>  -13.8122    1.0000 </r>
       <r>  -13.8119    1.0000 </r>
       <r>  -13.8065    1.0000 </r>
       <r>  -13.8064    1.0000 </r>
       <r>  -13.8015    1.0000 </r>
       <r>  -13.8013    1.0000 </r>
       <r>  -13.7996    1.0000 </r>
       <r>  -13.7625    1.0000 </r>
       <r>  -13.7566    1.0000 </r>
       <r>  -13.7566    1.0000 </r>
       <r>  -13.6405    1.0000 </r>
       <r>  -13.6350    1.0000 </r>
       <r>  -13.6345    1.0000 </r>
       <r>  -13.6339    1.0000 </r>
       <r>  -13.6333    1.0000 </r>
       <r>  -13.6302    1.0000 </r>
       <r>  -13.3995    1.0000 </r>
       <r>  -13.3985    1.0000 </r>
       <r>  -13.3888    1.0000 </r>
       <r>  -13.3824    1.0000 </r>
       <r>  -13.3821    1.0000 </r>
       <r>  -13.3814    1.0000 </r>
       <r>  -13.3683    1.0000 </r>
       <r>  -13.3634    1.0000 </r>
       <r>  -13.3633    1.0000 </r>
       <r>  -13.3629    1.0000 </r>
       <r>  -13.3628    1.0000 </r>
       <r>  -13.3605    1.0000 </r>
       <r>  -13.2780    1.0000 </r>
       <r>  -13.2774    1.0000 </r>
       <r>  -13.2076    1.0000 </r>
       <r>  -13.2030    1.0000 </r>
       <r>  -13.2018    1.0000 </r>
       <r>  -13.2008    1.0000 </r>
       <r>  -13.2002    1.0000 </r>
       <r>  -13.1952    1.0000 </r>
       <r>  -12.8945    1.0000 </r>
       <r>  -12.8583    1.0000 </r>
       <r>  -12.8582    1.0000 </r>
       <r>  -12.7736    1.0000 </r>
       <r>  -12.6757    1.0000 </r>
       <r>  -12.5898    1.0000 </r>
       <r>  -12.5898    1.0000 </r>
       <r>  -12.5888    1.0000 </r>
       <r>  -12.5331    1.0000 </r>
       <r>  -12.5331    1.0000 </r>
       <r>  -12.4973    1.0000 </r>
       <r>  -12.4972    1.0000 </r>
       <r>  -12.4681    1.0000 </r>
       <r>  -12.3460    1.0000 </r>
       <r>  -12.3414    1.0000 </r>
       <r>  -12.3271    1.0000 </r>
       <r>  -12.3204    1.0000 </r>
       <r>  -12.3158    1.0000 </r>
       <r>  -12.3157    1.0000 </r>
       <r>  -12.3092    1.0000 </r>
       <r>  -12.3088    1.0000 </r>
       <r>  -12.3083    1.0000 </r>
       <r>  -12.3076    1.0000 </r>
       <r>  -12.2997    1.0000 </r>
       <r>  -12.2994    1.0000 </r>
       <r>  -12.2851    1.0000 </r>
       <r>  -12.2846    1.0000 </r>
       <r>  -12.2820    1.0000 </r>
       <r>  -12.2814    1.0000 </r>
       <r>  -12.2753    1.0000 </r>
       <r>  -12.2750    1.0000 </r>
       <r>  -12.2729    1.0000 </r>
       <r>  -12.2726    1.0000 </r>
       <r>  -12.2724    1.0000 </r>
       <r>  -12.2716    1.0000 </r>
       <r>  -12.2619    1.0000 </r>
       <r>  -12.2609    1.0000 </r>
       <r>  -12.1915    1.0000 </r>
       <r>  -12.1903    1.0000 </r>
       <r>  -12.1894    1.0000 </r>
       <r>  -12.1862    1.0000 </r>
       <r>  -12.1851    1.0000 </r>
       <r>  -12.1850    1.0000 </r>
       <r>  -12.1647    1.0000 </r>
       <r>  -12.1572    1.0000 </r>
       <r>  -12.1564    1.0000 </r>
       <r>  -12.1541    1.0000 </r>
       <r>  -12.1520    1.0000 </r>
       <r>  -12.1514    1.0000 </r>
       <r>  -12.1482    1.0000 </r>
       <r>  -12.1440    1.0000 </r>
       <r>  -12.1422    1.0000 </r>
       <r>  -12.1415    1.0000 </r>
       <r>  -12.1381    1.0000 </r>
       <r>  -12.1279    1.0000 </r>
       <r>  -12.0648    1.0000 </r>
       <r>  -12.0615    1.0000 </r>
       <r>  -12.0560    1.0000 </r>
       <r>  -11.9614    1.0000 </r>
       <r>  -11.9614    1.0000 </r>
       <r>  -11.5946    1.0000 </r>
       <r>  -11.5942    1.0000 </r>
       <r>  -11.5940    1.0000 </r>
       <r>  -11.5936    1.0000 </r>
       <r>  -11.4712    1.0000 </r>
       <r>  -11.4660    1.0000 </r>
       <r>   -8.3733    1.0000 </r>
       <r>   -7.3290    1.0000 </r>
       <r>   -7.3290    1.0000 </r>
       <r>   -6.6088    1.0000 </r>
       <r>   -6.6087    1.0000 </r>
       <r>   -6.5430    1.0000 </r>
       <r>   -6.5254    1.0000 </r>
       <r>   -6.5254    1.0000 </r>
       <r>   -6.5238    1.0000 </r>
       <r>   -6.5216    1.0000 </r>
       <r>   -6.5215    1.0000 </r>
       <r>   -6.5106    1.0000 </r>
       <r>   -6.4868    1.0000 </r>
       <r>   -6.3924    1.0000 </r>
       <r>   -6.3898    1.0000 </r>
       <r>   -6.3874    1.0000 </r>
       <r>   -6.3162    1.0000 </r>
       <r>   -6.3162    1.0000 </r>
       <r>   -6.0962    1.0000 </r>
       <r>   -6.0962    1.0000 </r>
       <r>   -6.0293    1.0000 </r>
       <r>   -6.0292    1.0000 </r>
       <r>   -6.0064    1.0000 </r>
       <r>   -5.9874    1.0000 </r>
       <r>   -5.9069    1.0000 </r>
       <r>   -5.9069    1.0000 </r>
       <r>   -5.7148    1.0000 </r>
       <r>   -5.7147    1.0000 </r>
       <r>   -5.7131    1.0000 </r>
       <r>   -5.7130    1.0000 </r>
       <r>   -5.7060    1.0000 </r>
       <r>   -5.7059    1.0000 </r>
       <r>   -5.7043    1.0000 </r>
       <r>   -5.7043    1.0000 </r>
       <r>   -5.6909    1.0000 </r>
       <r>   -5.6904    1.0000 </r>
       <r>   -5.6866    1.0000 </r>
       <r>   -5.6859    1.0000 </r>
       <r>   -5.6822    1.0000 </r>
       <r>   -5.6808    1.0000 </r>
       <r>   -5.6808    1.0000 </r>
       <r>   -5.6796    1.0000 </r>
       <r>   -5.6688    1.0000 </r>
       <r>   -5.6685    1.0000 </r>
       <r>   -5.6681    1.0000 </r>
       <r>   -5.6681    1.0000 </r>
       <r>   -5.6670    1.0000 </r>
       <r>   -5.6667    1.0000 </r>
       <r>   -5.6665    1.0000 </r>
       <r>   -5.6665    1.0000 </r>
       <r>   -5.5754    1.0000 </r>
       <r>   -5.5750    1.0000 </r>
       <r>   -5.5637    1.0000 </r>
       <r>   -5.5618    1.0000 </r>
       <r>   -5.5617    1.0000 </r>
       <r>   -5.5604    1.0000 </r>
       <r>   -5.5588    1.0000 </r>
       <r>   -5.5579    1.0000 </r>
       <r>   -5.5553    1.0000 </r>
       <r>   -5.5539    1.0000 </r>
       <r>   -5.5532    1.0000 </r>
       <r>   -5.5509    1.0000 </r>
       <r>   -5.5471    1.0000 </r>
       <r>   -5.5461    1.0000 </r>
       <r>   -5.5431    1.0000 </r>
       <r>   -5.5382    1.0000 </r>
       <r>   -5.4180    1.0000 </r>
       <r>   -5.4168    1.0000 </r>
       <r>   -5.3695    1.0000 </r>
       <r>   -5.2477    1.0000 </r>
       <r>   -5.1470    1.0000 </r>
       <r>   -5.1470    1.0000 </r>
       <r>   -4.9933    1.0000 </r>
       <r>   -4.9233    1.0000 </r>
       <r>   -4.9233    1.0000 </r>
       <r>   -4.8738    1.0000 </r>
       <r>   -4.7492    1.0000 </r>
       <r>   -4.7492    1.0000 </r>
       <r>   -4.7426    1.0000 </r>
       <r>   -4.7426    1.0000 </r>
       <r>   -4.6191    1.0000 </r>
       <r>   -4.6191    1.0000 </r>
       <r>   -4.4775    1.0000 </r>
       <r>   -4.4768    1.0000 </r>
       <r>   -4.4768    1.0000 </r>
       <r>   -4.4746    1.0000 </r>
       <r>   -4.4745    1.0000 </r>
       <r>   -4.4737    1.0000 </r>
       <r>   -4.4733    1.0000 </r>
       <r>   -4.4733    1.0000 </r>
       <r>   -4.4733    1.0000 </r>
       <r>   -4.4717    1.0000 </r>
       <r>   -4.4715    1.0000 </r>
       <r>   -4.4713    1.0000 </r>
       <r>   -4.3436    1.0000 </r>
       <r>   -4.3418    1.0000 </r>
       <r>   -4.3388    1.0000 </r>
       <r>   -4.3388    1.0000 </r>
       <r>   -4.3371    1.0000 </r>
       <r>   -4.3356    1.0000 </r>
       <r>   -4.3340    1.0000 </r>
       <r>   -4.0490    1.0000 </r>
       <r>   -3.9419    1.0000 </r>
       <r>   -3.9418    1.0000 </r>
       <r>   -3.6908    1.0000 </r>
       <r>   -3.6297    1.0000 </r>
       <r>   -3.6297    1.0000 </r>
       <r>   -3.6142    1.0000 </r>
       <r>   -3.5983    1.0000 </r>
       <r>   -3.5189    1.0000 </r>
       <r>   -3.5188    1.0000 </r>
       <r>   -3.3591    1.0000 </r>
       <r>   -3.3416    1.0000 </r>
       <r>   -3.3411    1.0000 </r>
       <r>   -3.3200    1.0000 </r>
       <r>   -3.3200    1.0000 </r>
       <r>   -3.3058    1.0000 </r>
       <r>   -3.3057    1.0000 </r>
       <r>   -3.2206    1.0000 </r>
       <r>   -3.1823    1.0000 </r>
       <r>   -3.1735    1.0000 </r>
       <r>   -3.1734    1.0000 </r>
       <r>   -3.1721    1.0000 </r>
       <r>   -3.1711    1.0000 </r>
       <r>   -3.1325    1.0000 </r>
       <r>   -3.1024    1.0000 </r>
       <r>   -3.1023    1.0000 </r>
       <r>   -3.1013    1.0000 </r>
       <r>   -3.1012    1.0000 </r>
       <r>   -3.1011    1.0000 </r>
       <r>   -3.1010    1.0000 </r>
       <r>   -3.0924    1.0000 </r>
       <r>   -3.0924    1.0000 </r>
       <r>   -3.0914    1.0000 </r>
       <r>   -3.0912    1.0000 </r>
       <r>   -3.0912    1.0000 </r>
       <r>   -3.0910    1.0000 </r>
       <r>   -3.0526    1.0000 </r>
       <r>   -2.9749    1.0000 </r>
       <r>   -2.9713    1.0000 </r>
       <r>   -2.9690    1.0000 </r>
       <r>   -2.9682    1.0000 </r>
       <r>   -2.9662    1.0000 </r>
       <r>   -2.9634    1.0000 </r>
       <r>   -2.9625    1.0000 </r>
       <r>   -2.9243    1.0000 </r>
       <r>   -2.9242    1.0000 </r>
       <r>   -2.9241    1.0000 </r>
       <r>   -2.9241    1.0000 </r>
       <r>   -2.9167    1.0000 </r>
       <r>   -2.9166    1.0000 </r>
       <r>   -2.9160    1.0000 </r>
       <r>   -2.9159    1.0000 </r>
       <r>   -2.9067    1.0000 </r>
       <r>   -2.9058    1.0000 </r>
       <r>   -2.9000    1.0000 </r>
       <r>   -2.8996    1.0000 </r>
       <r>   -2.8908    1.0000 </r>
       <r>   -2.8907    1.0000 </r>
       <r>   -2.8895    1.0000 </r>
       <r>   -2.8893    1.0000 </r>
       <r>   -2.8795    1.0000 </r>
       <r>   -2.8793    1.0000 </r>
       <r>   -2.8784    1.0000 </r>
       <r>   -2.8784    1.0000 </r>
       <r>   -2.8771    1.0000 </r>
       <r>   -2.8767    1.0000 </r>
       <r>   -2.8765    1.0000 </r>
       <r>   -2.8764    1.0000 </r>
       <r>   -2.7747    1.0000 </r>
       <r>   -2.7726    1.0000 </r>
       <r>   -2.7720    1.0000 </r>
       <r>   -2.7708    1.0000 </r>
       <r>   -2.7686    1.0000 </r>
       <r>   -2.7679    1.0000 </r>
       <r>   -2.7665    1.0000 </r>
       <r>   -2.7635    1.0000 </r>
       <r>   -2.7588    1.0000 </r>
       <r>   -2.7580    1.0000 </r>
       <r>   -2.7567    1.0000 </r>
       <r>   -2.7515    1.0000 </r>
       <r>   -2.6286    1.0000 </r>
       <r>   -2.4855    1.0000 </r>
       <r>   -2.4837    1.0000 </r>
       <r>   -2.3150    1.0000 </r>
       <r>   -2.3117    1.0000 </r>
       <r>   -2.3091    1.0000 </r>
       <r>   -2.2828    1.0000 </r>
       <r>   -2.2825    1.0000 </r>
       <r>   -2.2657    1.0000 </r>
       <r>   -2.2329    1.0000 </r>
       <r>   -2.2325    1.0000 </r>
       <r>   -2.2228    1.0000 </r>
       <r>   -2.2223    1.0000 </r>
       <r>   -2.2171    1.0000 </r>
       <r>   -2.2104    1.0000 </r>
       <r>   -2.0978    1.0000 </r>
       <r>   -2.0903    1.0000 </r>
       <r>   -2.0903    1.0000 </r>
       <r>   -1.9561    1.0000 </r>
       <r>   -1.9487    1.0000 </r>
       <r>   -1.9487    1.0000 </r>
       <r>   -1.9431    1.0000 </r>
       <r>   -1.9428    1.0000 </r>
       <r>   -1.8992    1.0000 </r>
       <r>   -1.8469    1.0000 </r>
       <r>   -1.7846    1.0000 </r>
       <r>   -1.7845    1.0000 </r>
       <r>   -1.7830    1.0000 </r>
       <r>   -1.7134    1.0000 </r>
       <r>   -1.7134    1.0000 </r>
       <r>   -1.7133    1.0000 </r>
       <r>   -1.7112    1.0000 </r>
       <r>   -1.7112    1.0000 </r>
       <r>   -1.7111    1.0000 </r>
       <r>   -1.5831    1.0000 </r>
       <r>   -1.5807    1.0000 </r>
       <r>   -1.5784    1.0000 </r>
       <r>   -1.5481    1.0000 </r>
       <r>   -1.5455    1.0000 </r>
       <r>   -1.5454    1.0000 </r>
       <r>   -1.5228    1.0000 </r>
       <r>   -1.5227    1.0000 </r>
       <r>   -1.5016    1.0000 </r>
       <r>   -1.5016    1.0000 </r>
       <r>   -1.5006    1.0000 </r>
       <r>   -1.4997    1.0000 </r>
       <r>   -1.4997    1.0000 </r>
       <r>   -1.4984    1.0000 </r>
       <r>   -1.4967    1.0000 </r>
       <r>   -1.4966    1.0000 </r>
       <r>   -1.4966    1.0000 </r>
       <r>   -1.4923    1.0000 </r>
       <r>   -1.4922    1.0000 </r>
       <r>   -1.4918    1.0000 </r>
       <r>   -1.4865    1.0000 </r>
       <r>   -1.4864    1.0000 </r>
       <r>   -1.4778    1.0000 </r>
       <r>   -1.3734    1.0000 </r>
       <r>   -1.3695    1.0000 </r>
       <r>   -1.3681    1.0000 </r>
       <r>   -1.3665    1.0000 </r>
       <r>   -1.3652    1.0000 </r>
       <r>   -1.3615    1.0000 </r>
       <r>   -1.3570    1.0000 </r>
       <r>   -1.3561    1.0000 </r>
       <r>   -1.3541    1.0000 </r>
       <r>   -1.2581    1.0000 </r>
       <r>   -1.2410    1.0000 </r>
       <r>   -1.2409    1.0000 </r>
       <r>   -1.1927    1.0000 </r>
       <r>   -1.1841    1.0000 </r>
       <r>   -1.1829    1.0000 </r>
       <r>   -1.1545    1.0000 </r>
       <r>   -1.1531    1.0000 </r>
       <r>   -1.1514    1.0000 </r>
       <r>   -1.1508    1.0000 </r>
       <r>   -1.1506    1.0000 </r>
       <r>   -1.1494    1.0000 </r>
       <r>   -1.1493    1.0000 </r>
       <r>   -1.1493    1.0000 </r>
       <r>   -1.1485    1.0000 </r>
       <r>   -1.1485    1.0000 </r>
       <r>   -1.1484    1.0000 </r>
       <r>   -1.1473    1.0000 </r>
       <r>   -1.1472    1.0000 </r>
       <r>   -1.1464    1.0000 </r>
       <r>   -1.1365    1.0000 </r>
       <r>   -1.1284    1.0000 </r>
       <r>   -1.1179    1.0000 </r>
       <r>   -1.1179    1.0000 </r>
       <r>   -1.1043    1.0000 </r>
       <r>   -1.0263    1.0000 </r>
       <r>   -1.0217    1.0000 </r>
       <r>   -1.0192    1.0000 </r>
       <r>   -1.0190    1.0000 </r>
       <r>   -1.0168    1.0000 </r>
       <r>   -1.0120    1.0000 </r>
       <r>   -0.9666    1.0000 </r>
       <r>   -0.9656    1.0000 </r>
       <r>   -0.9607    1.0000 </r>
       <r>   -0.9512    1.0000 </r>
       <r>   -0.9362    1.0000 </r>
       <r>   -0.9357    1.0000 </r>
       <r>   -0.8727    1.0000 </r>
       <r>   -0.8690    1.0000 </r>
       <r>   -0.8688    1.0000 </r>
       <r>   -0.8637    1.0000 </r>
       <r>   -0.8519    1.0000 </r>
       <r>   -0.8519    1.0000 </r>
       <r>   -0.8503    1.0000 </r>
       <r>   -0.8502    1.0000 </r>
       <r>   -0.8500    1.0000 </r>
       <r>   -0.8498    1.0000 </r>
       <r>   -0.8483    1.0000 </r>
       <r>   -0.8440    1.0000 </r>
       <r>   -0.8438    1.0000 </r>
       <r>   -0.8422    1.0000 </r>
       <r>   -0.8421    1.0000 </r>
       <r>   -0.8333    1.0000 </r>
       <r>   -0.8331    1.0000 </r>
       <r>   -0.8251    1.0000 </r>
       <r>   -0.7270    1.0000 </r>
       <r>   -0.7238    1.0000 </r>
       <r>   -0.7219    1.0000 </r>
       <r>   -0.7218    1.0000 </r>
       <r>   -0.7182    1.0000 </r>
       <r>   -0.7137    1.0000 </r>
       <r>   -0.4778    1.0000 </r>
       <r>   -0.4750    1.0000 </r>
       <r>   -0.4150    1.0000 </r>
       <r>   -0.3471    1.0000 </r>
       <r>   -0.3455    1.0000 </r>
       <r>   -0.3385    1.0000 </r>
       <r>   -0.3349    1.0000 </r>
       <r>   -0.2610    1.0000 </r>
       <r>   -0.2595    1.0000 </r>
       <r>   -0.2595    1.0000 </r>
       <r>   -0.2473    1.0000 </r>
       <r>   -0.2471    1.0000 </r>
       <r>   -0.2441    1.0000 </r>
       <r>   -0.2439    1.0000 </r>
       <r>   -0.2414    1.0000 </r>
       <r>   -0.0889    1.0000 </r>
       <r>   -0.0888    1.0000 </r>
       <r>   -0.0391    1.0000 </r>
       <r>    0.0112    1.0000 </r>
       <r>    0.0124    1.0000 </r>
       <r>    0.0549    1.0000 </r>
       <r>    0.0823    1.0000 </r>
       <r>    0.0864    1.0000 </r>
       <r>    0.0869    1.0000 </r>
       <r>    0.1958    1.0000 </r>
       <r>    0.1963    1.0000 </r>
       <r>    0.2140    1.0000 </r>
       <r>    0.2153    1.0000 </r>
       <r>    0.2176    1.0000 </r>
       <r>    0.2178    1.0000 </r>
       <r>    0.2191    1.0000 </r>
       <r>    0.2192    1.0000 </r>
       <r>    0.2371    1.0000 </r>
       <r>    0.2372    1.0000 </r>
       <r>    0.2383    1.0000 </r>
       <r>    0.2384    1.0000 </r>
       <r>    0.2454    1.0000 </r>
       <r>    0.2466    1.0000 </r>
       <r>    0.3469    1.0000 </r>
       <r>    0.3529    1.0000 </r>
       <r>    0.3551    1.0000 </r>
       <r>    0.3605    1.0000 </r>
       <r>    0.3623    1.0000 </r>
       <r>    0.3650    1.0000 </r>
       <r>    0.3706    1.0000 </r>
       <r>    0.5171    1.0000 </r>
       <r>    0.5615    1.0000 </r>
       <r>    0.5619    1.0000 </r>
       <r>    0.6101    1.0000 </r>
       <r>    0.6107    1.0000 </r>
       <r>    0.6165    1.0000 </r>
       <r>    0.6190    1.0000 </r>
       <r>    0.6328    1.0000 </r>
       <r>    0.6345    1.0000 </r>
       <r>    0.6417    1.0000 </r>
       <r>    0.6422    1.0000 </r>
       <r>    0.6690    1.0000 </r>
       <r>    0.6786    1.0000 </r>
       <r>    0.6830    1.0000 </r>
       <r>    0.6842    1.0000 </r>
       <r>    0.7436    1.0000 </r>
       <r>    0.7436    1.0000 </r>
       <r>    0.8618    1.0000 </r>
       <r>    0.8627    1.0000 </r>
       <r>    0.8698    1.0000 </r>
       <r>    1.0544    1.0000 </r>
       <r>    1.0552    1.0000 </r>
       <r>    1.1338    1.0000 </r>
       <r>    1.1339    1.0000 </r>
       <r>    1.1342    1.0000 </r>
       <r>    1.1343    1.0000 </r>
       <r>    1.1350    1.0000 </r>
       <r>    1.1645    1.0000 </r>
       <r>    1.1933    1.0000 </r>
       <r>    1.1941    1.0000 </r>
       <r>    1.2303    1.0000 </r>
       <r>    1.2426    1.0000 </r>
       <r>    1.2443    1.0000 </r>
       <r>    1.2583    1.0000 </r>
       <r>    1.2598    1.0000 </r>
       <r>    1.2648    1.0000 </r>
       <r>    1.2733    1.0000 </r>
       <r>    1.2758    1.0000 </r>
       <r>    1.2833    1.0000 </r>
       <r>    1.2835    1.0000 </r>
       <r>    1.2841    1.0000 </r>
       <r>    1.2872    1.0000 </r>
       <r>    1.3020    1.0000 </r>
       <r>    1.3022    1.0000 </r>
       <r>    1.3231    1.0000 </r>
       <r>    1.3233    1.0000 </r>
       <r>    1.3339    1.0000 </r>
       <r>    1.3340    1.0000 </r>
       <r>    1.3411    1.0000 </r>
       <r>    1.3434    1.0000 </r>
       <r>    1.4053    1.0000 </r>
       <r>    1.4083    1.0000 </r>
       <r>    1.4096    1.0000 </r>
       <r>    1.4841    1.0000 </r>
       <r>    1.4865    1.0000 </r>
       <r>    1.4866    1.0000 </r>
       <r>    1.8110    1.0000 </r>
       <r>    1.8122    1.0000 </r>
       <r>    1.8414    1.0000 </r>
       <r>    1.8708    1.0000 </r>
       <r>    1.8972    1.0000 </r>
       <r>    1.8981    1.0000 </r>
       <r>    1.9042    1.0000 </r>
       <r>    1.9048    1.0000 </r>
       <r>    1.9289    1.0000 </r>
       <r>    1.9329    1.0000 </r>
       <r>    1.9351    1.0000 </r>
       <r>    1.9356    1.0000 </r>
       <r>    1.9626    1.0000 </r>
       <r>    1.9642    1.0000 </r>
       <r>    1.9674    1.0000 </r>
       <r>    2.0555    1.0000 </r>
       <r>    2.0556    1.0000 </r>
       <r>    2.3304    1.0000 </r>
       <r>    2.3383    1.0000 </r>
       <r>    2.4110    1.0000 </r>
       <r>    2.4143    1.0000 </r>
       <r>    2.5024    1.0000 </r>
       <r>    2.5051    1.0000 </r>
       <r>    4.6651    1.0000 </r>
       <r>    5.8782    0.0000 </r>
       <r>    6.4870    0.0000 </r>
       <r>    6.4871    0.0000 </r>
       <r>    6.6763    0.0000 </r>
       <r>    6.7121    0.0000 </r>
       <r>    7.0084    0.0000 </r>
       <r>    7.0337    0.0000 </r>
       <r>    7.0363    0.0000 </r>
       <r>    7.0860    0.0000 </r>
       <r>    7.0861    0.0000 </r>
       <r>    7.1682    0.0000 </r>
       <r>    7.1683    0.0000 </r>
       <r>    7.1751    0.0000 </r>
       <r>    7.2463    0.0000 </r>
       <r>    7.2849    0.0000 </r>
       <r>    7.2849    0.0000 </r>
       <r>    7.3026    0.0000 </r>
       <r>    7.3527    0.0000 </r>
       <r>    7.3572    0.0000 </r>
       <r>    7.3576    0.0000 </r>
       <r>    7.3942    0.0000 </r>
       <r>    7.4339    0.0000 </r>
       <r>    7.4339    0.0000 </r>
       <r>    7.5402    0.0000 </r>
       <r>    7.5403    0.0000 </r>
       <r>    7.5892    0.0000 </r>
       <r>    7.5911    0.0000 </r>
       <r>    7.5912    0.0000 </r>
       <r>    7.6063    0.0000 </r>
       <r>    7.6838    0.0000 </r>
       <r>    7.7752    0.0000 </r>
       <r>    7.8085    0.0000 </r>
       <r>    7.8101    0.0000 </r>
       <r>    7.8286    0.0000 </r>
       <r>    7.8473    0.0000 </r>
       <r>    7.8473    0.0000 </r>
       <r>    7.8544    0.0000 </r>
       <r>    7.8568    0.0000 </r>
       <r>    7.8725    0.0000 </r>
       <r>    7.8830    0.0000 </r>
       <r>    7.8832    0.0000 </r>
       <r>    7.8842    0.0000 </r>
       <r>    7.8880    0.0000 </r>
       <r>    7.8881    0.0000 </r>
       <r>    7.9044    0.0000 </r>
       <r>    7.9064    0.0000 </r>
       <r>    7.9084    0.0000 </r>
       <r>    7.9143    0.0000 </r>
       <r>    7.9145    0.0000 </r>
       <r>    7.9167    0.0000 </r>
       <r>    7.9224    0.0000 </r>
       <r>    7.9267    0.0000 </r>
       <r>    7.9332    0.0000 </r>
       <r>    7.9334    0.0000 </r>
       <r>    8.0376    0.0000 </r>
       <r>    8.0415    0.0000 </r>
       <r>    8.0427    0.0000 </r>
       <r>    8.3785    0.0000 </r>
       <r>    8.4260    0.0000 </r>
       <r>    8.4274    0.0000 </r>
       <r>    8.4308    0.0000 </r>
       <r>    8.4315    0.0000 </r>
       <r>    8.4336    0.0000 </r>
       <r>    8.4620    0.0000 </r>
       <r>    8.4639    0.0000 </r>
       <r>    8.4787    0.0000 </r>
       <r>    8.4798    0.0000 </r>
       <r>    8.4999    0.0000 </r>
       <r>    8.5007    0.0000 </r>
       <r>    8.5020    0.0000 </r>
       <r>    8.5060    0.0000 </r>
       <r>    8.5361    0.0000 </r>
       <r>    8.5372    0.0000 </r>
       <r>    8.5674    0.0000 </r>
       <r>    8.6763    0.0000 </r>
       <r>    8.8637    0.0000 </r>
       <r>    9.1435    0.0000 </r>
       <r>    9.1435    0.0000 </r>
       <r>    9.1891    0.0000 </r>
       <r>    9.1892    0.0000 </r>
       <r>    9.2207    0.0000 </r>
       <r>    9.2355    0.0000 </r>
       <r>    9.2363    0.0000 </r>
       <r>    9.5072    0.0000 </r>
       <r>    9.5255    0.0000 </r>
       <r>    9.5256    0.0000 </r>
       <r>    9.5274    0.0000 </r>
       <r>    9.5299    0.0000 </r>
       <r>    9.5307    0.0000 </r>
       <r>    9.5327    0.0000 </r>
       <r>    9.5364    0.0000 </r>
       <r>    9.5385    0.0000 </r>
       <r>    9.5409    0.0000 </r>
       <r>    9.5979    0.0000 </r>
       <r>    9.5991    0.0000 </r>
       <r>    9.8697    0.0000 </r>
       <r>    9.9628    0.0000 </r>
       <r>   10.0312    0.0000 </r>
       <r>   10.1168    0.0000 </r>
       <r>   10.1203    0.0000 </r>
       <r>   10.1274    0.0000 </r>
       <r>   10.1280    0.0000 </r>
       <r>   10.1383    0.0000 </r>
       <r>   10.1418    0.0000 </r>
       <r>   10.1544    0.0000 </r>
       <r>   10.1563    0.0000 </r>
       <r>   10.1573    0.0000 </r>
       <r>   10.1691    0.0000 </r>
       <r>   10.2278    0.0000 </r>
       <r>   10.2413    0.0000 </r>
       <r>   10.2878    0.0000 </r>
       <r>   10.2888    0.0000 </r>
       <r>   10.3204    0.0000 </r>
       <r>   10.3216    0.0000 </r>
       <r>   10.3619    0.0000 </r>
       <r>   10.4404    0.0000 </r>
       <r>   10.4420    0.0000 </r>
       <r>   10.4430    0.0000 </r>
       <r>   10.4621    0.0000 </r>
       <r>   10.4626    0.0000 </r>
       <r>   10.4671    0.0000 </r>
       <r>   10.4840    0.0000 </r>
       <r>   10.5096    0.0000 </r>
       <r>   10.5176    0.0000 </r>
       <r>   10.5179    0.0000 </r>
       <r>   10.5213    0.0000 </r>
       <r>   10.5243    0.0000 </r>
       <r>   10.5727    0.0000 </r>
       <r>   10.5737    0.0000 </r>
       <r>   10.5743    0.0000 </r>
       <r>   10.5767    0.0000 </r>
       <r>   10.5770    0.0000 </r>
       <r>   10.5916    0.0000 </r>
       <r>   10.6023    0.0000 </r>
       <r>   10.6045    0.0000 </r>
       <r>   10.6483    0.0000 </r>
       <r>   10.7350    0.0000 </r>
       <r>   10.8299    0.0000 </r>
       <r>   10.8530    0.0000 </r>
       <r>   10.8735    0.0000 </r>
       <r>   10.8789    0.0000 </r>
       <r>   10.8832    0.0000 </r>
       <r>   10.8858    0.0000 </r>
       <r>   10.9025    0.0000 </r>
       <r>   10.9263    0.0000 </r>
       <r>   10.9433    0.0000 </r>
       <r>   10.9533    0.0000 </r>
       <r>   10.9565    0.0000 </r>
       <r>   10.9640    0.0000 </r>
       <r>   12.1173    0.0000 </r>
       <r>   12.3947    0.0000 </r>
      </set>
      <set comment="kpoint 2">
       <r>  -17.2937    1.0000 </r>
       <r>  -15.7754    1.0000 </r>
       <r>  -15.7303    1.0000 </r>
       <r>  -15.4203    1.0000 </r>
       <r>  -15.3139    1.0000 </r>
       <r>  -15.2494    1.0000 </r>
       <r>  -15.2286    1.0000 </r>
       <r>  -15.1966    1.0000 </r>
       <r>  -15.1884    1.0000 </r>
       <r>  -15.1017    1.0000 </r>
       <r>  -15.0677    1.0000 </r>
       <r>  -15.0260    1.0000 </r>
       <r>  -15.0079    1.0000 </r>
       <r>  -14.9551    1.0000 </r>
       <r>  -14.9474    1.0000 </r>
       <r>  -14.9375    1.0000 </r>
       <r>  -14.9359    1.0000 </r>
       <r>  -14.8566    1.0000 </r>
       <r>  -14.7542    1.0000 </r>
       <r>  -14.7514    1.0000 </r>
       <r>  -14.6207    1.0000 </r>
       <r>  -14.5699    1.0000 </r>
       <r>  -14.5557    1.0000 </r>
       <r>  -14.4583    1.0000 </r>
       <r>  -14.4452    1.0000 </r>
       <r>  -14.4439    1.0000 </r>
       <r>  -14.4297    1.0000 </r>
       <r>  -14.4248    1.0000 </r>
       <r>  -14.4201    1.0000 </r>
       <r>  -14.4161    1.0000 </r>
       <r>  -14.4147    1.0000 </r>
       <r>  -14.3550    1.0000 </r>
       <r>  -14.2462    1.0000 </r>
       <r>  -14.2433    1.0000 </r>
       <r>  -14.2399    1.0000 </r>
       <r>  -14.2384    1.0000 </r>
       <r>  -14.2014    1.0000 </r>
       <r>  -14.1918    1.0000 </r>
       <r>  -14.1676    1.0000 </r>
       <r>  -14.1664    1.0000 </r>
       <r>  -14.1216    1.0000 </r>
       <r>  -14.0362    1.0000 </r>
       <r>  -13.9969    1.0000 </r>
       <r>  -13.9945    1.0000 </r>
       <r>  -13.9468    1.0000 </r>
       <r>  -13.7939    1.0000 </r>
       <r>  -13.7361    1.0000 </r>
       <r>  -13.7122    1.0000 </r>
       <r>  -13.7091    1.0000 </r>
       <r>  -13.7067    1.0000 </r>
       <r>  -13.6977    1.0000 </r>
       <r>  -13.6937    1.0000 </r>
       <r>  -13.6741    1.0000 </r>
       <r>  -13.6737    1.0000 </r>
       <r>  -13.6081    1.0000 </r>
       <r>  -13.5316    1.0000 </r>
       <r>  -13.5302    1.0000 </r>
       <r>  -13.5181    1.0000 </r>
       <r>  -13.5128    1.0000 </r>
       <r>  -13.5054    1.0000 </r>
       <r>  -13.3598    1.0000 </r>
       <r>  -13.3379    1.0000 </r>
       <r>  -13.2557    1.0000 </r>
       <r>  -13.2235    1.0000 </r>
       <r>  -13.1145    1.0000 </r>
       <r>  -13.0595    1.0000 </r>
       <r>  -13.0540    1.0000 </r>
       <r>  -13.0515    1.0000 </r>
       <r>  -13.0430    1.0000 </r>
       <r>  -13.0394    1.0000 </r>
       <r>  -13.0374    1.0000 </r>
       <r>  -13.0348    1.0000 </r>
       <r>  -13.0333    1.0000 </r>
       <r>  -12.9770    1.0000 </r>
       <r>  -12.9315    1.0000 </r>
       <r>  -12.8890    1.0000 </r>
       <r>  -12.8857    1.0000 </r>
       <r>  -12.8812    1.0000 </r>
       <r>  -12.8805    1.0000 </r>
       <r>  -12.8763    1.0000 </r>
       <r>  -12.8739    1.0000 </r>
       <r>  -12.8732    1.0000 </r>
       <r>  -12.8706    1.0000 </r>
       <r>  -12.8693    1.0000 </r>
       <r>  -12.8671    1.0000 </r>
       <r>  -12.8634    1.0000 </r>
       <r>  -12.8629    1.0000 </r>
       <r>  -12.8609    1.0000 </r>
       <r>  -12.7182    1.0000 </r>
       <r>  -12.7156    1.0000 </r>
       <r>  -12.7138    1.0000 </r>
       <r>  -12.7097    1.0000 </r>
       <r>  -12.6823    1.0000 </r>
       <r>  -12.6099    1.0000 </r>
       <r>  -12.5916    1.0000 </r>
       <r>  -12.5841    1.0000 </r>
       <r>  -12.5693    1.0000 </r>
       <r>  -12.5549    1.0000 </r>
       <r>  -12.5335    1.0000 </r>
       <r>  -12.4987    1.0000 </r>
       <r>  -12.4379    1.0000 </r>
       <r>  -12.4317    1.0000 </r>
       <r>  -12.4246    1.0000 </r>
       <r>  -12.4200    1.0000 </r>
       <r>  -12.3360    1.0000 </r>
       <r>  -12.3323    1.0000 </r>
       <r>  -12.3282    1.0000 </r>
       <r>  -12.3234    1.0000 </r>
       <r>  -12.2439    1.0000 </r>
       <r>  -12.2419    1.0000 </r>
       <r>  -12.2393    1.0000 </r>
       <r>  -12.2363    1.0000 </r>
       <r>  -12.2168    1.0000 </r>
       <r>  -12.2154    1.0000 </r>
       <r>  -12.2103    1.0000 </r>
       <r>  -12.2081    1.0000 </r>
       <r>  -12.1768    1.0000 </r>
       <r>  -12.1766    1.0000 </r>
       <r>  -12.1699    1.0000 </r>
       <r>  -12.1697    1.0000 </r>
       <r>  -12.0958    1.0000 </r>
       <r>  -12.0956    1.0000 </r>
       <r>  -12.0896    1.0000 </r>
       <r>  -12.0875    1.0000 </r>
       <r>  -12.0863    1.0000 </r>
       <r>  -12.0847    1.0000 </r>
       <r>  -11.9500    1.0000 </r>
       <r>  -11.9480    1.0000 </r>
       <r>  -11.9469    1.0000 </r>
       <r>  -11.9447    1.0000 </r>
       <r>  -11.8179    1.0000 </r>
       <r>  -11.8127    1.0000 </r>
       <r>  -11.8069    1.0000 </r>
       <r>  -11.8063    1.0000 </r>
       <r>  -11.8061    1.0000 </r>
       <r>  -11.8050    1.0000 </r>
       <r>  -11.7841    1.0000 </r>
       <r>  -11.7839    1.0000 </r>
       <r>  -11.7805    1.0000 </r>
       <r>  -11.7803    1.0000 </r>
       <r>  -11.6697    1.0000 </r>
       <r>  -11.6679    1.0000 </r>
       <r>  -11.6644    1.0000 </r>
       <r>  -11.6563    1.0000 </r>
       <r>   -8.3631    1.0000 </r>
       <r>   -7.2840    1.0000 </r>
       <r>   -7.2708    1.0000 </r>
       <r>   -6.7936    1.0000 </r>
       <r>   -6.7046    1.0000 </r>
       <r>   -6.6829    1.0000 </r>
       <r>   -6.4379    1.0000 </r>
       <r>   -6.4061    1.0000 </r>
       <r>   -6.3220    1.0000 </r>
       <r>   -6.3076    1.0000 </r>
       <r>   -6.3054    1.0000 </r>
       <r>   -6.3047    1.0000 </r>
       <r>   -6.3005    1.0000 </r>
       <r>   -6.2873    1.0000 </r>
       <r>   -6.2733    1.0000 </r>
       <r>   -6.2724    1.0000 </r>
       <r>   -6.2712    1.0000 </r>
       <r>   -6.2709    1.0000 </r>
       <r>   -6.2163    1.0000 </r>
       <r>   -6.2139    1.0000 </r>
       <r>   -6.2132    1.0000 </r>
       <r>   -6.2045    1.0000 </r>
       <r>   -6.1985    1.0000 </r>
       <r>   -6.1958    1.0000 </r>
       <r>   -6.1591    1.0000 </r>
       <r>   -6.1583    1.0000 </r>
       <r>   -6.1497    1.0000 </r>
       <r>   -6.1486    1.0000 </r>
       <r>   -6.0740    1.0000 </r>
       <r>   -6.0695    1.0000 </r>
       <r>   -5.9327    1.0000 </r>
       <r>   -5.9307    1.0000 </r>
       <r>   -5.9072    1.0000 </r>
       <r>   -5.9072    1.0000 </r>
       <r>   -5.8439    1.0000 </r>
       <r>   -5.7893    1.0000 </r>
       <r>   -5.7821    1.0000 </r>
       <r>   -5.7742    1.0000 </r>
       <r>   -5.7676    1.0000 </r>
       <r>   -5.7646    1.0000 </r>
       <r>   -5.7635    1.0000 </r>
       <r>   -5.7631    1.0000 </r>
       <r>   -5.7626    1.0000 </r>
       <r>   -5.7571    1.0000 </r>
       <r>   -5.7524    1.0000 </r>
       <r>   -5.7519    1.0000 </r>
       <r>   -5.7434    1.0000 </r>
       <r>   -5.6846    1.0000 </r>
       <r>   -5.6546    1.0000 </r>
       <r>   -5.6421    1.0000 </r>
       <r>   -5.6249    1.0000 </r>
       <r>   -5.6218    1.0000 </r>
       <r>   -5.6201    1.0000 </r>
       <r>   -5.6180    1.0000 </r>
       <r>   -5.2270    1.0000 </r>
       <r>   -5.2258    1.0000 </r>
       <r>   -5.2239    1.0000 </r>
       <r>   -5.2232    1.0000 </r>
       <r>   -5.2215    1.0000 </r>
       <r>   -5.2213    1.0000 </r>
       <r>   -5.2211    1.0000 </r>
       <r>   -5.2207    1.0000 </r>
       <r>   -5.2192    1.0000 </r>
       <r>   -5.2185    1.0000 </r>
       <r>   -5.2181    1.0000 </r>
       <r>   -5.2177    1.0000 </r>
       <r>   -5.1151    1.0000 </r>
       <r>   -5.1104    1.0000 </r>
       <r>   -5.0939    1.0000 </r>
       <r>   -5.0905    1.0000 </r>
       <r>   -5.0889    1.0000 </r>
       <r>   -5.0877    1.0000 </r>
       <r>   -5.0861    1.0000 </r>
       <r>   -5.0839    1.0000 </r>
       <r>   -5.0260    1.0000 </r>
       <r>   -4.9210    1.0000 </r>
       <r>   -4.8318    1.0000 </r>
       <r>   -4.6117    1.0000 </r>
       <r>   -4.5543    1.0000 </r>
       <r>   -4.5412    1.0000 </r>
       <r>   -4.4756    1.0000 </r>
       <r>   -4.4732    1.0000 </r>
       <r>   -4.4718    1.0000 </r>
       <r>   -4.4713    1.0000 </r>
       <r>   -4.4708    1.0000 </r>
       <r>   -4.4693    1.0000 </r>
       <r>   -4.4681    1.0000 </r>
       <r>   -4.4677    1.0000 </r>
       <r>   -4.3455    1.0000 </r>
       <r>   -4.3423    1.0000 </r>
       <r>   -4.3395    1.0000 </r>
       <r>   -4.3366    1.0000 </r>
       <r>   -4.3175    1.0000 </r>
       <r>   -4.3163    1.0000 </r>
       <r>   -4.2018    1.0000 </r>
       <r>   -4.0978    1.0000 </r>
       <r>   -4.0875    1.0000 </r>
       <r>   -4.0872    1.0000 </r>
       <r>   -4.0849    1.0000 </r>
       <r>   -4.0841    1.0000 </r>
       <r>   -4.0741    1.0000 </r>
       <r>   -4.0739    1.0000 </r>
       <r>   -4.0721    1.0000 </r>
       <r>   -4.0710    1.0000 </r>
       <r>   -4.0288    1.0000 </r>
       <r>   -3.9512    1.0000 </r>
       <r>   -3.9499    1.0000 </r>
       <r>   -3.9466    1.0000 </r>
       <r>   -3.9458    1.0000 </r>
       <r>   -3.9092    1.0000 </r>
       <r>   -3.8654    1.0000 </r>
       <r>   -3.7857    1.0000 </r>
       <r>   -3.7511    1.0000 </r>
       <r>   -3.6234    1.0000 </r>
       <r>   -3.6214    1.0000 </r>
       <r>   -3.6155    1.0000 </r>
       <r>   -3.6139    1.0000 </r>
       <r>   -3.6037    1.0000 </r>
       <r>   -3.6030    1.0000 </r>
       <r>   -3.5986    1.0000 </r>
       <r>   -3.5980    1.0000 </r>
       <r>   -3.5152    1.0000 </r>
       <r>   -3.4817    1.0000 </r>
       <r>   -3.4792    1.0000 </r>
       <r>   -3.4775    1.0000 </r>
       <r>   -3.4748    1.0000 </r>
       <r>   -3.4716    1.0000 </r>
       <r>   -3.4688    1.0000 </r>
       <r>   -3.4682    1.0000 </r>
       <r>   -3.4654    1.0000 </r>
       <r>   -3.4647    1.0000 </r>
       <r>   -3.4507    1.0000 </r>
       <r>   -3.3495    1.0000 </r>
       <r>   -3.3383    1.0000 </r>
       <r>   -3.3382    1.0000 </r>
       <r>   -3.1560    1.0000 </r>
       <r>   -3.1312    1.0000 </r>
       <r>   -3.0973    1.0000 </r>
       <r>   -3.0759    1.0000 </r>
       <r>   -3.0741    1.0000 </r>
       <r>   -3.0699    1.0000 </r>
       <r>   -3.0693    1.0000 </r>
       <r>   -2.9930    1.0000 </r>
       <r>   -2.9394    1.0000 </r>
       <r>   -2.9364    1.0000 </r>
       <r>   -2.9320    1.0000 </r>
       <r>   -2.8558    1.0000 </r>
       <r>   -2.8104    1.0000 </r>
       <r>   -2.7792    1.0000 </r>
       <r>   -2.7701    1.0000 </r>
       <r>   -2.7698    1.0000 </r>
       <r>   -2.7566    1.0000 </r>
       <r>   -2.7537    1.0000 </r>
       <r>   -2.7365    1.0000 </r>
       <r>   -2.7262    1.0000 </r>
       <r>   -2.6832    1.0000 </r>
       <r>   -2.6794    1.0000 </r>
       <r>   -2.6688    1.0000 </r>
       <r>   -2.6679    1.0000 </r>
       <r>   -2.6674    1.0000 </r>
       <r>   -2.5441    1.0000 </r>
       <r>   -2.5438    1.0000 </r>
       <r>   -2.5236    1.0000 </r>
       <r>   -2.5220    1.0000 </r>
       <r>   -2.5123    1.0000 </r>
       <r>   -2.4608    1.0000 </r>
       <r>   -2.4249    1.0000 </r>
       <r>   -2.4159    1.0000 </r>
       <r>   -2.3849    1.0000 </r>
       <r>   -2.3762    1.0000 </r>
       <r>   -2.3742    1.0000 </r>
       <r>   -2.3741    1.0000 </r>
       <r>   -2.3734    1.0000 </r>
       <r>   -2.3722    1.0000 </r>
       <r>   -2.3707    1.0000 </r>
       <r>   -2.3698    1.0000 </r>
       <r>   -2.3691    1.0000 </r>
       <r>   -2.3602    1.0000 </r>
       <r>   -2.3583    1.0000 </r>
       <r>   -2.3554    1.0000 </r>
       <r>   -2.3282    1.0000 </r>
       <r>   -2.2676    1.0000 </r>
       <r>   -2.2440    1.0000 </r>
       <r>   -2.2409    1.0000 </r>
       <r>   -2.2401    1.0000 </r>
       <r>   -2.2371    1.0000 </r>
       <r>   -2.2117    1.0000 </r>
       <r>   -2.1750    1.0000 </r>
       <r>   -2.1451    1.0000 </r>
       <r>   -2.1296    1.0000 </r>
       <r>   -2.0890    1.0000 </r>
       <r>   -2.0886    1.0000 </r>
       <r>   -2.0886    1.0000 </r>
       <r>   -2.0879    1.0000 </r>
       <r>   -2.0549    1.0000 </r>
       <r>   -2.0546    1.0000 </r>
       <r>   -2.0544    1.0000 </r>
       <r>   -2.0537    1.0000 </r>
       <r>   -2.0411    1.0000 </r>
       <r>   -2.0320    1.0000 </r>
       <r>   -2.0105    1.0000 </r>
       <r>   -2.0090    1.0000 </r>
       <r>   -1.9835    1.0000 </r>
       <r>   -1.9441    1.0000 </r>
       <r>   -1.9423    1.0000 </r>
       <r>   -1.9347    1.0000 </r>
       <r>   -1.9315    1.0000 </r>
       <r>   -1.8966    1.0000 </r>
       <r>   -1.8697    1.0000 </r>
       <r>   -1.8678    1.0000 </r>
       <r>   -1.8669    1.0000 </r>
       <r>   -1.8655    1.0000 </r>
       <r>   -1.8576    1.0000 </r>
       <r>   -1.8553    1.0000 </r>
       <r>   -1.8229    1.0000 </r>
       <r>   -1.8222    1.0000 </r>
       <r>   -1.8160    1.0000 </r>
       <r>   -1.8144    1.0000 </r>
       <r>   -1.7853    1.0000 </r>
       <r>   -1.7772    1.0000 </r>
       <r>   -1.7770    1.0000 </r>
       <r>   -1.7758    1.0000 </r>
       <r>   -1.7758    1.0000 </r>
       <r>   -1.7755    1.0000 </r>
       <r>   -1.7754    1.0000 </r>
       <r>   -1.7745    1.0000 </r>
       <r>   -1.7740    1.0000 </r>
       <r>   -1.7166    1.0000 </r>
       <r>   -1.7087    1.0000 </r>
       <r>   -1.7086    1.0000 </r>
       <r>   -1.6968    1.0000 </r>
       <r>   -1.6607    1.0000 </r>
       <r>   -1.6501    1.0000 </r>
       <r>   -1.6493    1.0000 </r>
       <r>   -1.6463    1.0000 </r>
       <r>   -1.6439    1.0000 </r>
       <r>   -1.6408    1.0000 </r>
       <r>   -1.6355    1.0000 </r>
       <r>   -1.6167    1.0000 </r>
       <r>   -1.6115    1.0000 </r>
       <r>   -1.6054    1.0000 </r>
       <r>   -1.6038    1.0000 </r>
       <r>   -1.5829    1.0000 </r>
       <r>   -1.5807    1.0000 </r>
       <r>   -1.5804    1.0000 </r>
       <r>   -1.5671    1.0000 </r>
       <r>   -1.5661    1.0000 </r>
       <r>   -1.5586    1.0000 </r>
       <r>   -1.5536    1.0000 </r>
       <r>   -1.5513    1.0000 </r>
       <r>   -1.4913    1.0000 </r>
       <r>   -1.4553    1.0000 </r>
       <r>   -1.4409    1.0000 </r>
       <r>   -1.4314    1.0000 </r>
       <r>   -1.3508    1.0000 </r>
       <r>   -1.3478    1.0000 </r>
       <r>   -1.3388    1.0000 </r>
       <r>   -1.3381    1.0000 </r>
       <r>   -1.2295    1.0000 </r>
       <r>   -1.2293    1.0000 </r>
       <r>   -1.2260    1.0000 </r>
       <r>   -1.2260    1.0000 </r>
       <r>   -1.2119    1.0000 </r>
       <r>   -1.2117    1.0000 </r>
       <r>   -1.2100    1.0000 </r>
       <r>   -1.2083    1.0000 </r>
       <r>   -1.1909    1.0000 </r>
       <r>   -1.0936    1.0000 </r>
       <r>   -1.0903    1.0000 </r>
       <r>   -1.0890    1.0000 </r>
       <r>   -1.0818    1.0000 </r>
       <r>   -1.0522    1.0000 </r>
       <r>   -1.0267    1.0000 </r>
       <r>   -1.0140    1.0000 </r>
       <r>   -0.9782    1.0000 </r>
       <r>   -0.9332    1.0000 </r>
       <r>   -0.8687    1.0000 </r>
       <r>   -0.8464    1.0000 </r>
       <r>   -0.7803    1.0000 </r>
       <r>   -0.7784    1.0000 </r>
       <r>   -0.7588    1.0000 </r>
       <r>   -0.7243    1.0000 </r>
       <r>   -0.7172    1.0000 </r>
       <r>   -0.7131    1.0000 </r>
       <r>   -0.7120    1.0000 </r>
       <r>   -0.7101    1.0000 </r>
       <r>   -0.6796    1.0000 </r>
       <r>   -0.6763    1.0000 </r>
       <r>   -0.6750    1.0000 </r>
       <r>   -0.6743    1.0000 </r>
       <r>   -0.6617    1.0000 </r>
       <r>   -0.6577    1.0000 </r>
       <r>   -0.6563    1.0000 </r>
       <r>   -0.6268    1.0000 </r>
       <r>   -0.5178    1.0000 </r>
       <r>   -0.5167    1.0000 </r>
       <r>   -0.5160    1.0000 </r>
       <r>   -0.5148    1.0000 </r>
       <r>   -0.4621    1.0000 </r>
       <r>   -0.4586    1.0000 </r>
       <r>   -0.4576    1.0000 </r>
       <r>   -0.4571    1.0000 </r>
       <r>   -0.4544    1.0000 </r>
       <r>   -0.4537    1.0000 </r>
       <r>   -0.4530    1.0000 </r>
       <r>   -0.4499    1.0000 </r>
       <r>   -0.4400    1.0000 </r>
       <r>   -0.4129    1.0000 </r>
       <r>   -0.3848    1.0000 </r>
       <r>   -0.3836    1.0000 </r>
       <r>   -0.3833    1.0000 </r>
       <r>   -0.3712    1.0000 </r>
       <r>   -0.3569    1.0000 </r>
       <r>   -0.3554    1.0000 </r>
       <r>   -0.3540    1.0000 </r>
       <r>   -0.3465    1.0000 </r>
       <r>   -0.3430    1.0000 </r>
       <r>   -0.3427    1.0000 </r>
       <r>   -0.3310    1.0000 </r>
       <r>   -0.3273    1.0000 </r>
       <r>   -0.3252    1.0000 </r>
       <r>   -0.3202    1.0000 </r>
       <r>   -0.2802    1.0000 </r>
       <r>   -0.2278    1.0000 </r>
       <r>   -0.2221    1.0000 </r>
       <r>   -0.1255    1.0000 </r>
       <r>   -0.0465    1.0000 </r>
       <r>    0.0031    1.0000 </r>
       <r>    0.0430    1.0000 </r>
       <r>    0.1163    1.0000 </r>
       <r>    0.1523    1.0000 </r>
       <r>    0.1549    1.0000 </r>
       <r>    0.1672    1.0000 </r>
       <r>    0.1865    1.0000 </r>
       <r>    0.2000    1.0000 </r>
       <r>    0.2122    1.0000 </r>
       <r>    0.2126    1.0000 </r>
       <r>    0.2181    1.0000 </r>
       <r>    0.2201    1.0000 </r>
       <r>    0.2386    1.0000 </r>
       <r>    0.2415    1.0000 </r>
       <r>    0.2862    1.0000 </r>
       <r>    0.3094    1.0000 </r>
       <r>    0.3156    1.0000 </r>
       <r>    0.3437    1.0000 </r>
       <r>    0.3446    1.0000 </r>
       <r>    0.3490    1.0000 </r>
       <r>    0.3502    1.0000 </r>
       <r>    0.3645    1.0000 </r>
       <r>    0.3762    1.0000 </r>
       <r>    0.3944    1.0000 </r>
       <r>    0.4528    1.0000 </r>
       <r>    0.4587    1.0000 </r>
       <r>    0.4599    1.0000 </r>
       <r>    0.4628    1.0000 </r>
       <r>    0.4644    1.0000 </r>
       <r>    0.4649    1.0000 </r>
       <r>    0.4740    1.0000 </r>
       <r>    0.4798    1.0000 </r>
       <r>    0.5555    1.0000 </r>
       <r>    0.5598    1.0000 </r>
       <r>    0.5655    1.0000 </r>
       <r>    0.5854    1.0000 </r>
       <r>    0.5898    1.0000 </r>
       <r>    0.6849    1.0000 </r>
       <r>    0.6937    1.0000 </r>
       <r>    0.7007    1.0000 </r>
       <r>    0.7031    1.0000 </r>
       <r>    0.7235    1.0000 </r>
       <r>    0.8070    1.0000 </r>
       <r>    0.8091    1.0000 </r>
       <r>    0.8396    1.0000 </r>
       <r>    0.8554    1.0000 </r>
       <r>    0.8563    1.0000 </r>
       <r>    0.8802    1.0000 </r>
       <r>    0.8842    1.0000 </r>
       <r>    0.8851    1.0000 </r>
       <r>    0.9158    1.0000 </r>
       <r>    0.9910    1.0000 </r>
       <r>    0.9919    1.0000 </r>
       <r>    0.9938    1.0000 </r>
       <r>    1.0029    1.0000 </r>
       <r>    1.0203    1.0000 </r>
       <r>    1.0316    1.0000 </r>
       <r>    1.0815    1.0000 </r>
       <r>    1.0978    1.0000 </r>
       <r>    1.2070    1.0000 </r>
       <r>    1.2087    1.0000 </r>
       <r>    1.2155    1.0000 </r>
       <r>    1.2332    1.0000 </r>
       <r>    1.2443    1.0000 </r>
       <r>    1.2458    1.0000 </r>
       <r>    1.2543    1.0000 </r>
       <r>    1.2591    1.0000 </r>
       <r>    1.3147    1.0000 </r>
       <r>    1.3155    1.0000 </r>
       <r>    1.3656    1.0000 </r>
       <r>    1.3664    1.0000 </r>
       <r>    1.4009    1.0000 </r>
       <r>    1.4049    1.0000 </r>
       <r>    1.4404    1.0000 </r>
       <r>    1.4408    1.0000 </r>
       <r>    1.4982    1.0000 </r>
       <r>    1.5014    1.0000 </r>
       <r>    1.5370    1.0000 </r>
       <r>    1.5780    1.0000 </r>
       <r>    1.5881    1.0000 </r>
       <r>    1.5894    1.0000 </r>
       <r>    1.7640    1.0000 </r>
       <r>    1.7678    1.0000 </r>
       <r>    1.8461    1.0000 </r>
       <r>    1.8557    1.0000 </r>
       <r>    1.8602    1.0000 </r>
       <r>    1.8608    1.0000 </r>
       <r>    1.9185    1.0000 </r>
       <r>    1.9251    1.0000 </r>
       <r>    1.9538    1.0000 </r>
       <r>    1.9592    1.0000 </r>
       <r>    1.9797    1.0000 </r>
       <r>    1.9800    1.0000 </r>
       <r>    2.0227    1.0000 </r>
       <r>    2.0254    1.0000 </r>
       <r>    2.0630    1.0000 </r>
       <r>    2.0687    1.0000 </r>
       <r>    2.0965    1.0000 </r>
       <r>    2.0970    1.0000 </r>
       <r>    2.2238    1.0000 </r>
       <r>    2.2293    1.0000 </r>
       <r>    2.3979    1.0000 </r>
       <r>    2.4011    1.0000 </r>
       <r>    2.4036    1.0000 </r>
       <r>    2.4066    1.0000 </r>
       <r>    4.6619    1.0000 </r>
       <r>    5.8854    0.0000 </r>
       <r>    6.6169    0.0000 </r>
       <r>    6.6376    0.0000 </r>
       <r>    6.6377    0.0000 </r>
       <r>    6.8796    0.0000 </r>
       <r>    6.9262    0.0000 </r>
       <r>    6.9921    0.0000 </r>
       <r>    7.0031    0.0000 </r>
       <r>    7.0783    0.0000 </r>
       <r>    7.0880    0.0000 </r>
       <r>    7.1521    0.0000 </r>
       <r>    7.2117    0.0000 </r>
       <r>    7.2121    0.0000 </r>
       <r>    7.2281    0.0000 </r>
       <r>    7.2438    0.0000 </r>
       <r>    7.2820    0.0000 </r>
       <r>    7.2969    0.0000 </r>
       <r>    7.3060    0.0000 </r>
       <r>    7.3275    0.0000 </r>
       <r>    7.3331    0.0000 </r>
       <r>    7.3383    0.0000 </r>
       <r>    7.3429    0.0000 </r>
       <r>    7.3436    0.0000 </r>
       <r>    7.3598    0.0000 </r>
       <r>    7.3627    0.0000 </r>
       <r>    7.3829    0.0000 </r>
       <r>    7.3841    0.0000 </r>
       <r>    7.3919    0.0000 </r>
       <r>    7.3948    0.0000 </r>
       <r>    7.4295    0.0000 </r>
       <r>    7.4310    0.0000 </r>
       <r>    7.4584    0.0000 </r>
       <r>    7.6867    0.0000 </r>
       <r>    7.7383    0.0000 </r>
       <r>    7.7421    0.0000 </r>
       <r>    7.7467    0.0000 </r>
       <r>    7.7917    0.0000 </r>
       <r>    7.8210    0.0000 </r>
       <r>    7.8448    0.0000 </r>
       <r>    7.8743    0.0000 </r>
       <r>    7.8885    0.0000 </r>
       <r>    7.9065    0.0000 </r>
       <r>    7.9144    0.0000 </r>
       <r>    7.9194    0.0000 </r>
       <r>    7.9429    0.0000 </r>
       <r>    7.9657    0.0000 </r>
       <r>    8.0634    0.0000 </r>
       <r>    8.1121    0.0000 </r>
       <r>    8.1667    0.0000 </r>
       <r>    8.1704    0.0000 </r>
       <r>    8.1708    0.0000 </r>
       <r>    8.1855    0.0000 </r>
       <r>    8.2090    0.0000 </r>
       <r>    8.2209    0.0000 </r>
       <r>    8.2224    0.0000 </r>
       <r>    8.2332    0.0000 </r>
       <r>    8.2405    0.0000 </r>
       <r>    8.2547    0.0000 </r>
       <r>    8.2826    0.0000 </r>
       <r>    8.3931    0.0000 </r>
       <r>    8.5600    0.0000 </r>
       <r>    8.5804    0.0000 </r>
       <r>    8.5931    0.0000 </r>
       <r>    8.6330    0.0000 </r>
       <r>    8.6338    0.0000 </r>
       <r>    8.6438    0.0000 </r>
       <r>    8.6612    0.0000 </r>
       <r>    8.6696    0.0000 </r>
       <r>    8.6804    0.0000 </r>
       <r>    8.6877    0.0000 </r>
       <r>    8.6877    0.0000 </r>
       <r>    8.7302    0.0000 </r>
       <r>    8.8816    0.0000 </r>
       <r>    8.9559    0.0000 </r>
       <r>    8.9907    0.0000 </r>
       <r>    8.9982    0.0000 </r>
       <r>    9.0085    0.0000 </r>
       <r>    9.0559    0.0000 </r>
       <r>    9.1237    0.0000 </r>
       <r>    9.2096    0.0000 </r>
       <r>    9.2406    0.0000 </r>
       <r>    9.2644    0.0000 </r>
       <r>    9.2670    0.0000 </r>
       <r>    9.2683    0.0000 </r>
       <r>    9.2805    0.0000 </r>
       <r>    9.2941    0.0000 </r>
       <r>    9.2975    0.0000 </r>
       <r>    9.3025    0.0000 </r>
       <r>    9.3205    0.0000 </r>
       <r>    9.3254    0.0000 </r>
       <r>    9.3284    0.0000 </r>
       <r>    9.3299    0.0000 </r>
       <r>    9.3557    0.0000 </r>
       <r>    9.3984    0.0000 </r>
       <r>    9.4735    0.0000 </r>
       <r>    9.6115    0.0000 </r>
       <r>    9.6278    0.0000 </r>
       <r>    9.6814    0.0000 </r>
       <r>    9.6886    0.0000 </r>
       <r>    9.6902    0.0000 </r>
       <r>    9.7184    0.0000 </r>
       <r>    9.8767    0.0000 </r>
       <r>   10.0649    0.0000 </r>
       <r>   10.0887    0.0000 </r>
       <r>   10.0903    0.0000 </r>
       <r>   10.1017    0.0000 </r>
       <r>   10.1419    0.0000 </r>
       <r>   10.1706    0.0000 </r>
       <r>   10.1741    0.0000 </r>
       <r>   10.1898    0.0000 </r>
       <r>   10.1972    0.0000 </r>
       <r>   10.2269    0.0000 </r>
       <r>   10.2358    0.0000 </r>
       <r>   10.2816    0.0000 </r>
       <r>   10.3015    0.0000 </r>
       <r>   10.3040    0.0000 </r>
       <r>   10.3749    0.0000 </r>
       <r>   10.3812    0.0000 </r>
       <r>   10.3898    0.0000 </r>
       <r>   10.3937    0.0000 </r>
       <r>   10.4129    0.0000 </r>
       <r>   10.4364    0.0000 </r>
       <r>   10.4417    0.0000 </r>
       <r>   10.4663    0.0000 </r>
       <r>   10.5080    0.0000 </r>
       <r>   10.5272    0.0000 </r>
       <r>   10.6251    0.0000 </r>
       <r>   10.6685    0.0000 </r>
       <r>   10.7191    0.0000 </r>
       <r>   10.7203    0.0000 </r>
       <r>   10.7226    0.0000 </r>
       <r>   10.7313    0.0000 </r>
       <r>   10.7507    0.0000 </r>
       <r>   10.7584    0.0000 </r>
       <r>   10.7631    0.0000 </r>
       <r>   10.7828    0.0000 </r>
       <r>   10.7880    0.0000 </r>
       <r>   10.7920    0.0000 </r>
       <r>   10.8134    0.0000 </r>
       <r>   10.8151    0.0000 </r>
       <r>   11.2348    0.0000 </r>
       <r>   11.2596    0.0000 </r>
       <r>   11.5016    0.0000 </r>
       <r>   11.5839    0.0000 </r>
       <r>   11.6187    0.0000 </r>
       <r>   11.6656    0.0000 </r>
       <r>   11.7249    0.0000 </r>
       <r>   11.7417    0.0000 </r>
       <r>   11.7753    0.0000 </r>
       <r>   11.7983    0.0000 </r>
       <r>   11.8467    0.0000 </r>
      </set>
      <set comment="kpoint 3">
       <r>  -17.2937    1.0000 </r>
       <r>  -15.7755    1.0000 </r>
       <r>  -15.7303    1.0000 </r>
       <r>  -15.4203    1.0000 </r>
       <r>  -15.3138    1.0000 </r>
       <r>  -15.2495    1.0000 </r>
       <r>  -15.2285    1.0000 </r>
       <r>  -15.1966    1.0000 </r>
       <r>  -15.1885    1.0000 </r>
       <r>  -15.1017    1.0000 </r>
       <r>  -15.0677    1.0000 </r>
       <r>  -15.0257    1.0000 </r>
       <r>  -15.0080    1.0000 </r>
       <r>  -14.9554    1.0000 </r>
       <r>  -14.9472    1.0000 </r>
       <r>  -14.9375    1.0000 </r>
       <r>  -14.9359    1.0000 </r>
       <r>  -14.8566    1.0000 </r>
       <r>  -14.7532    1.0000 </r>
       <r>  -14.7524    1.0000 </r>
       <r>  -14.6206    1.0000 </r>
       <r>  -14.5699    1.0000 </r>
       <r>  -14.5557    1.0000 </r>
       <r>  -14.4584    1.0000 </r>
       <r>  -14.4454    1.0000 </r>
       <r>  -14.4429    1.0000 </r>
       <r>  -14.4302    1.0000 </r>
       <r>  -14.4248    1.0000 </r>
       <r>  -14.4202    1.0000 </r>
       <r>  -14.4162    1.0000 </r>
       <r>  -14.4146    1.0000 </r>
       <r>  -14.3550    1.0000 </r>
       <r>  -14.2481    1.0000 </r>
       <r>  -14.2420    1.0000 </r>
       <r>  -14.2399    1.0000 </r>
       <r>  -14.2377    1.0000 </r>
       <r>  -14.2012    1.0000 </r>
       <r>  -14.1922    1.0000 </r>
       <r>  -14.1676    1.0000 </r>
       <r>  -14.1664    1.0000 </r>
       <r>  -14.1215    1.0000 </r>
       <r>  -14.0363    1.0000 </r>
       <r>  -13.9971    1.0000 </r>
       <r>  -13.9941    1.0000 </r>
       <r>  -13.9468    1.0000 </r>
       <r>  -13.7938    1.0000 </r>
       <r>  -13.7359    1.0000 </r>
       <r>  -13.7126    1.0000 </r>
       <r>  -13.7090    1.0000 </r>
       <r>  -13.7066    1.0000 </r>
       <r>  -13.6971    1.0000 </r>
       <r>  -13.6944    1.0000 </r>
       <r>  -13.6742    1.0000 </r>
       <r>  -13.6738    1.0000 </r>
       <r>  -13.6081    1.0000 </r>
       <r>  -13.5306    1.0000 </r>
       <r>  -13.5305    1.0000 </r>
       <r>  -13.5183    1.0000 </r>
       <r>  -13.5136    1.0000 </r>
       <r>  -13.5055    1.0000 </r>
       <r>  -13.3598    1.0000 </r>
       <r>  -13.3379    1.0000 </r>
       <r>  -13.2556    1.0000 </r>
       <r>  -13.2235    1.0000 </r>
       <r>  -13.1146    1.0000 </r>
       <r>  -13.0596    1.0000 </r>
       <r>  -13.0541    1.0000 </r>
       <r>  -13.0510    1.0000 </r>
       <r>  -13.0431    1.0000 </r>
       <r>  -13.0396    1.0000 </r>
       <r>  -13.0375    1.0000 </r>
       <r>  -13.0348    1.0000 </r>
       <r>  -13.0333    1.0000 </r>
       <r>  -12.9770    1.0000 </r>
       <r>  -12.9315    1.0000 </r>
       <r>  -12.8886    1.0000 </r>
       <r>  -12.8848    1.0000 </r>
       <r>  -12.8825    1.0000 </r>
       <r>  -12.8810    1.0000 </r>
       <r>  -12.8751    1.0000 </r>
       <r>  -12.8740    1.0000 </r>
       <r>  -12.8735    1.0000 </r>
       <r>  -12.8703    1.0000 </r>
       <r>  -12.8693    1.0000 </r>
       <r>  -12.8672    1.0000 </r>
       <r>  -12.8634    1.0000 </r>
       <r>  -12.8629    1.0000 </r>
       <r>  -12.8609    1.0000 </r>
       <r>  -12.7186    1.0000 </r>
       <r>  -12.7156    1.0000 </r>
       <r>  -12.7135    1.0000 </r>
       <r>  -12.7098    1.0000 </r>
       <r>  -12.6822    1.0000 </r>
       <r>  -12.6100    1.0000 </r>
       <r>  -12.5913    1.0000 </r>
       <r>  -12.5840    1.0000 </r>
       <r>  -12.5695    1.0000 </r>
       <r>  -12.5550    1.0000 </r>
       <r>  -12.5334    1.0000 </r>
       <r>  -12.4988    1.0000 </r>
       <r>  -12.4379    1.0000 </r>
       <r>  -12.4316    1.0000 </r>
       <r>  -12.4228    1.0000 </r>
       <r>  -12.4211    1.0000 </r>
       <r>  -12.3361    1.0000 </r>
       <r>  -12.3321    1.0000 </r>
       <r>  -12.3282    1.0000 </r>
       <r>  -12.3234    1.0000 </r>
       <r>  -12.2439    1.0000 </r>
       <r>  -12.2423    1.0000 </r>
       <r>  -12.2392    1.0000 </r>
       <r>  -12.2363    1.0000 </r>
       <r>  -12.2170    1.0000 </r>
       <r>  -12.2148    1.0000 </r>
       <r>  -12.2103    1.0000 </r>
       <r>  -12.2083    1.0000 </r>
       <r>  -12.1783    1.0000 </r>
       <r>  -12.1757    1.0000 </r>
       <r>  -12.1701    1.0000 </r>
       <r>  -12.1694    1.0000 </r>
       <r>  -12.0971    1.0000 </r>
       <r>  -12.0963    1.0000 </r>
       <r>  -12.0921    1.0000 </r>
       <r>  -12.0886    1.0000 </r>
       <r>  -12.0850    1.0000 </r>
       <r>  -12.0811    1.0000 </r>
       <r>  -11.9501    1.0000 </r>
       <r>  -11.9480    1.0000 </r>
       <r>  -11.9469    1.0000 </r>
       <r>  -11.9446    1.0000 </r>
       <r>  -11.8167    1.0000 </r>
       <r>  -11.8136    1.0000 </r>
       <r>  -11.8067    1.0000 </r>
       <r>  -11.8060    1.0000 </r>
       <r>  -11.8060    1.0000 </r>
       <r>  -11.8049    1.0000 </r>
       <r>  -11.7842    1.0000 </r>
       <r>  -11.7839    1.0000 </r>
       <r>  -11.7806    1.0000 </r>
       <r>  -11.7803    1.0000 </r>
       <r>  -11.6691    1.0000 </r>
       <r>  -11.6680    1.0000 </r>
       <r>  -11.6649    1.0000 </r>
       <r>  -11.6564    1.0000 </r>
       <r>   -8.3631    1.0000 </r>
       <r>   -7.2840    1.0000 </r>
       <r>   -7.2708    1.0000 </r>
       <r>   -6.7937    1.0000 </r>
       <r>   -6.7047    1.0000 </r>
       <r>   -6.6828    1.0000 </r>
       <r>   -6.4379    1.0000 </r>
       <r>   -6.4061    1.0000 </r>
       <r>   -6.3220    1.0000 </r>
       <r>   -6.3075    1.0000 </r>
       <r>   -6.3053    1.0000 </r>
       <r>   -6.3046    1.0000 </r>
       <r>   -6.3004    1.0000 </r>
       <r>   -6.2874    1.0000 </r>
       <r>   -6.2734    1.0000 </r>
       <r>   -6.2724    1.0000 </r>
       <r>   -6.2712    1.0000 </r>
       <r>   -6.2712    1.0000 </r>
       <r>   -6.2163    1.0000 </r>
       <r>   -6.2140    1.0000 </r>
       <r>   -6.2133    1.0000 </r>
       <r>   -6.2044    1.0000 </r>
       <r>   -6.1985    1.0000 </r>
       <r>   -6.1959    1.0000 </r>
       <r>   -6.1588    1.0000 </r>
       <r>   -6.1584    1.0000 </r>
       <r>   -6.1529    1.0000 </r>
       <r>   -6.1463    1.0000 </r>
       <r>   -6.0722    1.0000 </r>
       <r>   -6.0704    1.0000 </r>
       <r>   -5.9326    1.0000 </r>
       <r>   -5.9307    1.0000 </r>
       <r>   -5.9073    1.0000 </r>
       <r>   -5.9072    1.0000 </r>
       <r>   -5.8439    1.0000 </r>
       <r>   -5.7892    1.0000 </r>
       <r>   -5.7809    1.0000 </r>
       <r>   -5.7740    1.0000 </r>
       <r>   -5.7676    1.0000 </r>
       <r>   -5.7646    1.0000 </r>
       <r>   -5.7635    1.0000 </r>
       <r>   -5.7633    1.0000 </r>
       <r>   -5.7626    1.0000 </r>
       <r>   -5.7572    1.0000 </r>
       <r>   -5.7524    1.0000 </r>
       <r>   -5.7519    1.0000 </r>
       <r>   -5.7432    1.0000 </r>
       <r>   -5.6847    1.0000 </r>
       <r>   -5.6546    1.0000 </r>
       <r>   -5.6421    1.0000 </r>
       <r>   -5.6241    1.0000 </r>
       <r>   -5.6231    1.0000 </r>
       <r>   -5.6203    1.0000 </r>
       <r>   -5.6180    1.0000 </r>
       <r>   -5.2269    1.0000 </r>
       <r>   -5.2257    1.0000 </r>
       <r>   -5.2239    1.0000 </r>
       <r>   -5.2233    1.0000 </r>
       <r>   -5.2215    1.0000 </r>
       <r>   -5.2213    1.0000 </r>
       <r>   -5.2211    1.0000 </r>
       <r>   -5.2207    1.0000 </r>
       <r>   -5.2192    1.0000 </r>
       <r>   -5.2185    1.0000 </r>
       <r>   -5.2182    1.0000 </r>
       <r>   -5.2177    1.0000 </r>
       <r>   -5.1151    1.0000 </r>
       <r>   -5.1104    1.0000 </r>
       <r>   -5.0966    1.0000 </r>
       <r>   -5.0906    1.0000 </r>
       <r>   -5.0889    1.0000 </r>
       <r>   -5.0875    1.0000 </r>
       <r>   -5.0859    1.0000 </r>
       <r>   -5.0837    1.0000 </r>
       <r>   -5.0260    1.0000 </r>
       <r>   -4.9210    1.0000 </r>
       <r>   -4.8318    1.0000 </r>
       <r>   -4.6116    1.0000 </r>
       <r>   -4.5543    1.0000 </r>
       <r>   -4.5412    1.0000 </r>
       <r>   -4.4757    1.0000 </r>
       <r>   -4.4732    1.0000 </r>
       <r>   -4.4718    1.0000 </r>
       <r>   -4.4713    1.0000 </r>
       <r>   -4.4707    1.0000 </r>
       <r>   -4.4693    1.0000 </r>
       <r>   -4.4680    1.0000 </r>
       <r>   -4.4677    1.0000 </r>
       <r>   -4.3441    1.0000 </r>
       <r>   -4.3416    1.0000 </r>
       <r>   -4.3396    1.0000 </r>
       <r>   -4.3360    1.0000 </r>
       <r>   -4.3175    1.0000 </r>
       <r>   -4.3163    1.0000 </r>
       <r>   -4.2018    1.0000 </r>
       <r>   -4.0978    1.0000 </r>
       <r>   -4.0875    1.0000 </r>
       <r>   -4.0872    1.0000 </r>
       <r>   -4.0848    1.0000 </r>
       <r>   -4.0840    1.0000 </r>
       <r>   -4.0742    1.0000 </r>
       <r>   -4.0740    1.0000 </r>
       <r>   -4.0721    1.0000 </r>
       <r>   -4.0711    1.0000 </r>
       <r>   -4.0288    1.0000 </r>
       <r>   -3.9509    1.0000 </r>
       <r>   -3.9497    1.0000 </r>
       <r>   -3.9468    1.0000 </r>
       <r>   -3.9452    1.0000 </r>
       <r>   -3.9092    1.0000 </r>
       <r>   -3.8654    1.0000 </r>
       <r>   -3.7856    1.0000 </r>
       <r>   -3.7512    1.0000 </r>
       <r>   -3.6234    1.0000 </r>
       <r>   -3.6215    1.0000 </r>
       <r>   -3.6154    1.0000 </r>
       <r>   -3.6140    1.0000 </r>
       <r>   -3.6036    1.0000 </r>
       <r>   -3.6030    1.0000 </r>
       <r>   -3.5986    1.0000 </r>
       <r>   -3.5980    1.0000 </r>
       <r>   -3.5150    1.0000 </r>
       <r>   -3.4803    1.0000 </r>
       <r>   -3.4783    1.0000 </r>
       <r>   -3.4778    1.0000 </r>
       <r>   -3.4769    1.0000 </r>
       <r>   -3.4743    1.0000 </r>
       <r>   -3.4688    1.0000 </r>
       <r>   -3.4682    1.0000 </r>
       <r>   -3.4654    1.0000 </r>
       <r>   -3.4646    1.0000 </r>
       <r>   -3.4505    1.0000 </r>
       <r>   -3.3495    1.0000 </r>
       <r>   -3.3390    1.0000 </r>
       <r>   -3.3360    1.0000 </r>
       <r>   -3.1560    1.0000 </r>
       <r>   -3.1314    1.0000 </r>
       <r>   -3.0973    1.0000 </r>
       <r>   -3.0760    1.0000 </r>
       <r>   -3.0741    1.0000 </r>
       <r>   -3.0698    1.0000 </r>
       <r>   -3.0693    1.0000 </r>
       <r>   -2.9930    1.0000 </r>
       <r>   -2.9397    1.0000 </r>
       <r>   -2.9382    1.0000 </r>
       <r>   -2.9322    1.0000 </r>
       <r>   -2.8558    1.0000 </r>
       <r>   -2.8103    1.0000 </r>
       <r>   -2.7796    1.0000 </r>
       <r>   -2.7700    1.0000 </r>
       <r>   -2.7698    1.0000 </r>
       <r>   -2.7566    1.0000 </r>
       <r>   -2.7538    1.0000 </r>
       <r>   -2.7368    1.0000 </r>
       <r>   -2.7263    1.0000 </r>
       <r>   -2.6832    1.0000 </r>
       <r>   -2.6794    1.0000 </r>
       <r>   -2.6689    1.0000 </r>
       <r>   -2.6673    1.0000 </r>
       <r>   -2.6673    1.0000 </r>
       <r>   -2.5447    1.0000 </r>
       <r>   -2.5407    1.0000 </r>
       <r>   -2.5231    1.0000 </r>
       <r>   -2.5220    1.0000 </r>
       <r>   -2.5123    1.0000 </r>
       <r>   -2.4608    1.0000 </r>
       <r>   -2.4249    1.0000 </r>
       <r>   -2.4159    1.0000 </r>
       <r>   -2.3849    1.0000 </r>
       <r>   -2.3762    1.0000 </r>
       <r>   -2.3743    1.0000 </r>
       <r>   -2.3742    1.0000 </r>
       <r>   -2.3734    1.0000 </r>
       <r>   -2.3722    1.0000 </r>
       <r>   -2.3706    1.0000 </r>
       <r>   -2.3699    1.0000 </r>
       <r>   -2.3689    1.0000 </r>
       <r>   -2.3602    1.0000 </r>
       <r>   -2.3583    1.0000 </r>
       <r>   -2.3555    1.0000 </r>
       <r>   -2.3282    1.0000 </r>
       <r>   -2.2676    1.0000 </r>
       <r>   -2.2471    1.0000 </r>
       <r>   -2.2416    1.0000 </r>
       <r>   -2.2396    1.0000 </r>
       <r>   -2.2378    1.0000 </r>
       <r>   -2.2117    1.0000 </r>
       <r>   -2.1750    1.0000 </r>
       <r>   -2.1451    1.0000 </r>
       <r>   -2.1296    1.0000 </r>
       <r>   -2.0889    1.0000 </r>
       <r>   -2.0885    1.0000 </r>
       <r>   -2.0885    1.0000 </r>
       <r>   -2.0878    1.0000 </r>
       <r>   -2.0549    1.0000 </r>
       <r>   -2.0548    1.0000 </r>
       <r>   -2.0546    1.0000 </r>
       <r>   -2.0539    1.0000 </r>
       <r>   -2.0418    1.0000 </r>
       <r>   -2.0329    1.0000 </r>
       <r>   -2.0104    1.0000 </r>
       <r>   -2.0092    1.0000 </r>
       <r>   -1.9825    1.0000 </r>
       <r>   -1.9433    1.0000 </r>
       <r>   -1.9428    1.0000 </r>
       <r>   -1.9347    1.0000 </r>
       <r>   -1.9291    1.0000 </r>
       <r>   -1.8966    1.0000 </r>
       <r>   -1.8698    1.0000 </r>
       <r>   -1.8678    1.0000 </r>
       <r>   -1.8669    1.0000 </r>
       <r>   -1.8654    1.0000 </r>
       <r>   -1.8575    1.0000 </r>
       <r>   -1.8555    1.0000 </r>
       <r>   -1.8236    1.0000 </r>
       <r>   -1.8215    1.0000 </r>
       <r>   -1.8165    1.0000 </r>
       <r>   -1.8141    1.0000 </r>
       <r>   -1.7851    1.0000 </r>
       <r>   -1.7772    1.0000 </r>
       <r>   -1.7769    1.0000 </r>
       <r>   -1.7758    1.0000 </r>
       <r>   -1.7757    1.0000 </r>
       <r>   -1.7755    1.0000 </r>
       <r>   -1.7755    1.0000 </r>
       <r>   -1.7745    1.0000 </r>
       <r>   -1.7739    1.0000 </r>
       <r>   -1.7164    1.0000 </r>
       <r>   -1.7087    1.0000 </r>
       <r>   -1.7083    1.0000 </r>
       <r>   -1.6959    1.0000 </r>
       <r>   -1.6608    1.0000 </r>
       <r>   -1.6503    1.0000 </r>
       <r>   -1.6470    1.0000 </r>
       <r>   -1.6458    1.0000 </r>
       <r>   -1.6444    1.0000 </r>
       <r>   -1.6405    1.0000 </r>
       <r>   -1.6359    1.0000 </r>
       <r>   -1.6173    1.0000 </r>
       <r>   -1.6130    1.0000 </r>
       <r>   -1.6040    1.0000 </r>
       <r>   -1.6033    1.0000 </r>
       <r>   -1.5829    1.0000 </r>
       <r>   -1.5807    1.0000 </r>
       <r>   -1.5806    1.0000 </r>
       <r>   -1.5670    1.0000 </r>
       <r>   -1.5666    1.0000 </r>
       <r>   -1.5586    1.0000 </r>
       <r>   -1.5538    1.0000 </r>
       <r>   -1.5513    1.0000 </r>
       <r>   -1.4908    1.0000 </r>
       <r>   -1.4558    1.0000 </r>
       <r>   -1.4410    1.0000 </r>
       <r>   -1.4343    1.0000 </r>
       <r>   -1.3507    1.0000 </r>
       <r>   -1.3478    1.0000 </r>
       <r>   -1.3385    1.0000 </r>
       <r>   -1.3380    1.0000 </r>
       <r>   -1.2294    1.0000 </r>
       <r>   -1.2292    1.0000 </r>
       <r>   -1.2260    1.0000 </r>
       <r>   -1.2259    1.0000 </r>
       <r>   -1.2120    1.0000 </r>
       <r>   -1.2118    1.0000 </r>
       <r>   -1.2101    1.0000 </r>
       <r>   -1.2083    1.0000 </r>
       <r>   -1.1909    1.0000 </r>
       <r>   -1.0929    1.0000 </r>
       <r>   -1.0924    1.0000 </r>
       <r>   -1.0863    1.0000 </r>
       <r>   -1.0789    1.0000 </r>
       <r>   -1.0521    1.0000 </r>
       <r>   -1.0266    1.0000 </r>
       <r>   -1.0139    1.0000 </r>
       <r>   -0.9784    1.0000 </r>
       <r>   -0.9331    1.0000 </r>
       <r>   -0.8687    1.0000 </r>
       <r>   -0.8464    1.0000 </r>
       <r>   -0.7821    1.0000 </r>
       <r>   -0.7784    1.0000 </r>
       <r>   -0.7565    1.0000 </r>
       <r>   -0.7242    1.0000 </r>
       <r>   -0.7171    1.0000 </r>
       <r>   -0.7135    1.0000 </r>
       <r>   -0.7123    1.0000 </r>
       <r>   -0.7100    1.0000 </r>
       <r>   -0.6787    1.0000 </r>
       <r>   -0.6769    1.0000 </r>
       <r>   -0.6751    1.0000 </r>
       <r>   -0.6745    1.0000 </r>
       <r>   -0.6616    1.0000 </r>
       <r>   -0.6577    1.0000 </r>
       <r>   -0.6575    1.0000 </r>
       <r>   -0.6260    1.0000 </r>
       <r>   -0.5178    1.0000 </r>
       <r>   -0.5168    1.0000 </r>
       <r>   -0.5160    1.0000 </r>
       <r>   -0.5149    1.0000 </r>
       <r>   -0.4620    1.0000 </r>
       <r>   -0.4586    1.0000 </r>
       <r>   -0.4576    1.0000 </r>
       <r>   -0.4571    1.0000 </r>
       <r>   -0.4543    1.0000 </r>
       <r>   -0.4537    1.0000 </r>
       <r>   -0.4529    1.0000 </r>
       <r>   -0.4498    1.0000 </r>
       <r>   -0.4400    1.0000 </r>
       <r>   -0.4126    1.0000 </r>
       <r>   -0.3897    1.0000 </r>
       <r>   -0.3831    1.0000 </r>
       <r>   -0.3820    1.0000 </r>
       <r>   -0.3714    1.0000 </r>
       <r>   -0.3570    1.0000 </r>
       <r>   -0.3554    1.0000 </r>
       <r>   -0.3539    1.0000 </r>
       <r>   -0.3466    1.0000 </r>
       <r>   -0.3432    1.0000 </r>
       <r>   -0.3427    1.0000 </r>
       <r>   -0.3300    1.0000 </r>
       <r>   -0.3271    1.0000 </r>
       <r>   -0.3254    1.0000 </r>
       <r>   -0.3209    1.0000 </r>
       <r>   -0.2802    1.0000 </r>
       <r>   -0.2293    1.0000 </r>
       <r>   -0.2252    1.0000 </r>
       <r>   -0.1261    1.0000 </r>
       <r>   -0.0465    1.0000 </r>
       <r>    0.0027    1.0000 </r>
       <r>    0.0431    1.0000 </r>
       <r>    0.1172    1.0000 </r>
       <r>    0.1521    1.0000 </r>
       <r>    0.1547    1.0000 </r>
       <r>    0.1674    1.0000 </r>
       <r>    0.1865    1.0000 </r>
       <r>    0.1999    1.0000 </r>
       <r>    0.2119    1.0000 </r>
       <r>    0.2125    1.0000 </r>
       <r>    0.2181    1.0000 </r>
       <r>    0.2202    1.0000 </r>
       <r>    0.2375    1.0000 </r>
       <r>    0.2429    1.0000 </r>
       <r>    0.2862    1.0000 </r>
       <r>    0.3096    1.0000 </r>
       <r>    0.3156    1.0000 </r>
       <r>    0.3436    1.0000 </r>
       <r>    0.3446    1.0000 </r>
       <r>    0.3490    1.0000 </r>
       <r>    0.3502    1.0000 </r>
       <r>    0.3659    1.0000 </r>
       <r>    0.3749    1.0000 </r>
       <r>    0.3944    1.0000 </r>
       <r>    0.4528    1.0000 </r>
       <r>    0.4588    1.0000 </r>
       <r>    0.4599    1.0000 </r>
       <r>    0.4628    1.0000 </r>
       <r>    0.4644    1.0000 </r>
       <r>    0.4649    1.0000 </r>
       <r>    0.4764    1.0000 </r>
       <r>    0.4819    1.0000 </r>
       <r>    0.5556    1.0000 </r>
       <r>    0.5599    1.0000 </r>
       <r>    0.5655    1.0000 </r>
       <r>    0.5852    1.0000 </r>
       <r>    0.5896    1.0000 </r>
       <r>    0.6850    1.0000 </r>
       <r>    0.6932    1.0000 </r>
       <r>    0.7005    1.0000 </r>
       <r>    0.7087    1.0000 </r>
       <r>    0.7236    1.0000 </r>
       <r>    0.8062    1.0000 </r>
       <r>    0.8097    1.0000 </r>
       <r>    0.8386    1.0000 </r>
       <r>    0.8554    1.0000 </r>
       <r>    0.8562    1.0000 </r>
       <r>    0.8802    1.0000 </r>
       <r>    0.8842    1.0000 </r>
       <r>    0.8851    1.0000 </r>
       <r>    0.9158    1.0000 </r>
       <r>    0.9906    1.0000 </r>
       <r>    0.9916    1.0000 </r>
       <r>    0.9946    1.0000 </r>
       <r>    0.9968    1.0000 </r>
       <r>    1.0200    1.0000 </r>
       <r>    1.0324    1.0000 </r>
       <r>    1.0822    1.0000 </r>
       <r>    1.0976    1.0000 </r>
       <r>    1.2079    1.0000 </r>
       <r>    1.2086    1.0000 </r>
       <r>    1.2156    1.0000 </r>
       <r>    1.2317    1.0000 </r>
       <r>    1.2452    1.0000 </r>
       <r>    1.2458    1.0000 </r>
       <r>    1.2544    1.0000 </r>
       <r>    1.2591    1.0000 </r>
       <r>    1.3147    1.0000 </r>
       <r>    1.3160    1.0000 </r>
       <r>    1.3627    1.0000 </r>
       <r>    1.3693    1.0000 </r>
       <r>    1.4010    1.0000 </r>
       <r>    1.4050    1.0000 </r>
       <r>    1.4402    1.0000 </r>
       <r>    1.4407    1.0000 </r>
       <r>    1.4983    1.0000 </r>
       <r>    1.5016    1.0000 </r>
       <r>    1.5377    1.0000 </r>
       <r>    1.5779    1.0000 </r>
       <r>    1.5873    1.0000 </r>
       <r>    1.5892    1.0000 </r>
       <r>    1.7632    1.0000 </r>
       <r>    1.7678    1.0000 </r>
       <r>    1.8461    1.0000 </r>
       <r>    1.8557    1.0000 </r>
       <r>    1.8607    1.0000 </r>
       <r>    1.8609    1.0000 </r>
       <r>    1.9175    1.0000 </r>
       <r>    1.9259    1.0000 </r>
       <r>    1.9515    1.0000 </r>
       <r>    1.9620    1.0000 </r>
       <r>    1.9798    1.0000 </r>
       <r>    1.9810    1.0000 </r>
       <r>    2.0227    1.0000 </r>
       <r>    2.0243    1.0000 </r>
       <r>    2.0631    1.0000 </r>
       <r>    2.0688    1.0000 </r>
       <r>    2.0964    1.0000 </r>
       <r>    2.0969    1.0000 </r>
       <r>    2.2231    1.0000 </r>
       <r>    2.2298    1.0000 </r>
       <r>    2.3994    1.0000 </r>
       <r>    2.4022    1.0000 </r>
       <r>    2.4031    1.0000 </r>
       <r>    2.4045    1.0000 </r>
       <r>    4.6619    1.0000 </r>
       <r>    5.8854    0.0000 </r>
       <r>    6.6168    0.0000 </r>
       <r>    6.6376    0.0000 </r>
       <r>    6.6378    0.0000 </r>
       <r>    6.8792    0.0000 </r>
       <r>    6.9263    0.0000 </r>
       <r>    6.9921    0.0000 </r>
       <r>    7.0031    0.0000 </r>
       <r>    7.0784    0.0000 </r>
       <r>    7.0880    0.0000 </r>
       <r>    7.1526    0.0000 </r>
       <r>    7.2116    0.0000 </r>
       <r>    7.2123    0.0000 </r>
       <r>    7.2281    0.0000 </r>
       <r>    7.2439    0.0000 </r>
       <r>    7.2821    0.0000 </r>
       <r>    7.2970    0.0000 </r>
       <r>    7.3060    0.0000 </r>
       <r>    7.3277    0.0000 </r>
       <r>    7.3328    0.0000 </r>
       <r>    7.3383    0.0000 </r>
       <r>    7.3421    0.0000 </r>
       <r>    7.3437    0.0000 </r>
       <r>    7.3606    0.0000 </r>
       <r>    7.3625    0.0000 </r>
       <r>    7.3819    0.0000 </r>
       <r>    7.3842    0.0000 </r>
       <r>    7.3919    0.0000 </r>
       <r>    7.3950    0.0000 </r>
       <r>    7.4294    0.0000 </r>
       <r>    7.4310    0.0000 </r>
       <r>    7.4586    0.0000 </r>
       <r>    7.6866    0.0000 </r>
       <r>    7.7380    0.0000 </r>
       <r>    7.7420    0.0000 </r>
       <r>    7.7463    0.0000 </r>
       <r>    7.7922    0.0000 </r>
       <r>    7.8210    0.0000 </r>
       <r>    7.8448    0.0000 </r>
       <r>    7.8742    0.0000 </r>
       <r>    7.8891    0.0000 </r>
       <r>    7.9072    0.0000 </r>
       <r>    7.9154    0.0000 </r>
       <r>    7.9196    0.0000 </r>
       <r>    7.9429    0.0000 </r>
       <r>    7.9656    0.0000 </r>
       <r>    8.0635    0.0000 </r>
       <r>    8.1121    0.0000 </r>
       <r>    8.1667    0.0000 </r>
       <r>    8.1679    0.0000 </r>
       <r>    8.1707    0.0000 </r>
       <r>    8.1849    0.0000 </r>
       <r>    8.2097    0.0000 </r>
       <r>    8.2213    0.0000 </r>
       <r>    8.2222    0.0000 </r>
       <r>    8.2332    0.0000 </r>
       <r>    8.2407    0.0000 </r>
       <r>    8.2548    0.0000 </r>
       <r>    8.2827    0.0000 </r>
       <r>    8.3929    0.0000 </r>
       <r>    8.5604    0.0000 </r>
       <r>    8.5792    0.0000 </r>
       <r>    8.5922    0.0000 </r>
       <r>    8.6319    0.0000 </r>
       <r>    8.6334    0.0000 </r>
       <r>    8.6451    0.0000 </r>
       <r>    8.6611    0.0000 </r>
       <r>    8.6695    0.0000 </r>
       <r>    8.6802    0.0000 </r>
       <r>    8.6877    0.0000 </r>
       <r>    8.6878    0.0000 </r>
       <r>    8.7314    0.0000 </r>
       <r>    8.8816    0.0000 </r>
       <r>    8.9558    0.0000 </r>
       <r>    8.9907    0.0000 </r>
       <r>    8.9982    0.0000 </r>
       <r>    9.0085    0.0000 </r>
       <r>    9.0555    0.0000 </r>
       <r>    9.1244    0.0000 </r>
       <r>    9.2097    0.0000 </r>
       <r>    9.2405    0.0000 </r>
       <r>    9.2644    0.0000 </r>
       <r>    9.2670    0.0000 </r>
       <r>    9.2682    0.0000 </r>
       <r>    9.2805    0.0000 </r>
       <r>    9.2956    0.0000 </r>
       <r>    9.2984    0.0000 </r>
       <r>    9.3031    0.0000 </r>
       <r>    9.3201    0.0000 </r>
       <r>    9.3253    0.0000 </r>
       <r>    9.3271    0.0000 </r>
       <r>    9.3297    0.0000 </r>
       <r>    9.3558    0.0000 </r>
       <r>    9.3984    0.0000 </r>
       <r>    9.4732    0.0000 </r>
       <r>    9.6116    0.0000 </r>
       <r>    9.6281    0.0000 </r>
       <r>    9.6821    0.0000 </r>
       <r>    9.6885    0.0000 </r>
       <r>    9.6910    0.0000 </r>
       <r>    9.7186    0.0000 </r>
       <r>    9.8768    0.0000 </r>
       <r>   10.0650    0.0000 </r>
       <r>   10.0885    0.0000 </r>
       <r>   10.0899    0.0000 </r>
       <r>   10.1017    0.0000 </r>
       <r>   10.1418    0.0000 </r>
       <r>   10.1705    0.0000 </r>
       <r>   10.1744    0.0000 </r>
       <r>   10.1898    0.0000 </r>
       <r>   10.1970    0.0000 </r>
       <r>   10.2269    0.0000 </r>
       <r>   10.2356    0.0000 </r>
       <r>   10.2829    0.0000 </r>
       <r>   10.3010    0.0000 </r>
       <r>   10.3029    0.0000 </r>
       <r>   10.3758    0.0000 </r>
       <r>   10.3804    0.0000 </r>
       <r>   10.3889    0.0000 </r>
       <r>   10.3935    0.0000 </r>
       <r>   10.4135    0.0000 </r>
       <r>   10.4363    0.0000 </r>
       <r>   10.4417    0.0000 </r>
       <r>   10.4659    0.0000 </r>
       <r>   10.5066    0.0000 </r>
       <r>   10.5272    0.0000 </r>
       <r>   10.6254    0.0000 </r>
       <r>   10.6683    0.0000 </r>
       <r>   10.7191    0.0000 </r>
       <r>   10.7202    0.0000 </r>
       <r>   10.7236    0.0000 </r>
       <r>   10.7326    0.0000 </r>
       <r>   10.7510    0.0000 </r>
       <r>   10.7582    0.0000 </r>
       <r>   10.7622    0.0000 </r>
       <r>   10.7851    0.0000 </r>
       <r>   10.7882    0.0000 </r>
       <r>   10.7929    0.0000 </r>
       <r>   10.8130    0.0000 </r>
       <r>   10.8139    0.0000 </r>
       <r>   11.2371    0.0000 </r>
       <r>   11.2597    0.0000 </r>
       <r>   11.4783    0.0000 </r>
       <r>   11.5641    0.0000 </r>
       <r>   11.6269    0.0000 </r>
       <r>   11.6751    0.0000 </r>
       <r>   11.7090    0.0000 </r>
       <r>   11.7398    0.0000 </r>
       <r>   11.7758    0.0000 </r>
       <r>   11.7941    0.0000 </r>
       <r>   11.8296    0.0000 </r>
      </set>
      <set comment="kpoint 4">
       <r>  -17.2937    1.0000 </r>
       <r>  -15.7754    1.0000 </r>
       <r>  -15.7303    1.0000 </r>
       <r>  -15.4205    1.0000 </r>
       <r>  -15.3136    1.0000 </r>
       <r>  -15.2500    1.0000 </r>
       <r>  -15.2287    1.0000 </r>
       <r>  -15.1958    1.0000 </r>
       <r>  -15.1882    1.0000 </r>
       <r>  -15.1019    1.0000 </r>
       <r>  -15.0676    1.0000 </r>
       <r>  -15.0275    1.0000 </r>
       <r>  -15.0062    1.0000 </r>
       <r>  -14.9555    1.0000 </r>
       <r>  -14.9471    1.0000 </r>
       <r>  -14.9377    1.0000 </r>
       <r>  -14.9359    1.0000 </r>
       <r>  -14.8565    1.0000 </r>
       <r>  -14.7539    1.0000 </r>
       <r>  -14.7519    1.0000 </r>
       <r>  -14.6207    1.0000 </r>
       <r>  -14.5700    1.0000 </r>
       <r>  -14.5558    1.0000 </r>
       <r>  -14.4591    1.0000 </r>
       <r>  -14.4446    1.0000 </r>
       <r>  -14.4429    1.0000 </r>
       <r>  -14.4298    1.0000 </r>
       <r>  -14.4248    1.0000 </r>
       <r>  -14.4201    1.0000 </r>
       <r>  -14.4161    1.0000 </r>
       <r>  -14.4146    1.0000 </r>
       <r>  -14.3553    1.0000 </r>
       <r>  -14.2487    1.0000 </r>
       <r>  -14.2403    1.0000 </r>
       <r>  -14.2398    1.0000 </r>
       <r>  -14.2392    1.0000 </r>
       <r>  -14.2015    1.0000 </r>
       <r>  -14.1914    1.0000 </r>
       <r>  -14.1676    1.0000 </r>
       <r>  -14.1664    1.0000 </r>
       <r>  -14.1216    1.0000 </r>
       <r>  -14.0362    1.0000 </r>
       <r>  -13.9987    1.0000 </r>
       <r>  -13.9930    1.0000 </r>
       <r>  -13.9467    1.0000 </r>
       <r>  -13.7940    1.0000 </r>
       <r>  -13.7363    1.0000 </r>
       <r>  -13.7131    1.0000 </r>
       <r>  -13.7094    1.0000 </r>
       <r>  -13.7070    1.0000 </r>
       <r>  -13.6960    1.0000 </r>
       <r>  -13.6940    1.0000 </r>
       <r>  -13.6738    1.0000 </r>
       <r>  -13.6734    1.0000 </r>
       <r>  -13.6080    1.0000 </r>
       <r>  -13.5345    1.0000 </r>
       <r>  -13.5307    1.0000 </r>
       <r>  -13.5146    1.0000 </r>
       <r>  -13.5129    1.0000 </r>
       <r>  -13.5054    1.0000 </r>
       <r>  -13.3598    1.0000 </r>
       <r>  -13.3379    1.0000 </r>
       <r>  -13.2557    1.0000 </r>
       <r>  -13.2235    1.0000 </r>
       <r>  -13.1147    1.0000 </r>
       <r>  -13.0592    1.0000 </r>
       <r>  -13.0537    1.0000 </r>
       <r>  -13.0510    1.0000 </r>
       <r>  -13.0431    1.0000 </r>
       <r>  -13.0402    1.0000 </r>
       <r>  -13.0374    1.0000 </r>
       <r>  -13.0348    1.0000 </r>
       <r>  -13.0332    1.0000 </r>
       <r>  -12.9772    1.0000 </r>
       <r>  -12.9316    1.0000 </r>
       <r>  -12.8884    1.0000 </r>
       <r>  -12.8846    1.0000 </r>
       <r>  -12.8835    1.0000 </r>
       <r>  -12.8807    1.0000 </r>
       <r>  -12.8759    1.0000 </r>
       <r>  -12.8736    1.0000 </r>
       <r>  -12.8724    1.0000 </r>
       <r>  -12.8711    1.0000 </r>
       <r>  -12.8693    1.0000 </r>
       <r>  -12.8672    1.0000 </r>
       <r>  -12.8634    1.0000 </r>
       <r>  -12.8629    1.0000 </r>
       <r>  -12.8609    1.0000 </r>
       <r>  -12.7182    1.0000 </r>
       <r>  -12.7143    1.0000 </r>
       <r>  -12.7135    1.0000 </r>
       <r>  -12.7115    1.0000 </r>
       <r>  -12.6821    1.0000 </r>
       <r>  -12.6100    1.0000 </r>
       <r>  -12.5916    1.0000 </r>
       <r>  -12.5843    1.0000 </r>
       <r>  -12.5694    1.0000 </r>
       <r>  -12.5547    1.0000 </r>
       <r>  -12.5333    1.0000 </r>
       <r>  -12.4986    1.0000 </r>
       <r>  -12.4379    1.0000 </r>
       <r>  -12.4333    1.0000 </r>
       <r>  -12.4234    1.0000 </r>
       <r>  -12.4199    1.0000 </r>
       <r>  -12.3361    1.0000 </r>
       <r>  -12.3327    1.0000 </r>
       <r>  -12.3285    1.0000 </r>
       <r>  -12.3235    1.0000 </r>
       <r>  -12.2442    1.0000 </r>
       <r>  -12.2417    1.0000 </r>
       <r>  -12.2394    1.0000 </r>
       <r>  -12.2364    1.0000 </r>
       <r>  -12.2162    1.0000 </r>
       <r>  -12.2150    1.0000 </r>
       <r>  -12.2100    1.0000 </r>
       <r>  -12.2078    1.0000 </r>
       <r>  -12.1800    1.0000 </r>
       <r>  -12.1753    1.0000 </r>
       <r>  -12.1701    1.0000 </r>
       <r>  -12.1697    1.0000 </r>
       <r>  -12.1006    1.0000 </r>
       <r>  -12.0941    1.0000 </r>
       <r>  -12.0894    1.0000 </r>
       <r>  -12.0860    1.0000 </r>
       <r>  -12.0845    1.0000 </r>
       <r>  -12.0825    1.0000 </r>
       <r>  -11.9501    1.0000 </r>
       <r>  -11.9480    1.0000 </r>
       <r>  -11.9467    1.0000 </r>
       <r>  -11.9445    1.0000 </r>
       <r>  -11.8169    1.0000 </r>
       <r>  -11.8140    1.0000 </r>
       <r>  -11.8073    1.0000 </r>
       <r>  -11.8064    1.0000 </r>
       <r>  -11.8063    1.0000 </r>
       <r>  -11.8053    1.0000 </r>
       <r>  -11.7841    1.0000 </r>
       <r>  -11.7836    1.0000 </r>
       <r>  -11.7803    1.0000 </r>
       <r>  -11.7800    1.0000 </r>
       <r>  -11.6743    1.0000 </r>
       <r>  -11.6675    1.0000 </r>
       <r>  -11.6603    1.0000 </r>
       <r>  -11.6566    1.0000 </r>
       <r>   -8.3631    1.0000 </r>
       <r>   -7.2840    1.0000 </r>
       <r>   -7.2708    1.0000 </r>
       <r>   -6.7936    1.0000 </r>
       <r>   -6.7046    1.0000 </r>
       <r>   -6.6828    1.0000 </r>
       <r>   -6.4380    1.0000 </r>
       <r>   -6.4061    1.0000 </r>
       <r>   -6.3221    1.0000 </r>
       <r>   -6.3079    1.0000 </r>
       <r>   -6.3056    1.0000 </r>
       <r>   -6.3049    1.0000 </r>
       <r>   -6.3007    1.0000 </r>
       <r>   -6.2875    1.0000 </r>
       <r>   -6.2731    1.0000 </r>
       <r>   -6.2721    1.0000 </r>
       <r>   -6.2709    1.0000 </r>
       <r>   -6.2706    1.0000 </r>
       <r>   -6.2163    1.0000 </r>
       <r>   -6.2140    1.0000 </r>
       <r>   -6.2132    1.0000 </r>
       <r>   -6.2044    1.0000 </r>
       <r>   -6.1985    1.0000 </r>
       <r>   -6.1959    1.0000 </r>
       <r>   -6.1628    1.0000 </r>
       <r>   -6.1585    1.0000 </r>
       <r>   -6.1479    1.0000 </r>
       <r>   -6.1453    1.0000 </r>
       <r>   -6.0734    1.0000 </r>
       <r>   -6.0709    1.0000 </r>
       <r>   -5.9330    1.0000 </r>
       <r>   -5.9310    1.0000 </r>
       <r>   -5.9070    1.0000 </r>
       <r>   -5.9070    1.0000 </r>
       <r>   -5.8438    1.0000 </r>
       <r>   -5.7921    1.0000 </r>
       <r>   -5.7804    1.0000 </r>
       <r>   -5.7741    1.0000 </r>
       <r>   -5.7679    1.0000 </r>
       <r>   -5.7646    1.0000 </r>
       <r>   -5.7637    1.0000 </r>
       <r>   -5.7632    1.0000 </r>
       <r>   -5.7627    1.0000 </r>
       <r>   -5.7568    1.0000 </r>
       <r>   -5.7523    1.0000 </r>
       <r>   -5.7518    1.0000 </r>
       <r>   -5.7433    1.0000 </r>
       <r>   -5.6846    1.0000 </r>
       <r>   -5.6545    1.0000 </r>
       <r>   -5.6420    1.0000 </r>
       <r>   -5.6258    1.0000 </r>
       <r>   -5.6233    1.0000 </r>
       <r>   -5.6189    1.0000 </r>
       <r>   -5.6167    1.0000 </r>
       <r>   -5.2269    1.0000 </r>
       <r>   -5.2257    1.0000 </r>
       <r>   -5.2239    1.0000 </r>
       <r>   -5.2232    1.0000 </r>
       <r>   -5.2215    1.0000 </r>
       <r>   -5.2213    1.0000 </r>
       <r>   -5.2210    1.0000 </r>
       <r>   -5.2206    1.0000 </r>
       <r>   -5.2191    1.0000 </r>
       <r>   -5.2186    1.0000 </r>
       <r>   -5.2182    1.0000 </r>
       <r>   -5.2177    1.0000 </r>
       <r>   -5.1151    1.0000 </r>
       <r>   -5.1104    1.0000 </r>
       <r>   -5.0942    1.0000 </r>
       <r>   -5.0915    1.0000 </r>
       <r>   -5.0887    1.0000 </r>
       <r>   -5.0876    1.0000 </r>
       <r>   -5.0854    1.0000 </r>
       <r>   -5.0813    1.0000 </r>
       <r>   -5.0260    1.0000 </r>
       <r>   -4.9211    1.0000 </r>
       <r>   -4.8319    1.0000 </r>
       <r>   -4.6117    1.0000 </r>
       <r>   -4.5542    1.0000 </r>
       <r>   -4.5412    1.0000 </r>
       <r>   -4.4758    1.0000 </r>
       <r>   -4.4732    1.0000 </r>
       <r>   -4.4720    1.0000 </r>
       <r>   -4.4713    1.0000 </r>
       <r>   -4.4707    1.0000 </r>
       <r>   -4.4694    1.0000 </r>
       <r>   -4.4680    1.0000 </r>
       <r>   -4.4677    1.0000 </r>
       <r>   -4.3463    1.0000 </r>
       <r>   -4.3422    1.0000 </r>
       <r>   -4.3401    1.0000 </r>
       <r>   -4.3378    1.0000 </r>
       <r>   -4.3175    1.0000 </r>
       <r>   -4.3163    1.0000 </r>
       <r>   -4.2018    1.0000 </r>
       <r>   -4.0978    1.0000 </r>
       <r>   -4.0876    1.0000 </r>
       <r>   -4.0873    1.0000 </r>
       <r>   -4.0850    1.0000 </r>
       <r>   -4.0841    1.0000 </r>
       <r>   -4.0740    1.0000 </r>
       <r>   -4.0738    1.0000 </r>
       <r>   -4.0720    1.0000 </r>
       <r>   -4.0709    1.0000 </r>
       <r>   -4.0288    1.0000 </r>
       <r>   -3.9527    1.0000 </r>
       <r>   -3.9502    1.0000 </r>
       <r>   -3.9465    1.0000 </r>
       <r>   -3.9446    1.0000 </r>
       <r>   -3.9092    1.0000 </r>
       <r>   -3.8654    1.0000 </r>
       <r>   -3.7857    1.0000 </r>
       <r>   -3.7507    1.0000 </r>
       <r>   -3.6236    1.0000 </r>
       <r>   -3.6216    1.0000 </r>
       <r>   -3.6155    1.0000 </r>
       <r>   -3.6141    1.0000 </r>
       <r>   -3.6035    1.0000 </r>
       <r>   -3.6028    1.0000 </r>
       <r>   -3.5984    1.0000 </r>
       <r>   -3.5978    1.0000 </r>
       <r>   -3.5161    1.0000 </r>
       <r>   -3.4814    1.0000 </r>
       <r>   -3.4791    1.0000 </r>
       <r>   -3.4780    1.0000 </r>
       <r>   -3.4728    1.0000 </r>
       <r>   -3.4712    1.0000 </r>
       <r>   -3.4688    1.0000 </r>
       <r>   -3.4683    1.0000 </r>
       <r>   -3.4655    1.0000 </r>
       <r>   -3.4645    1.0000 </r>
       <r>   -3.4506    1.0000 </r>
       <r>   -3.3494    1.0000 </r>
       <r>   -3.3407    1.0000 </r>
       <r>   -3.3374    1.0000 </r>
       <r>   -3.1560    1.0000 </r>
       <r>   -3.1310    1.0000 </r>
       <r>   -3.0973    1.0000 </r>
       <r>   -3.0760    1.0000 </r>
       <r>   -3.0742    1.0000 </r>
       <r>   -3.0698    1.0000 </r>
       <r>   -3.0693    1.0000 </r>
       <r>   -2.9929    1.0000 </r>
       <r>   -2.9375    1.0000 </r>
       <r>   -2.9363    1.0000 </r>
       <r>   -2.9315    1.0000 </r>
       <r>   -2.8558    1.0000 </r>
       <r>   -2.8106    1.0000 </r>
       <r>   -2.7785    1.0000 </r>
       <r>   -2.7705    1.0000 </r>
       <r>   -2.7698    1.0000 </r>
       <r>   -2.7565    1.0000 </r>
       <r>   -2.7535    1.0000 </r>
       <r>   -2.7359    1.0000 </r>
       <r>   -2.7262    1.0000 </r>
       <r>   -2.6832    1.0000 </r>
       <r>   -2.6794    1.0000 </r>
       <r>   -2.6688    1.0000 </r>
       <r>   -2.6675    1.0000 </r>
       <r>   -2.6673    1.0000 </r>
       <r>   -2.5471    1.0000 </r>
       <r>   -2.5433    1.0000 </r>
       <r>   -2.5252    1.0000 </r>
       <r>   -2.5227    1.0000 </r>
       <r>   -2.5123    1.0000 </r>
       <r>   -2.4608    1.0000 </r>
       <r>   -2.4252    1.0000 </r>
       <r>   -2.4158    1.0000 </r>
       <r>   -2.3849    1.0000 </r>
       <r>   -2.3763    1.0000 </r>
       <r>   -2.3744    1.0000 </r>
       <r>   -2.3740    1.0000 </r>
       <r>   -2.3733    1.0000 </r>
       <r>   -2.3722    1.0000 </r>
       <r>   -2.3706    1.0000 </r>
       <r>   -2.3698    1.0000 </r>
       <r>   -2.3689    1.0000 </r>
       <r>   -2.3602    1.0000 </r>
       <r>   -2.3587    1.0000 </r>
       <r>   -2.3554    1.0000 </r>
       <r>   -2.3282    1.0000 </r>
       <r>   -2.2676    1.0000 </r>
       <r>   -2.2435    1.0000 </r>
       <r>   -2.2410    1.0000 </r>
       <r>   -2.2390    1.0000 </r>
       <r>   -2.2343    1.0000 </r>
       <r>   -2.2117    1.0000 </r>
       <r>   -2.1750    1.0000 </r>
       <r>   -2.1452    1.0000 </r>
       <r>   -2.1298    1.0000 </r>
       <r>   -2.0892    1.0000 </r>
       <r>   -2.0888    1.0000 </r>
       <r>   -2.0888    1.0000 </r>
       <r>   -2.0881    1.0000 </r>
       <r>   -2.0546    1.0000 </r>
       <r>   -2.0544    1.0000 </r>
       <r>   -2.0542    1.0000 </r>
       <r>   -2.0535    1.0000 </r>
       <r>   -2.0416    1.0000 </r>
       <r>   -2.0319    1.0000 </r>
       <r>   -2.0106    1.0000 </r>
       <r>   -2.0086    1.0000 </r>
       <r>   -1.9826    1.0000 </r>
       <r>   -1.9484    1.0000 </r>
       <r>   -1.9434    1.0000 </r>
       <r>   -1.9319    1.0000 </r>
       <r>   -1.9311    1.0000 </r>
       <r>   -1.8966    1.0000 </r>
       <r>   -1.8697    1.0000 </r>
       <r>   -1.8679    1.0000 </r>
       <r>   -1.8667    1.0000 </r>
       <r>   -1.8655    1.0000 </r>
       <r>   -1.8576    1.0000 </r>
       <r>   -1.8553    1.0000 </r>
       <r>   -1.8231    1.0000 </r>
       <r>   -1.8208    1.0000 </r>
       <r>   -1.8182    1.0000 </r>
       <r>   -1.8132    1.0000 </r>
       <r>   -1.7851    1.0000 </r>
       <r>   -1.7773    1.0000 </r>
       <r>   -1.7770    1.0000 </r>
       <r>   -1.7759    1.0000 </r>
       <r>   -1.7758    1.0000 </r>
       <r>   -1.7756    1.0000 </r>
       <r>   -1.7755    1.0000 </r>
       <r>   -1.7745    1.0000 </r>
       <r>   -1.7740    1.0000 </r>
       <r>   -1.7166    1.0000 </r>
       <r>   -1.7088    1.0000 </r>
       <r>   -1.7086    1.0000 </r>
       <r>   -1.6961    1.0000 </r>
       <r>   -1.6604    1.0000 </r>
       <r>   -1.6503    1.0000 </r>
       <r>   -1.6503    1.0000 </r>
       <r>   -1.6455    1.0000 </r>
       <r>   -1.6442    1.0000 </r>
       <r>   -1.6430    1.0000 </r>
       <r>   -1.6346    1.0000 </r>
       <r>   -1.6157    1.0000 </r>
       <r>   -1.6130    1.0000 </r>
       <r>   -1.6057    1.0000 </r>
       <r>   -1.6034    1.0000 </r>
       <r>   -1.5833    1.0000 </r>
       <r>   -1.5810    1.0000 </r>
       <r>   -1.5799    1.0000 </r>
       <r>   -1.5665    1.0000 </r>
       <r>   -1.5661    1.0000 </r>
       <r>   -1.5586    1.0000 </r>
       <r>   -1.5533    1.0000 </r>
       <r>   -1.5510    1.0000 </r>
       <r>   -1.4924    1.0000 </r>
       <r>   -1.4549    1.0000 </r>
       <r>   -1.4413    1.0000 </r>
       <r>   -1.4282    1.0000 </r>
       <r>   -1.3509    1.0000 </r>
       <r>   -1.3478    1.0000 </r>
       <r>   -1.3400    1.0000 </r>
       <r>   -1.3382    1.0000 </r>
       <r>   -1.2296    1.0000 </r>
       <r>   -1.2294    1.0000 </r>
       <r>   -1.2262    1.0000 </r>
       <r>   -1.2261    1.0000 </r>
       <r>   -1.2118    1.0000 </r>
       <r>   -1.2116    1.0000 </r>
       <r>   -1.2101    1.0000 </r>
       <r>   -1.2080    1.0000 </r>
       <r>   -1.1910    1.0000 </r>
       <r>   -1.0981    1.0000 </r>
       <r>   -1.0923    1.0000 </r>
       <r>   -1.0851    1.0000 </r>
       <r>   -1.0831    1.0000 </r>
       <r>   -1.0522    1.0000 </r>
       <r>   -1.0285    1.0000 </r>
       <r>   -1.0140    1.0000 </r>
       <r>   -0.9789    1.0000 </r>
       <r>   -0.9331    1.0000 </r>
       <r>   -0.8687    1.0000 </r>
       <r>   -0.8464    1.0000 </r>
       <r>   -0.7810    1.0000 </r>
       <r>   -0.7785    1.0000 </r>
       <r>   -0.7555    1.0000 </r>
       <r>   -0.7246    1.0000 </r>
       <r>   -0.7175    1.0000 </r>
       <r>   -0.7133    1.0000 </r>
       <r>   -0.7118    1.0000 </r>
       <r>   -0.7101    1.0000 </r>
       <r>   -0.6784    1.0000 </r>
       <r>   -0.6762    1.0000 </r>
       <r>   -0.6747    1.0000 </r>
       <r>   -0.6741    1.0000 </r>
       <r>   -0.6624    1.0000 </r>
       <r>   -0.6576    1.0000 </r>
       <r>   -0.6562    1.0000 </r>
       <r>   -0.6261    1.0000 </r>
       <r>   -0.5178    1.0000 </r>
       <r>   -0.5165    1.0000 </r>
       <r>   -0.5160    1.0000 </r>
       <r>   -0.5148    1.0000 </r>
       <r>   -0.4622    1.0000 </r>
       <r>   -0.4587    1.0000 </r>
       <r>   -0.4578    1.0000 </r>
       <r>   -0.4571    1.0000 </r>
       <r>   -0.4545    1.0000 </r>
       <r>   -0.4538    1.0000 </r>
       <r>   -0.4529    1.0000 </r>
       <r>   -0.4499    1.0000 </r>
       <r>   -0.4413    1.0000 </r>
       <r>   -0.4126    1.0000 </r>
       <r>   -0.3856    1.0000 </r>
       <r>   -0.3853    1.0000 </r>
       <r>   -0.3792    1.0000 </r>
       <r>   -0.3703    1.0000 </r>
       <r>   -0.3569    1.0000 </r>
       <r>   -0.3552    1.0000 </r>
       <r>   -0.3538    1.0000 </r>
       <r>   -0.3464    1.0000 </r>
       <r>   -0.3430    1.0000 </r>
       <r>   -0.3426    1.0000 </r>
       <r>   -0.3317    1.0000 </r>
       <r>   -0.3266    1.0000 </r>
       <r>   -0.3255    1.0000 </r>
       <r>   -0.3206    1.0000 </r>
       <r>   -0.2801    1.0000 </r>
       <r>   -0.2250    1.0000 </r>
       <r>   -0.2208    1.0000 </r>
       <r>   -0.1256    1.0000 </r>
       <r>   -0.0464    1.0000 </r>
       <r>    0.0032    1.0000 </r>
       <r>    0.0429    1.0000 </r>
       <r>    0.1174    1.0000 </r>
       <r>    0.1521    1.0000 </r>
       <r>    0.1549    1.0000 </r>
       <r>    0.1688    1.0000 </r>
       <r>    0.1864    1.0000 </r>
       <r>    0.1998    1.0000 </r>
       <r>    0.2126    1.0000 </r>
       <r>    0.2127    1.0000 </r>
       <r>    0.2182    1.0000 </r>
       <r>    0.2203    1.0000 </r>
       <r>    0.2381    1.0000 </r>
       <r>    0.2422    1.0000 </r>
       <r>    0.2831    1.0000 </r>
       <r>    0.3103    1.0000 </r>
       <r>    0.3156    1.0000 </r>
       <r>    0.3436    1.0000 </r>
       <r>    0.3446    1.0000 </r>
       <r>    0.3490    1.0000 </r>
       <r>    0.3502    1.0000 </r>
       <r>    0.3640    1.0000 </r>
       <r>    0.3762    1.0000 </r>
       <r>    0.3943    1.0000 </r>
       <r>    0.4527    1.0000 </r>
       <r>    0.4579    1.0000 </r>
       <r>    0.4598    1.0000 </r>
       <r>    0.4637    1.0000 </r>
       <r>    0.4644    1.0000 </r>
       <r>    0.4650    1.0000 </r>
       <r>    0.4718    1.0000 </r>
       <r>    0.4777    1.0000 </r>
       <r>    0.5552    1.0000 </r>
       <r>    0.5595    1.0000 </r>
       <r>    0.5656    1.0000 </r>
       <r>    0.5855    1.0000 </r>
       <r>    0.5899    1.0000 </r>
       <r>    0.6842    1.0000 </r>
       <r>    0.6882    1.0000 </r>
       <r>    0.7008    1.0000 </r>
       <r>    0.7034    1.0000 </r>
       <r>    0.7238    1.0000 </r>
       <r>    0.8071    1.0000 </r>
       <r>    0.8094    1.0000 </r>
       <r>    0.8403    1.0000 </r>
       <r>    0.8552    1.0000 </r>
       <r>    0.8560    1.0000 </r>
       <r>    0.8799    1.0000 </r>
       <r>    0.8846    1.0000 </r>
       <r>    0.8854    1.0000 </r>
       <r>    0.9160    1.0000 </r>
       <r>    0.9910    1.0000 </r>
       <r>    0.9916    1.0000 </r>
       <r>    0.9958    1.0000 </r>
       <r>    1.0062    1.0000 </r>
       <r>    1.0212    1.0000 </r>
       <r>    1.0325    1.0000 </r>
       <r>    1.0785    1.0000 </r>
       <r>    1.0966    1.0000 </r>
       <r>    1.2059    1.0000 </r>
       <r>    1.2105    1.0000 </r>
       <r>    1.2151    1.0000 </r>
       <r>    1.2333    1.0000 </r>
       <r>    1.2448    1.0000 </r>
       <r>    1.2455    1.0000 </r>
       <r>    1.2543    1.0000 </r>
       <r>    1.2589    1.0000 </r>
       <r>    1.3148    1.0000 </r>
       <r>    1.3162    1.0000 </r>
       <r>    1.3664    1.0000 </r>
       <r>    1.3671    1.0000 </r>
       <r>    1.4008    1.0000 </r>
       <r>    1.4047    1.0000 </r>
       <r>    1.4407    1.0000 </r>
       <r>    1.4411    1.0000 </r>
       <r>    1.4980    1.0000 </r>
       <r>    1.5010    1.0000 </r>
       <r>    1.5372    1.0000 </r>
       <r>    1.5781    1.0000 </r>
       <r>    1.5887    1.0000 </r>
       <r>    1.5893    1.0000 </r>
       <r>    1.7640    1.0000 </r>
       <r>    1.7688    1.0000 </r>
       <r>    1.8461    1.0000 </r>
       <r>    1.8553    1.0000 </r>
       <r>    1.8558    1.0000 </r>
       <r>    1.8596    1.0000 </r>
       <r>    1.9172    1.0000 </r>
       <r>    1.9278    1.0000 </r>
       <r>    1.9549    1.0000 </r>
       <r>    1.9599    1.0000 </r>
       <r>    1.9790    1.0000 </r>
       <r>    1.9798    1.0000 </r>
       <r>    2.0244    1.0000 </r>
       <r>    2.0248    1.0000 </r>
       <r>    2.0626    1.0000 </r>
       <r>    2.0684    1.0000 </r>
       <r>    2.0967    1.0000 </r>
       <r>    2.0973    1.0000 </r>
       <r>    2.2236    1.0000 </r>
       <r>    2.2306    1.0000 </r>
       <r>    2.3987    1.0000 </r>
       <r>    2.4015    1.0000 </r>
       <r>    2.4029    1.0000 </r>
       <r>    2.4055    1.0000 </r>
       <r>    4.6619    1.0000 </r>
       <r>    5.8854    0.0000 </r>
       <r>    6.6168    0.0000 </r>
       <r>    6.6376    0.0000 </r>
       <r>    6.6377    0.0000 </r>
       <r>    6.8795    0.0000 </r>
       <r>    6.9266    0.0000 </r>
       <r>    6.9916    0.0000 </r>
       <r>    7.0035    0.0000 </r>
       <r>    7.0782    0.0000 </r>
       <r>    7.0879    0.0000 </r>
       <r>    7.1511    0.0000 </r>
       <r>    7.2117    0.0000 </r>
       <r>    7.2117    0.0000 </r>
       <r>    7.2283    0.0000 </r>
       <r>    7.2430    0.0000 </r>
       <r>    7.2832    0.0000 </r>
       <r>    7.2966    0.0000 </r>
       <r>    7.3057    0.0000 </r>
       <r>    7.3279    0.0000 </r>
       <r>    7.3333    0.0000 </r>
       <r>    7.3388    0.0000 </r>
       <r>    7.3425    0.0000 </r>
       <r>    7.3437    0.0000 </r>
       <r>    7.3598    0.0000 </r>
       <r>    7.3620    0.0000 </r>
       <r>    7.3836    0.0000 </r>
       <r>    7.3848    0.0000 </r>
       <r>    7.3915    0.0000 </r>
       <r>    7.3957    0.0000 </r>
       <r>    7.4298    0.0000 </r>
       <r>    7.4313    0.0000 </r>
       <r>    7.4586    0.0000 </r>
       <r>    7.6859    0.0000 </r>
       <r>    7.7383    0.0000 </r>
       <r>    7.7430    0.0000 </r>
       <r>    7.7462    0.0000 </r>
       <r>    7.7888    0.0000 </r>
       <r>    7.8201    0.0000 </r>
       <r>    7.8451    0.0000 </r>
       <r>    7.8749    0.0000 </r>
       <r>    7.8884    0.0000 </r>
       <r>    7.9072    0.0000 </r>
       <r>    7.9143    0.0000 </r>
       <r>    7.9190    0.0000 </r>
       <r>    7.9423    0.0000 </r>
       <r>    7.9659    0.0000 </r>
       <r>    8.0631    0.0000 </r>
       <r>    8.1121    0.0000 </r>
       <r>    8.1667    0.0000 </r>
       <r>    8.1709    0.0000 </r>
       <r>    8.1712    0.0000 </r>
       <r>    8.1847    0.0000 </r>
       <r>    8.2089    0.0000 </r>
       <r>    8.2214    0.0000 </r>
       <r>    8.2238    0.0000 </r>
       <r>    8.2339    0.0000 </r>
       <r>    8.2406    0.0000 </r>
       <r>    8.2549    0.0000 </r>
       <r>    8.2827    0.0000 </r>
       <r>    8.3931    0.0000 </r>
       <r>    8.5600    0.0000 </r>
       <r>    8.5815    0.0000 </r>
       <r>    8.5923    0.0000 </r>
       <r>    8.6337    0.0000 </r>
       <r>    8.6347    0.0000 </r>
       <r>    8.6441    0.0000 </r>
       <r>    8.6609    0.0000 </r>
       <r>    8.6696    0.0000 </r>
       <r>    8.6783    0.0000 </r>
       <r>    8.6878    0.0000 </r>
       <r>    8.6878    0.0000 </r>
       <r>    8.7307    0.0000 </r>
       <r>    8.8814    0.0000 </r>
       <r>    8.9559    0.0000 </r>
       <r>    8.9908    0.0000 </r>
       <r>    8.9983    0.0000 </r>
       <r>    9.0085    0.0000 </r>
       <r>    9.0560    0.0000 </r>
       <r>    9.1244    0.0000 </r>
       <r>    9.2090    0.0000 </r>
       <r>    9.2402    0.0000 </r>
       <r>    9.2644    0.0000 </r>
       <r>    9.2670    0.0000 </r>
       <r>    9.2683    0.0000 </r>
       <r>    9.2790    0.0000 </r>
       <r>    9.2952    0.0000 </r>
       <r>    9.2985    0.0000 </r>
       <r>    9.3032    0.0000 </r>
       <r>    9.3198    0.0000 </r>
       <r>    9.3256    0.0000 </r>
       <r>    9.3278    0.0000 </r>
       <r>    9.3290    0.0000 </r>
       <r>    9.3558    0.0000 </r>
       <r>    9.3982    0.0000 </r>
       <r>    9.4737    0.0000 </r>
       <r>    9.6111    0.0000 </r>
       <r>    9.6264    0.0000 </r>
       <r>    9.6814    0.0000 </r>
       <r>    9.6888    0.0000 </r>
       <r>    9.6903    0.0000 </r>
       <r>    9.7177    0.0000 </r>
       <r>    9.8767    0.0000 </r>
       <r>   10.0646    0.0000 </r>
       <r>   10.0889    0.0000 </r>
       <r>   10.0903    0.0000 </r>
       <r>   10.1012    0.0000 </r>
       <r>   10.1418    0.0000 </r>
       <r>   10.1711    0.0000 </r>
       <r>   10.1750    0.0000 </r>
       <r>   10.1896    0.0000 </r>
       <r>   10.1971    0.0000 </r>
       <r>   10.2271    0.0000 </r>
       <r>   10.2348    0.0000 </r>
       <r>   10.2831    0.0000 </r>
       <r>   10.3008    0.0000 </r>
       <r>   10.3046    0.0000 </r>
       <r>   10.3775    0.0000 </r>
       <r>   10.3810    0.0000 </r>
       <r>   10.3890    0.0000 </r>
       <r>   10.3933    0.0000 </r>
       <r>   10.4126    0.0000 </r>
       <r>   10.4361    0.0000 </r>
       <r>   10.4421    0.0000 </r>
       <r>   10.4660    0.0000 </r>
       <r>   10.5070    0.0000 </r>
       <r>   10.5273    0.0000 </r>
       <r>   10.6259    0.0000 </r>
       <r>   10.6679    0.0000 </r>
       <r>   10.7184    0.0000 </r>
       <r>   10.7212    0.0000 </r>
       <r>   10.7228    0.0000 </r>
       <r>   10.7315    0.0000 </r>
       <r>   10.7521    0.0000 </r>
       <r>   10.7587    0.0000 </r>
       <r>   10.7632    0.0000 </r>
       <r>   10.7828    0.0000 </r>
       <r>   10.7873    0.0000 </r>
       <r>   10.7933    0.0000 </r>
       <r>   10.8140    0.0000 </r>
       <r>   10.8149    0.0000 </r>
       <r>   11.2391    0.0000 </r>
       <r>   11.2566    0.0000 </r>
       <r>   11.5033    0.0000 </r>
       <r>   11.6143    0.0000 </r>
       <r>   11.6457    0.0000 </r>
       <r>   11.6722    0.0000 </r>
       <r>   11.7132    0.0000 </r>
       <r>   11.7401    0.0000 </r>
       <r>   11.7647    0.0000 </r>
       <r>   11.7983    0.0000 </r>
       <r>   12.2538    0.0000 </r>
      </set>
      <set comment="kpoint 5">
       <r>  -17.2939    1.0000 </r>
       <r>  -15.7201    1.0000 </r>
       <r>  -15.7200    1.0000 </r>
       <r>  -15.5735    1.0000 </r>
       <r>  -15.3957    1.0000 </r>
       <r>  -15.3102    1.0000 </r>
       <r>  -15.1586    1.0000 </r>
       <r>  -15.1584    1.0000 </r>
       <r>  -15.1583    1.0000 </r>
       <r>  -15.0711    1.0000 </r>
       <r>  -14.8869    1.0000 </r>
       <r>  -14.8651    1.0000 </r>
       <r>  -14.8641    1.0000 </r>
       <r>  -14.8473    1.0000 </r>
       <r>  -14.8431    1.0000 </r>
       <r>  -14.8428    1.0000 </r>
       <r>  -14.8391    1.0000 </r>
       <r>  -14.8373    1.0000 </r>
       <r>  -14.8255    1.0000 </r>
       <r>  -14.7640    1.0000 </r>
       <r>  -14.7635    1.0000 </r>
       <r>  -14.7434    1.0000 </r>
       <r>  -14.7206    1.0000 </r>
       <r>  -14.7204    1.0000 </r>
       <r>  -14.6435    1.0000 </r>
       <r>  -14.6366    1.0000 </r>
       <r>  -14.6332    1.0000 </r>
       <r>  -14.6225    1.0000 </r>
       <r>  -14.6185    1.0000 </r>
       <r>  -14.6086    1.0000 </r>
       <r>  -14.5610    1.0000 </r>
       <r>  -14.2537    1.0000 </r>
       <r>  -14.2536    1.0000 </r>
       <r>  -14.2426    1.0000 </r>
       <r>  -13.9154    1.0000 </r>
       <r>  -13.9154    1.0000 </r>
       <r>  -13.8547    1.0000 </r>
       <r>  -13.8481    1.0000 </r>
       <r>  -13.8428    1.0000 </r>
       <r>  -13.8424    1.0000 </r>
       <r>  -13.8394    1.0000 </r>
       <r>  -13.8387    1.0000 </r>
       <r>  -13.8377    1.0000 </r>
       <r>  -13.8135    1.0000 </r>
       <r>  -13.7958    1.0000 </r>
       <r>  -13.7957    1.0000 </r>
       <r>  -13.7841    1.0000 </r>
       <r>  -13.7778    1.0000 </r>
       <r>  -13.7778    1.0000 </r>
       <r>  -13.7521    1.0000 </r>
       <r>  -13.7507    1.0000 </r>
       <r>  -13.7507    1.0000 </r>
       <r>  -13.6433    1.0000 </r>
       <r>  -13.6379    1.0000 </r>
       <r>  -13.6372    1.0000 </r>
       <r>  -13.6366    1.0000 </r>
       <r>  -13.6361    1.0000 </r>
       <r>  -13.6328    1.0000 </r>
       <r>  -13.3987    1.0000 </r>
       <r>  -13.3949    1.0000 </r>
       <r>  -13.3941    1.0000 </r>
       <r>  -13.3940    1.0000 </r>
       <r>  -13.3934    1.0000 </r>
       <r>  -13.3914    1.0000 </r>
       <r>  -13.3728    1.0000 </r>
       <r>  -13.3727    1.0000 </r>
       <r>  -13.3572    1.0000 </r>
       <r>  -13.3498    1.0000 </r>
       <r>  -13.3497    1.0000 </r>
       <r>  -13.3494    1.0000 </r>
       <r>  -13.2680    1.0000 </r>
       <r>  -13.2680    1.0000 </r>
       <r>  -13.2109    1.0000 </r>
       <r>  -13.2058    1.0000 </r>
       <r>  -13.2043    1.0000 </r>
       <r>  -13.2036    1.0000 </r>
       <r>  -13.2026    1.0000 </r>
       <r>  -13.1973    1.0000 </r>
       <r>  -12.8946    1.0000 </r>
       <r>  -12.8583    1.0000 </r>
       <r>  -12.8582    1.0000 </r>
       <r>  -12.7736    1.0000 </r>
       <r>  -12.6757    1.0000 </r>
       <r>  -12.5897    1.0000 </r>
       <r>  -12.5897    1.0000 </r>
       <r>  -12.5887    1.0000 </r>
       <r>  -12.5330    1.0000 </r>
       <r>  -12.5329    1.0000 </r>
       <r>  -12.4972    1.0000 </r>
       <r>  -12.4972    1.0000 </r>
       <r>  -12.4679    1.0000 </r>
       <r>  -12.3508    1.0000 </r>
       <r>  -12.3364    1.0000 </r>
       <r>  -12.3317    1.0000 </r>
       <r>  -12.3203    1.0000 </r>
       <r>  -12.3202    1.0000 </r>
       <r>  -12.3156    1.0000 </r>
       <r>  -12.3128    1.0000 </r>
       <r>  -12.3120    1.0000 </r>
       <r>  -12.3044    1.0000 </r>
       <r>  -12.3040    1.0000 </r>
       <r>  -12.2951    1.0000 </r>
       <r>  -12.2948    1.0000 </r>
       <r>  -12.2895    1.0000 </r>
       <r>  -12.2892    1.0000 </r>
       <r>  -12.2880    1.0000 </r>
       <r>  -12.2876    1.0000 </r>
       <r>  -12.2780    1.0000 </r>
       <r>  -12.2771    1.0000 </r>
       <r>  -12.2701    1.0000 </r>
       <r>  -12.2697    1.0000 </r>
       <r>  -12.2673    1.0000 </r>
       <r>  -12.2669    1.0000 </r>
       <r>  -12.2556    1.0000 </r>
       <r>  -12.2550    1.0000 </r>
       <r>  -12.1929    1.0000 </r>
       <r>  -12.1918    1.0000 </r>
       <r>  -12.1909    1.0000 </r>
       <r>  -12.1845    1.0000 </r>
       <r>  -12.1834    1.0000 </r>
       <r>  -12.1832    1.0000 </r>
       <r>  -12.1650    1.0000 </r>
       <r>  -12.1574    1.0000 </r>
       <r>  -12.1566    1.0000 </r>
       <r>  -12.1545    1.0000 </r>
       <r>  -12.1524    1.0000 </r>
       <r>  -12.1517    1.0000 </r>
       <r>  -12.1486    1.0000 </r>
       <r>  -12.1444    1.0000 </r>
       <r>  -12.1427    1.0000 </r>
       <r>  -12.1420    1.0000 </r>
       <r>  -12.1386    1.0000 </r>
       <r>  -12.1283    1.0000 </r>
       <r>  -12.0648    1.0000 </r>
       <r>  -12.0615    1.0000 </r>
       <r>  -12.0561    1.0000 </r>
       <r>  -11.9615    1.0000 </r>
       <r>  -11.9615    1.0000 </r>
       <r>  -11.5944    1.0000 </r>
       <r>  -11.5944    1.0000 </r>
       <r>  -11.5939    1.0000 </r>
       <r>  -11.5938    1.0000 </r>
       <r>  -11.4712    1.0000 </r>
       <r>  -11.4660    1.0000 </r>
       <r>   -8.3733    1.0000 </r>
       <r>   -7.3290    1.0000 </r>
       <r>   -7.3290    1.0000 </r>
       <r>   -6.6088    1.0000 </r>
       <r>   -6.6088    1.0000 </r>
       <r>   -6.5433    1.0000 </r>
       <r>   -6.5259    1.0000 </r>
       <r>   -6.5258    1.0000 </r>
       <r>   -6.5244    1.0000 </r>
       <r>   -6.5209    1.0000 </r>
       <r>   -6.5209    1.0000 </r>
       <r>   -6.5095    1.0000 </r>
       <r>   -6.4868    1.0000 </r>
       <r>   -6.3925    1.0000 </r>
       <r>   -6.3900    1.0000 </r>
       <r>   -6.3875    1.0000 </r>
       <r>   -6.3162    1.0000 </r>
       <r>   -6.3162    1.0000 </r>
       <r>   -6.0962    1.0000 </r>
       <r>   -6.0962    1.0000 </r>
       <r>   -6.0293    1.0000 </r>
       <r>   -6.0292    1.0000 </r>
       <r>   -6.0064    1.0000 </r>
       <r>   -5.9874    1.0000 </r>
       <r>   -5.9069    1.0000 </r>
       <r>   -5.9069    1.0000 </r>
       <r>   -5.7170    1.0000 </r>
       <r>   -5.7169    1.0000 </r>
       <r>   -5.7108    1.0000 </r>
       <r>   -5.7108    1.0000 </r>
       <r>   -5.7083    1.0000 </r>
       <r>   -5.7082    1.0000 </r>
       <r>   -5.7020    1.0000 </r>
       <r>   -5.7019    1.0000 </r>
       <r>   -5.6933    1.0000 </r>
       <r>   -5.6889    1.0000 </r>
       <r>   -5.6880    1.0000 </r>
       <r>   -5.6847    1.0000 </r>
       <r>   -5.6836    1.0000 </r>
       <r>   -5.6835    1.0000 </r>
       <r>   -5.6781    1.0000 </r>
       <r>   -5.6767    1.0000 </r>
       <r>   -5.6716    1.0000 </r>
       <r>   -5.6713    1.0000 </r>
       <r>   -5.6701    1.0000 </r>
       <r>   -5.6699    1.0000 </r>
       <r>   -5.6652    1.0000 </r>
       <r>   -5.6652    1.0000 </r>
       <r>   -5.6631    1.0000 </r>
       <r>   -5.6631    1.0000 </r>
       <r>   -5.5814    1.0000 </r>
       <r>   -5.5811    1.0000 </r>
       <r>   -5.5640    1.0000 </r>
       <r>   -5.5606    1.0000 </r>
       <r>   -5.5589    1.0000 </r>
       <r>   -5.5581    1.0000 </r>
       <r>   -5.5555    1.0000 </r>
       <r>   -5.5549    1.0000 </r>
       <r>   -5.5549    1.0000 </r>
       <r>   -5.5540    1.0000 </r>
       <r>   -5.5533    1.0000 </r>
       <r>   -5.5511    1.0000 </r>
       <r>   -5.5473    1.0000 </r>
       <r>   -5.5463    1.0000 </r>
       <r>   -5.5432    1.0000 </r>
       <r>   -5.5385    1.0000 </r>
       <r>   -5.4187    1.0000 </r>
       <r>   -5.4175    1.0000 </r>
       <r>   -5.3696    1.0000 </r>
       <r>   -5.2477    1.0000 </r>
       <r>   -5.1470    1.0000 </r>
       <r>   -5.1470    1.0000 </r>
       <r>   -4.9933    1.0000 </r>
       <r>   -4.9234    1.0000 </r>
       <r>   -4.9233    1.0000 </r>
       <r>   -4.8739    1.0000 </r>
       <r>   -4.7461    1.0000 </r>
       <r>   -4.7461    1.0000 </r>
       <r>   -4.7457    1.0000 </r>
       <r>   -4.7457    1.0000 </r>
       <r>   -4.6192    1.0000 </r>
       <r>   -4.6191    1.0000 </r>
       <r>   -4.4802    1.0000 </r>
       <r>   -4.4795    1.0000 </r>
       <r>   -4.4794    1.0000 </r>
       <r>   -4.4763    1.0000 </r>
       <r>   -4.4762    1.0000 </r>
       <r>   -4.4760    1.0000 </r>
       <r>   -4.4719    1.0000 </r>
       <r>   -4.4718    1.0000 </r>
       <r>   -4.4703    1.0000 </r>
       <r>   -4.4687    1.0000 </r>
       <r>   -4.4687    1.0000 </r>
       <r>   -4.4685    1.0000 </r>
       <r>   -4.3437    1.0000 </r>
       <r>   -4.3419    1.0000 </r>
       <r>   -4.3390    1.0000 </r>
       <r>   -4.3389    1.0000 </r>
       <r>   -4.3358    1.0000 </r>
       <r>   -4.3342    1.0000 </r>
       <r>   -4.3021    1.0000 </r>
       <r>   -4.0490    1.0000 </r>
       <r>   -3.9419    1.0000 </r>
       <r>   -3.9419    1.0000 </r>
       <r>   -3.6298    1.0000 </r>
       <r>   -3.6298    1.0000 </r>
       <r>   -3.6149    1.0000 </r>
       <r>   -3.5984    1.0000 </r>
       <r>   -3.5594    1.0000 </r>
       <r>   -3.5190    1.0000 </r>
       <r>   -3.5189    1.0000 </r>
       <r>   -3.5126    1.0000 </r>
       <r>   -3.3591    1.0000 </r>
       <r>   -3.3201    1.0000 </r>
       <r>   -3.3200    1.0000 </r>
       <r>   -3.3059    1.0000 </r>
       <r>   -3.3058    1.0000 </r>
       <r>   -3.2521    1.0000 </r>
       <r>   -3.2519    1.0000 </r>
       <r>   -3.2206    1.0000 </r>
       <r>   -3.1823    1.0000 </r>
       <r>   -3.1735    1.0000 </r>
       <r>   -3.1735    1.0000 </r>
       <r>   -3.0984    1.0000 </r>
       <r>   -3.0983    1.0000 </r>
       <r>   -3.0978    1.0000 </r>
       <r>   -3.0967    1.0000 </r>
       <r>   -3.0966    1.0000 </r>
       <r>   -3.0966    1.0000 </r>
       <r>   -3.0965    1.0000 </r>
       <r>   -3.0965    1.0000 </r>
       <r>   -3.0957    1.0000 </r>
       <r>   -3.0954    1.0000 </r>
       <r>   -3.0954    1.0000 </r>
       <r>   -3.0952    1.0000 </r>
       <r>   -3.0212    1.0000 </r>
       <r>   -3.0209    1.0000 </r>
       <r>   -2.9752    1.0000 </r>
       <r>   -2.9716    1.0000 </r>
       <r>   -2.9692    1.0000 </r>
       <r>   -2.9685    1.0000 </r>
       <r>   -2.9671    1.0000 </r>
       <r>   -2.9663    1.0000 </r>
       <r>   -2.9630    1.0000 </r>
       <r>   -2.9265    1.0000 </r>
       <r>   -2.9264    1.0000 </r>
       <r>   -2.9219    1.0000 </r>
       <r>   -2.9218    1.0000 </r>
       <r>   -2.9192    1.0000 </r>
       <r>   -2.9191    1.0000 </r>
       <r>   -2.9134    1.0000 </r>
       <r>   -2.9133    1.0000 </r>
       <r>   -2.9086    1.0000 </r>
       <r>   -2.9039    1.0000 </r>
       <r>   -2.9027    1.0000 </r>
       <r>   -2.8969    1.0000 </r>
       <r>   -2.8937    1.0000 </r>
       <r>   -2.8926    1.0000 </r>
       <r>   -2.8877    1.0000 </r>
       <r>   -2.8861    1.0000 </r>
       <r>   -2.8821    1.0000 </r>
       <r>   -2.8819    1.0000 </r>
       <r>   -2.8803    1.0000 </r>
       <r>   -2.8799    1.0000 </r>
       <r>   -2.8757    1.0000 </r>
       <r>   -2.8757    1.0000 </r>
       <r>   -2.8733    1.0000 </r>
       <r>   -2.8731    1.0000 </r>
       <r>   -2.8595    1.0000 </r>
       <r>   -2.8311    1.0000 </r>
       <r>   -2.8293    1.0000 </r>
       <r>   -2.8052    1.0000 </r>
       <r>   -2.8027    1.0000 </r>
       <r>   -2.7906    1.0000 </r>
       <r>   -2.7749    1.0000 </r>
       <r>   -2.7727    1.0000 </r>
       <r>   -2.7721    1.0000 </r>
       <r>   -2.7709    1.0000 </r>
       <r>   -2.7687    1.0000 </r>
       <r>   -2.7680    1.0000 </r>
       <r>   -2.7667    1.0000 </r>
       <r>   -2.7637    1.0000 </r>
       <r>   -2.7589    1.0000 </r>
       <r>   -2.7581    1.0000 </r>
       <r>   -2.7568    1.0000 </r>
       <r>   -2.7516    1.0000 </r>
       <r>   -2.4053    1.0000 </r>
       <r>   -2.2442    1.0000 </r>
       <r>   -2.2442    1.0000 </r>
       <r>   -2.2173    1.0000 </r>
       <r>   -2.1193    1.0000 </r>
       <r>   -2.0978    1.0000 </r>
       <r>   -2.0919    1.0000 </r>
       <r>   -2.0919    1.0000 </r>
       <r>   -2.0873    1.0000 </r>
       <r>   -2.0222    1.0000 </r>
       <r>   -2.0220    1.0000 </r>
       <r>   -1.9512    1.0000 </r>
       <r>   -1.9511    1.0000 </r>
       <r>   -1.9016    1.0000 </r>
       <r>   -1.7146    1.0000 </r>
       <r>   -1.7146    1.0000 </r>
       <r>   -1.7144    1.0000 </r>
       <r>   -1.7100    1.0000 </r>
       <r>   -1.7099    1.0000 </r>
       <r>   -1.7099    1.0000 </r>
       <r>   -1.6907    1.0000 </r>
       <r>   -1.6904    1.0000 </r>
       <r>   -1.6812    1.0000 </r>
       <r>   -1.6656    1.0000 </r>
       <r>   -1.6374    1.0000 </r>
       <r>   -1.6372    1.0000 </r>
       <r>   -1.5942    1.0000 </r>
       <r>   -1.5939    1.0000 </r>
       <r>   -1.5831    1.0000 </r>
       <r>   -1.5807    1.0000 </r>
       <r>   -1.5784    1.0000 </r>
       <r>   -1.5749    1.0000 </r>
       <r>   -1.5746    1.0000 </r>
       <r>   -1.5698    1.0000 </r>
       <r>   -1.5482    1.0000 </r>
       <r>   -1.5231    1.0000 </r>
       <r>   -1.5231    1.0000 </r>
       <r>   -1.5046    1.0000 </r>
       <r>   -1.5025    1.0000 </r>
       <r>   -1.5024    1.0000 </r>
       <r>   -1.5012    1.0000 </r>
       <r>   -1.4999    1.0000 </r>
       <r>   -1.4998    1.0000 </r>
       <r>   -1.4981    1.0000 </r>
       <r>   -1.4917    1.0000 </r>
       <r>   -1.4916    1.0000 </r>
       <r>   -1.4915    1.0000 </r>
       <r>   -1.4914    1.0000 </r>
       <r>   -1.4896    1.0000 </r>
       <r>   -1.4876    1.0000 </r>
       <r>   -1.4875    1.0000 </r>
       <r>   -1.4874    1.0000 </r>
       <r>   -1.4819    1.0000 </r>
       <r>   -1.4481    1.0000 </r>
       <r>   -1.4452    1.0000 </r>
       <r>   -1.4316    1.0000 </r>
       <r>   -1.4299    1.0000 </r>
       <r>   -1.4282    1.0000 </r>
       <r>   -1.3877    1.0000 </r>
       <r>   -1.3792    1.0000 </r>
       <r>   -1.3786    1.0000 </r>
       <r>   -1.3760    1.0000 </r>
       <r>   -1.3714    1.0000 </r>
       <r>   -1.3709    1.0000 </r>
       <r>   -1.3689    1.0000 </r>
       <r>   -1.3651    1.0000 </r>
       <r>   -1.3622    1.0000 </r>
       <r>   -1.3608    1.0000 </r>
       <r>   -1.3577    1.0000 </r>
       <r>   -1.3548    1.0000 </r>
       <r>   -1.2385    1.0000 </r>
       <r>   -1.2235    1.0000 </r>
       <r>   -1.2233    1.0000 </r>
       <r>   -1.1525    1.0000 </r>
       <r>   -1.1519    1.0000 </r>
       <r>   -1.1517    1.0000 </r>
       <r>   -1.1505    1.0000 </r>
       <r>   -1.1504    1.0000 </r>
       <r>   -1.1495    1.0000 </r>
       <r>   -1.1494    1.0000 </r>
       <r>   -1.1492    1.0000 </r>
       <r>   -1.1481    1.0000 </r>
       <r>   -1.1475    1.0000 </r>
       <r>   -1.1475    1.0000 </r>
       <r>   -1.1462    1.0000 </r>
       <r>   -1.1462    1.0000 </r>
       <r>   -1.1452    1.0000 </r>
       <r>   -1.1254    1.0000 </r>
       <r>   -1.1057    1.0000 </r>
       <r>   -1.0262    1.0000 </r>
       <r>   -1.0217    1.0000 </r>
       <r>   -1.0192    1.0000 </r>
       <r>   -1.0190    1.0000 </r>
       <r>   -1.0168    1.0000 </r>
       <r>   -1.0120    1.0000 </r>
       <r>   -1.0088    1.0000 </r>
       <r>   -1.0087    1.0000 </r>
       <r>   -0.9944    1.0000 </r>
       <r>   -0.8613    1.0000 </r>
       <r>   -0.8612    1.0000 </r>
       <r>   -0.8601    1.0000 </r>
       <r>   -0.8516    1.0000 </r>
       <r>   -0.8514    1.0000 </r>
       <r>   -0.8495    1.0000 </r>
       <r>   -0.8432    1.0000 </r>
       <r>   -0.8430    1.0000 </r>
       <r>   -0.8346    1.0000 </r>
       <r>   -0.8341    1.0000 </r>
       <r>   -0.8339    1.0000 </r>
       <r>   -0.8255    1.0000 </r>
       <r>   -0.7539    1.0000 </r>
       <r>   -0.7477    1.0000 </r>
       <r>   -0.7457    1.0000 </r>
       <r>   -0.7433    1.0000 </r>
       <r>   -0.7425    1.0000 </r>
       <r>   -0.7404    1.0000 </r>
       <r>   -0.7239    1.0000 </r>
       <r>   -0.7211    1.0000 </r>
       <r>   -0.7193    1.0000 </r>
       <r>   -0.7188    1.0000 </r>
       <r>   -0.7146    1.0000 </r>
       <r>   -0.7105    1.0000 </r>
       <r>   -0.4603    1.0000 </r>
       <r>   -0.4601    1.0000 </r>
       <r>   -0.4257    1.0000 </r>
       <r>   -0.3430    1.0000 </r>
       <r>   -0.3388    1.0000 </r>
       <r>   -0.3387    1.0000 </r>
       <r>   -0.3351    1.0000 </r>
       <r>   -0.2588    1.0000 </r>
       <r>   -0.2588    1.0000 </r>
       <r>   -0.1355    1.0000 </r>
       <r>   -0.1262    1.0000 </r>
       <r>   -0.1247    1.0000 </r>
       <r>   -0.1237    1.0000 </r>
       <r>   -0.1225    1.0000 </r>
       <r>   -0.1216    1.0000 </r>
       <r>   -0.0882    1.0000 </r>
       <r>   -0.0882    1.0000 </r>
       <r>   -0.0387    1.0000 </r>
       <r>    0.0032    1.0000 </r>
       <r>    0.0034    1.0000 </r>
       <r>    0.1439    1.0000 </r>
       <r>    0.2135    1.0000 </r>
       <r>    0.2159    1.0000 </r>
       <r>    0.2170    1.0000 </r>
       <r>    0.2172    1.0000 </r>
       <r>    0.2196    1.0000 </r>
       <r>    0.2197    1.0000 </r>
       <r>    0.2230    1.0000 </r>
       <r>    0.2231    1.0000 </r>
       <r>    0.2288    1.0000 </r>
       <r>    0.2363    1.0000 </r>
       <r>    0.2364    1.0000 </r>
       <r>    0.2392    1.0000 </r>
       <r>    0.2393    1.0000 </r>
       <r>    0.2445    1.0000 </r>
       <r>    0.2477    1.0000 </r>
       <r>    0.3446    1.0000 </r>
       <r>    0.3447    1.0000 </r>
       <r>    0.3469    1.0000 </r>
       <r>    0.3530    1.0000 </r>
       <r>    0.3552    1.0000 </r>
       <r>    0.3606    1.0000 </r>
       <r>    0.3624    1.0000 </r>
       <r>    0.3707    1.0000 </r>
       <r>    0.4262    1.0000 </r>
       <r>    0.4344    1.0000 </r>
       <r>    0.4369    1.0000 </r>
       <r>    0.4386    1.0000 </r>
       <r>    0.4398    1.0000 </r>
       <r>    0.4426    1.0000 </r>
       <r>    0.4518    1.0000 </r>
       <r>    0.5754    1.0000 </r>
       <r>    0.6355    1.0000 </r>
       <r>    0.6356    1.0000 </r>
       <r>    0.7162    1.0000 </r>
       <r>    0.7163    1.0000 </r>
       <r>    0.7435    1.0000 </r>
       <r>    0.7435    1.0000 </r>
       <r>    0.7452    1.0000 </r>
       <r>    0.7761    1.0000 </r>
       <r>    0.7817    1.0000 </r>
       <r>    0.7818    1.0000 </r>
       <r>    0.9022    1.0000 </r>
       <r>    0.9232    1.0000 </r>
       <r>    0.9258    1.0000 </r>
       <r>    0.9270    1.0000 </r>
       <r>    0.9404    1.0000 </r>
       <r>    0.9417    1.0000 </r>
       <r>    0.9441    1.0000 </r>
       <r>    0.9441    1.0000 </r>
       <r>    0.9478    1.0000 </r>
       <r>    0.9518    1.0000 </r>
       <r>    0.9522    1.0000 </r>
       <r>    0.9631    1.0000 </r>
       <r>    0.9637    1.0000 </r>
       <r>    0.9650    1.0000 </r>
       <r>    0.9667    1.0000 </r>
       <r>    1.1331    1.0000 </r>
       <r>    1.1332    1.0000 </r>
       <r>    1.1347    1.0000 </r>
       <r>    1.1347    1.0000 </r>
       <r>    1.1804    1.0000 </r>
       <r>    1.1817    1.0000 </r>
       <r>    1.1845    1.0000 </r>
       <r>    1.2582    1.0000 </r>
       <r>    1.2647    1.0000 </r>
       <r>    1.4103    1.0000 </r>
       <r>    1.4106    1.0000 </r>
       <r>    1.4893    1.0000 </r>
       <r>    1.5434    1.0000 </r>
       <r>    1.5829    1.0000 </r>
       <r>    1.5831    1.0000 </r>
       <r>    1.6173    1.0000 </r>
       <r>    1.6173    1.0000 </r>
       <r>    1.6470    1.0000 </r>
       <r>    1.6657    1.0000 </r>
       <r>    1.6666    1.0000 </r>
       <r>    1.6668    1.0000 </r>
       <r>    1.7236    1.0000 </r>
       <r>    1.7238    1.0000 </r>
       <r>    1.7255    1.0000 </r>
       <r>    1.7644    1.0000 </r>
       <r>    1.7859    1.0000 </r>
       <r>    1.7903    1.0000 </r>
       <r>    1.7920    1.0000 </r>
       <r>    1.8022    1.0000 </r>
       <r>    1.8040    1.0000 </r>
       <r>    1.8127    1.0000 </r>
       <r>    1.8134    1.0000 </r>
       <r>    1.8231    1.0000 </r>
       <r>    1.8239    1.0000 </r>
       <r>    1.8253    1.0000 </r>
       <r>    1.8276    1.0000 </r>
       <r>    1.8926    1.0000 </r>
       <r>    1.8938    1.0000 </r>
       <r>    1.8978    1.0000 </r>
       <r>    2.0439    1.0000 </r>
       <r>    2.0439    1.0000 </r>
       <r>    2.3640    1.0000 </r>
       <r>    2.3727    1.0000 </r>
       <r>    2.3758    1.0000 </r>
       <r>    2.3788    1.0000 </r>
       <r>    2.4993    1.0000 </r>
       <r>    2.5021    1.0000 </r>
       <r>    4.6599    1.0000 </r>
       <r>    5.9135    0.0000 </r>
       <r>    6.4837    0.0000 </r>
       <r>    6.4838    0.0000 </r>
       <r>    6.6876    0.0000 </r>
       <r>    6.7484    0.0000 </r>
       <r>    6.8602    0.0000 </r>
       <r>    6.8624    0.0000 </r>
       <r>    6.8659    0.0000 </r>
       <r>    7.1106    0.0000 </r>
       <r>    7.1834    0.0000 </r>
       <r>    7.1835    0.0000 </r>
       <r>    7.1884    0.0000 </r>
       <r>    7.1886    0.0000 </r>
       <r>    7.2629    0.0000 </r>
       <r>    7.2629    0.0000 </r>
       <r>    7.3167    0.0000 </r>
       <r>    7.3168    0.0000 </r>
       <r>    7.3519    0.0000 </r>
       <r>    7.4112    0.0000 </r>
       <r>    7.4113    0.0000 </r>
       <r>    7.5197    0.0000 </r>
       <r>    7.5197    0.0000 </r>
       <r>    7.5727    0.0000 </r>
       <r>    7.5787    0.0000 </r>
       <r>    7.5788    0.0000 </r>
       <r>    7.5970    0.0000 </r>
       <r>    7.6306    0.0000 </r>
       <r>    7.6307    0.0000 </r>
       <r>    7.6357    0.0000 </r>
       <r>    7.6928    0.0000 </r>
       <r>    7.6944    0.0000 </r>
       <r>    7.7148    0.0000 </r>
       <r>    7.7223    0.0000 </r>
       <r>    7.7257    0.0000 </r>
       <r>    7.7260    0.0000 </r>
       <r>    7.7423    0.0000 </r>
       <r>    7.7440    0.0000 </r>
       <r>    7.7510    0.0000 </r>
       <r>    7.7535    0.0000 </r>
       <r>    7.7555    0.0000 </r>
       <r>    7.7569    0.0000 </r>
       <r>    7.8168    0.0000 </r>
       <r>    7.8189    0.0000 </r>
       <r>    7.8193    0.0000 </r>
       <r>    8.0143    0.0000 </r>
       <r>    8.0832    0.0000 </r>
       <r>    8.0832    0.0000 </r>
       <r>    8.0958    0.0000 </r>
       <r>    8.1456    0.0000 </r>
       <r>    8.1457    0.0000 </r>
       <r>    8.1865    0.0000 </r>
       <r>    8.1866    0.0000 </r>
       <r>    8.2150    0.0000 </r>
       <r>    8.2212    0.0000 </r>
       <r>    8.2213    0.0000 </r>
       <r>    8.2276    0.0000 </r>
       <r>    8.3063    0.0000 </r>
       <r>    8.3178    0.0000 </r>
       <r>    8.3205    0.0000 </r>
       <r>    8.3251    0.0000 </r>
       <r>    8.3315    0.0000 </r>
       <r>    8.3420    0.0000 </r>
       <r>    8.3424    0.0000 </r>
       <r>    8.3477    0.0000 </r>
       <r>    8.3500    0.0000 </r>
       <r>    8.3612    0.0000 </r>
       <r>    8.3627    0.0000 </r>
       <r>    8.3637    0.0000 </r>
       <r>    8.3654    0.0000 </r>
       <r>    8.3660    0.0000 </r>
       <r>    8.8096    0.0000 </r>
       <r>    8.8860    0.0000 </r>
       <r>    8.8863    0.0000 </r>
       <r>    9.0804    0.0000 </r>
       <r>    9.0809    0.0000 </r>
       <r>    9.0825    0.0000 </r>
       <r>    9.0826    0.0000 </r>
       <r>    9.1296    0.0000 </r>
       <r>    9.1299    0.0000 </r>
       <r>    9.1324    0.0000 </r>
       <r>    9.1577    0.0000 </r>
       <r>    9.1709    0.0000 </r>
       <r>    9.1957    0.0000 </r>
       <r>    9.1970    0.0000 </r>
       <r>    9.2197    0.0000 </r>
       <r>    9.2253    0.0000 </r>
       <r>    9.2270    0.0000 </r>
       <r>    9.2418    0.0000 </r>
       <r>    9.2738    0.0000 </r>
       <r>    9.2743    0.0000 </r>
       <r>    9.3891    0.0000 </r>
       <r>    9.3896    0.0000 </r>
       <r>    9.3907    0.0000 </r>
       <r>    9.4326    0.0000 </r>
       <r>    9.5272    0.0000 </r>
       <r>    9.5284    0.0000 </r>
       <r>    9.6650    0.0000 </r>
       <r>    9.7651    0.0000 </r>
       <r>    9.7653    0.0000 </r>
       <r>    9.7891    0.0000 </r>
       <r>    9.7892    0.0000 </r>
       <r>    9.7997    0.0000 </r>
       <r>    9.9497    0.0000 </r>
       <r>    9.9517    0.0000 </r>
       <r>    9.9527    0.0000 </r>
       <r>    9.9733    0.0000 </r>
       <r>    9.9735    0.0000 </r>
       <r>    9.9751    0.0000 </r>
       <r>   10.0708    0.0000 </r>
       <r>   10.1263    0.0000 </r>
       <r>   10.1264    0.0000 </r>
       <r>   10.1441    0.0000 </r>
       <r>   10.1443    0.0000 </r>
       <r>   10.1675    0.0000 </r>
       <r>   10.1822    0.0000 </r>
       <r>   10.1830    0.0000 </r>
       <r>   10.1908    0.0000 </r>
       <r>   10.1963    0.0000 </r>
       <r>   10.1975    0.0000 </r>
       <r>   10.2728    0.0000 </r>
       <r>   10.5413    0.0000 </r>
       <r>   10.6168    0.0000 </r>
       <r>   10.6168    0.0000 </r>
       <r>   10.6399    0.0000 </r>
       <r>   10.6400    0.0000 </r>
       <r>   10.6622    0.0000 </r>
       <r>   10.8083    0.0000 </r>
       <r>   10.8152    0.0000 </r>
       <r>   10.8155    0.0000 </r>
       <r>   10.8185    0.0000 </r>
       <r>   10.8195    0.0000 </r>
       <r>   10.8205    0.0000 </r>
       <r>   11.3192    0.0000 </r>
       <r>   11.3254    0.0000 </r>
       <r>   11.3440    0.0000 </r>
       <r>   11.4134    0.0000 </r>
       <r>   11.4466    0.0000 </r>
       <r>   11.5055    0.0000 </r>
       <r>   11.5114    0.0000 </r>
       <r>   11.5442    0.0000 </r>
       <r>   11.5653    0.0000 </r>
       <r>   11.6132    0.0000 </r>
       <r>   11.6297    0.0000 </r>
       <r>   11.6706    0.0000 </r>
       <r>   11.7024    0.0000 </r>
       <r>   11.7442    0.0000 </r>
       <r>   11.7576    0.0000 </r>
       <r>   11.7738    0.0000 </r>
       <r>   11.7978    0.0000 </r>
       <r>   11.8270    0.0000 </r>
       <r>   11.8825    0.0000 </r>
      </set>
      <set comment="kpoint 6">
       <r>  -17.2937    1.0000 </r>
       <r>  -15.7753    1.0000 </r>
       <r>  -15.7303    1.0000 </r>
       <r>  -15.4169    1.0000 </r>
       <r>  -15.3048    1.0000 </r>
       <r>  -15.2753    1.0000 </r>
       <r>  -15.2421    1.0000 </r>
       <r>  -15.2052    1.0000 </r>
       <r>  -15.1445    1.0000 </r>
       <r>  -15.0918    1.0000 </r>
       <r>  -15.0610    1.0000 </r>
       <r>  -15.0340    1.0000 </r>
       <r>  -15.0154    1.0000 </r>
       <r>  -14.9851    1.0000 </r>
       <r>  -14.9834    1.0000 </r>
       <r>  -14.9068    1.0000 </r>
       <r>  -14.9003    1.0000 </r>
       <r>  -14.8554    1.0000 </r>
       <r>  -14.7594    1.0000 </r>
       <r>  -14.7560    1.0000 </r>
       <r>  -14.6189    1.0000 </r>
       <r>  -14.5678    1.0000 </r>
       <r>  -14.5517    1.0000 </r>
       <r>  -14.4663    1.0000 </r>
       <r>  -14.4626    1.0000 </r>
       <r>  -14.4603    1.0000 </r>
       <r>  -14.4592    1.0000 </r>
       <r>  -14.4248    1.0000 </r>
       <r>  -14.4028    1.0000 </r>
       <r>  -14.3961    1.0000 </r>
       <r>  -14.3856    1.0000 </r>
       <r>  -14.3435    1.0000 </r>
       <r>  -14.2473    1.0000 </r>
       <r>  -14.2461    1.0000 </r>
       <r>  -14.2437    1.0000 </r>
       <r>  -14.2423    1.0000 </r>
       <r>  -14.2075    1.0000 </r>
       <r>  -14.2066    1.0000 </r>
       <r>  -14.1718    1.0000 </r>
       <r>  -14.1496    1.0000 </r>
       <r>  -14.1112    1.0000 </r>
       <r>  -14.0358    1.0000 </r>
       <r>  -13.9977    1.0000 </r>
       <r>  -13.9973    1.0000 </r>
       <r>  -13.9484    1.0000 </r>
       <r>  -13.7880    1.0000 </r>
       <r>  -13.7422    1.0000 </r>
       <r>  -13.7400    1.0000 </r>
       <r>  -13.7122    1.0000 </r>
       <r>  -13.7110    1.0000 </r>
       <r>  -13.7032    1.0000 </r>
       <r>  -13.6817    1.0000 </r>
       <r>  -13.6578    1.0000 </r>
       <r>  -13.6552    1.0000 </r>
       <r>  -13.6048    1.0000 </r>
       <r>  -13.5336    1.0000 </r>
       <r>  -13.5322    1.0000 </r>
       <r>  -13.5212    1.0000 </r>
       <r>  -13.5155    1.0000 </r>
       <r>  -13.5056    1.0000 </r>
       <r>  -13.3597    1.0000 </r>
       <r>  -13.3378    1.0000 </r>
       <r>  -13.2555    1.0000 </r>
       <r>  -13.2232    1.0000 </r>
       <r>  -13.1101    1.0000 </r>
       <r>  -13.0686    1.0000 </r>
       <r>  -13.0637    1.0000 </r>
       <r>  -13.0620    1.0000 </r>
       <r>  -13.0612    1.0000 </r>
       <r>  -13.0333    1.0000 </r>
       <r>  -13.0267    1.0000 </r>
       <r>  -13.0231    1.0000 </r>
       <r>  -13.0167    1.0000 </r>
       <r>  -12.9741    1.0000 </r>
       <r>  -12.9291    1.0000 </r>
       <r>  -12.8949    1.0000 </r>
       <r>  -12.8920    1.0000 </r>
       <r>  -12.8888    1.0000 </r>
       <r>  -12.8881    1.0000 </r>
       <r>  -12.8805    1.0000 </r>
       <r>  -12.8783    1.0000 </r>
       <r>  -12.8775    1.0000 </r>
       <r>  -12.8750    1.0000 </r>
       <r>  -12.8667    1.0000 </r>
       <r>  -12.8602    1.0000 </r>
       <r>  -12.8561    1.0000 </r>
       <r>  -12.8508    1.0000 </r>
       <r>  -12.8506    1.0000 </r>
       <r>  -12.7194    1.0000 </r>
       <r>  -12.7150    1.0000 </r>
       <r>  -12.7146    1.0000 </r>
       <r>  -12.7106    1.0000 </r>
       <r>  -12.6837    1.0000 </r>
       <r>  -12.6099    1.0000 </r>
       <r>  -12.5986    1.0000 </r>
       <r>  -12.5767    1.0000 </r>
       <r>  -12.5729    1.0000 </r>
       <r>  -12.5513    1.0000 </r>
       <r>  -12.5334    1.0000 </r>
       <r>  -12.4986    1.0000 </r>
       <r>  -12.4377    1.0000 </r>
       <r>  -12.4294    1.0000 </r>
       <r>  -12.4247    1.0000 </r>
       <r>  -12.4228    1.0000 </r>
       <r>  -12.3423    1.0000 </r>
       <r>  -12.3383    1.0000 </r>
       <r>  -12.3219    1.0000 </r>
       <r>  -12.3171    1.0000 </r>
       <r>  -12.2463    1.0000 </r>
       <r>  -12.2452    1.0000 </r>
       <r>  -12.2368    1.0000 </r>
       <r>  -12.2327    1.0000 </r>
       <r>  -12.2190    1.0000 </r>
       <r>  -12.2180    1.0000 </r>
       <r>  -12.2082    1.0000 </r>
       <r>  -12.2053    1.0000 </r>
       <r>  -12.1765    1.0000 </r>
       <r>  -12.1762    1.0000 </r>
       <r>  -12.1708    1.0000 </r>
       <r>  -12.1705    1.0000 </r>
       <r>  -12.0958    1.0000 </r>
       <r>  -12.0956    1.0000 </r>
       <r>  -12.0892    1.0000 </r>
       <r>  -12.0877    1.0000 </r>
       <r>  -12.0866    1.0000 </r>
       <r>  -12.0850    1.0000 </r>
       <r>  -11.9511    1.0000 </r>
       <r>  -11.9480    1.0000 </r>
       <r>  -11.9468    1.0000 </r>
       <r>  -11.9435    1.0000 </r>
       <r>  -11.8180    1.0000 </r>
       <r>  -11.8131    1.0000 </r>
       <r>  -11.8080    1.0000 </r>
       <r>  -11.8077    1.0000 </r>
       <r>  -11.8045    1.0000 </r>
       <r>  -11.8035    1.0000 </r>
       <r>  -11.7850    1.0000 </r>
       <r>  -11.7848    1.0000 </r>
       <r>  -11.7796    1.0000 </r>
       <r>  -11.7793    1.0000 </r>
       <r>  -11.6697    1.0000 </r>
       <r>  -11.6679    1.0000 </r>
       <r>  -11.6644    1.0000 </r>
       <r>  -11.6563    1.0000 </r>
       <r>   -8.3631    1.0000 </r>
       <r>   -7.2840    1.0000 </r>
       <r>   -7.2708    1.0000 </r>
       <r>   -6.7936    1.0000 </r>
       <r>   -6.7047    1.0000 </r>
       <r>   -6.6829    1.0000 </r>
       <r>   -6.4379    1.0000 </r>
       <r>   -6.4061    1.0000 </r>
       <r>   -6.3220    1.0000 </r>
       <r>   -6.3089    1.0000 </r>
       <r>   -6.3061    1.0000 </r>
       <r>   -6.3040    1.0000 </r>
       <r>   -6.2994    1.0000 </r>
       <r>   -6.2869    1.0000 </r>
       <r>   -6.2755    1.0000 </r>
       <r>   -6.2746    1.0000 </r>
       <r>   -6.2688    1.0000 </r>
       <r>   -6.2684    1.0000 </r>
       <r>   -6.2157    1.0000 </r>
       <r>   -6.2156    1.0000 </r>
       <r>   -6.2119    1.0000 </r>
       <r>   -6.2075    1.0000 </r>
       <r>   -6.1959    1.0000 </r>
       <r>   -6.1950    1.0000 </r>
       <r>   -6.1593    1.0000 </r>
       <r>   -6.1585    1.0000 </r>
       <r>   -6.1499    1.0000 </r>
       <r>   -6.1488    1.0000 </r>
       <r>   -6.0742    1.0000 </r>
       <r>   -6.0697    1.0000 </r>
       <r>   -5.9353    1.0000 </r>
       <r>   -5.9279    1.0000 </r>
       <r>   -5.9108    1.0000 </r>
       <r>   -5.9035    1.0000 </r>
       <r>   -5.8439    1.0000 </r>
       <r>   -5.7895    1.0000 </r>
       <r>   -5.7821    1.0000 </r>
       <r>   -5.7718    1.0000 </r>
       <r>   -5.7694    1.0000 </r>
       <r>   -5.7687    1.0000 </r>
       <r>   -5.7641    1.0000 </r>
       <r>   -5.7616    1.0000 </r>
       <r>   -5.7586    1.0000 </r>
       <r>   -5.7582    1.0000 </r>
       <r>   -5.7575    1.0000 </r>
       <r>   -5.7508    1.0000 </r>
       <r>   -5.7393    1.0000 </r>
       <r>   -5.6844    1.0000 </r>
       <r>   -5.6541    1.0000 </r>
       <r>   -5.6418    1.0000 </r>
       <r>   -5.6252    1.0000 </r>
       <r>   -5.6221    1.0000 </r>
       <r>   -5.6205    1.0000 </r>
       <r>   -5.6183    1.0000 </r>
       <r>   -5.2294    1.0000 </r>
       <r>   -5.2270    1.0000 </r>
       <r>   -5.2246    1.0000 </r>
       <r>   -5.2243    1.0000 </r>
       <r>   -5.2238    1.0000 </r>
       <r>   -5.2199    1.0000 </r>
       <r>   -5.2191    1.0000 </r>
       <r>   -5.2190    1.0000 </r>
       <r>   -5.2183    1.0000 </r>
       <r>   -5.2177    1.0000 </r>
       <r>   -5.2174    1.0000 </r>
       <r>   -5.2169    1.0000 </r>
       <r>   -5.1148    1.0000 </r>
       <r>   -5.1103    1.0000 </r>
       <r>   -5.0940    1.0000 </r>
       <r>   -5.0906    1.0000 </r>
       <r>   -5.0892    1.0000 </r>
       <r>   -5.0879    1.0000 </r>
       <r>   -5.0864    1.0000 </r>
       <r>   -5.0840    1.0000 </r>
       <r>   -5.0261    1.0000 </r>
       <r>   -4.9211    1.0000 </r>
       <r>   -4.8319    1.0000 </r>
       <r>   -4.6117    1.0000 </r>
       <r>   -4.5543    1.0000 </r>
       <r>   -4.5412    1.0000 </r>
       <r>   -4.4754    1.0000 </r>
       <r>   -4.4730    1.0000 </r>
       <r>   -4.4720    1.0000 </r>
       <r>   -4.4712    1.0000 </r>
       <r>   -4.4707    1.0000 </r>
       <r>   -4.4695    1.0000 </r>
       <r>   -4.4682    1.0000 </r>
       <r>   -4.4679    1.0000 </r>
       <r>   -4.3455    1.0000 </r>
       <r>   -4.3424    1.0000 </r>
       <r>   -4.3396    1.0000 </r>
       <r>   -4.3367    1.0000 </r>
       <r>   -4.3164    1.0000 </r>
       <r>   -4.2889    1.0000 </r>
       <r>   -4.2019    1.0000 </r>
       <r>   -4.0979    1.0000 </r>
       <r>   -4.0879    1.0000 </r>
       <r>   -4.0876    1.0000 </r>
       <r>   -4.0844    1.0000 </r>
       <r>   -4.0835    1.0000 </r>
       <r>   -4.0747    1.0000 </r>
       <r>   -4.0744    1.0000 </r>
       <r>   -4.0715    1.0000 </r>
       <r>   -4.0704    1.0000 </r>
       <r>   -4.0288    1.0000 </r>
       <r>   -3.9513    1.0000 </r>
       <r>   -3.9499    1.0000 </r>
       <r>   -3.9466    1.0000 </r>
       <r>   -3.9459    1.0000 </r>
       <r>   -3.9093    1.0000 </r>
       <r>   -3.8654    1.0000 </r>
       <r>   -3.7857    1.0000 </r>
       <r>   -3.6234    1.0000 </r>
       <r>   -3.6205    1.0000 </r>
       <r>   -3.6156    1.0000 </r>
       <r>   -3.6142    1.0000 </r>
       <r>   -3.6081    1.0000 </r>
       <r>   -3.6034    1.0000 </r>
       <r>   -3.6019    1.0000 </r>
       <r>   -3.5983    1.0000 </r>
       <r>   -3.5977    1.0000 </r>
       <r>   -3.4819    1.0000 </r>
       <r>   -3.4787    1.0000 </r>
       <r>   -3.4783    1.0000 </r>
       <r>   -3.4750    1.0000 </r>
       <r>   -3.4718    1.0000 </r>
       <r>   -3.4681    1.0000 </r>
       <r>   -3.4675    1.0000 </r>
       <r>   -3.4660    1.0000 </r>
       <r>   -3.4651    1.0000 </r>
       <r>   -3.3905    1.0000 </r>
       <r>   -3.3585    1.0000 </r>
       <r>   -3.3472    1.0000 </r>
       <r>   -3.3402    1.0000 </r>
       <r>   -3.3395    1.0000 </r>
       <r>   -3.3382    1.0000 </r>
       <r>   -3.3381    1.0000 </r>
       <r>   -3.1562    1.0000 </r>
       <r>   -3.0974    1.0000 </r>
       <r>   -3.0774    1.0000 </r>
       <r>   -3.0729    1.0000 </r>
       <r>   -3.0727    1.0000 </r>
       <r>   -3.0661    1.0000 </r>
       <r>   -3.0028    1.0000 </r>
       <r>   -3.0004    1.0000 </r>
       <r>   -2.9920    1.0000 </r>
       <r>   -2.9395    1.0000 </r>
       <r>   -2.9365    1.0000 </r>
       <r>   -2.8560    1.0000 </r>
       <r>   -2.8426    1.0000 </r>
       <r>   -2.7698    1.0000 </r>
       <r>   -2.7661    1.0000 </r>
       <r>   -2.7564    1.0000 </r>
       <r>   -2.7266    1.0000 </r>
       <r>   -2.6770    1.0000 </r>
       <r>   -2.6739    1.0000 </r>
       <r>   -2.6723    1.0000 </r>
       <r>   -2.6628    1.0000 </r>
       <r>   -2.6422    1.0000 </r>
       <r>   -2.5485    1.0000 </r>
       <r>   -2.5456    1.0000 </r>
       <r>   -2.5453    1.0000 </r>
       <r>   -2.5177    1.0000 </r>
       <r>   -2.4675    1.0000 </r>
       <r>   -2.3932    1.0000 </r>
       <r>   -2.3874    1.0000 </r>
       <r>   -2.3774    1.0000 </r>
       <r>   -2.3747    1.0000 </r>
       <r>   -2.3730    1.0000 </r>
       <r>   -2.3720    1.0000 </r>
       <r>   -2.3719    1.0000 </r>
       <r>   -2.3708    1.0000 </r>
       <r>   -2.3701    1.0000 </r>
       <r>   -2.3681    1.0000 </r>
       <r>   -2.3662    1.0000 </r>
       <r>   -2.3469    1.0000 </r>
       <r>   -2.2861    1.0000 </r>
       <r>   -2.2635    1.0000 </r>
       <r>   -2.2569    1.0000 </r>
       <r>   -2.2442    1.0000 </r>
       <r>   -2.2411    1.0000 </r>
       <r>   -2.2402    1.0000 </r>
       <r>   -2.2382    1.0000 </r>
       <r>   -2.2372    1.0000 </r>
       <r>   -2.2085    1.0000 </r>
       <r>   -2.2081    1.0000 </r>
       <r>   -2.1995    1.0000 </r>
       <r>   -2.1647    1.0000 </r>
       <r>   -2.1587    1.0000 </r>
       <r>   -2.1442    1.0000 </r>
       <r>   -2.1263    1.0000 </r>
       <r>   -2.0989    1.0000 </r>
       <r>   -2.0915    1.0000 </r>
       <r>   -2.0910    1.0000 </r>
       <r>   -2.0860    1.0000 </r>
       <r>   -2.0855    1.0000 </r>
       <r>   -2.0577    1.0000 </r>
       <r>   -2.0573    1.0000 </r>
       <r>   -2.0510    1.0000 </r>
       <r>   -2.0508    1.0000 </r>
       <r>   -2.0103    1.0000 </r>
       <r>   -1.9644    1.0000 </r>
       <r>   -1.9442    1.0000 </r>
       <r>   -1.9424    1.0000 </r>
       <r>   -1.9367    1.0000 </r>
       <r>   -1.9345    1.0000 </r>
       <r>   -1.9314    1.0000 </r>
       <r>   -1.9313    1.0000 </r>
       <r>   -1.9066    1.0000 </r>
       <r>   -1.9052    1.0000 </r>
       <r>   -1.8962    1.0000 </r>
       <r>   -1.8835    1.0000 </r>
       <r>   -1.8631    1.0000 </r>
       <r>   -1.8604    1.0000 </r>
       <r>   -1.8598    1.0000 </r>
       <r>   -1.8585    1.0000 </r>
       <r>   -1.8576    1.0000 </r>
       <r>   -1.8567    1.0000 </r>
       <r>   -1.8562    1.0000 </r>
       <r>   -1.8549    1.0000 </r>
       <r>   -1.7785    1.0000 </r>
       <r>   -1.7785    1.0000 </r>
       <r>   -1.7778    1.0000 </r>
       <r>   -1.7777    1.0000 </r>
       <r>   -1.7743    1.0000 </r>
       <r>   -1.7741    1.0000 </r>
       <r>   -1.7728    1.0000 </r>
       <r>   -1.7728    1.0000 </r>
       <r>   -1.7473    1.0000 </r>
       <r>   -1.7444    1.0000 </r>
       <r>   -1.7423    1.0000 </r>
       <r>   -1.7381    1.0000 </r>
       <r>   -1.7153    1.0000 </r>
       <r>   -1.7085    1.0000 </r>
       <r>   -1.6884    1.0000 </r>
       <r>   -1.6616    1.0000 </r>
       <r>   -1.6488    1.0000 </r>
       <r>   -1.6462    1.0000 </r>
       <r>   -1.6438    1.0000 </r>
       <r>   -1.6404    1.0000 </r>
       <r>   -1.6106    1.0000 </r>
       <r>   -1.6078    1.0000 </r>
       <r>   -1.5863    1.0000 </r>
       <r>   -1.5839    1.0000 </r>
       <r>   -1.5797    1.0000 </r>
       <r>   -1.5598    1.0000 </r>
       <r>   -1.5550    1.0000 </r>
       <r>   -1.5500    1.0000 </r>
       <r>   -1.4641    1.0000 </r>
       <r>   -1.4490    1.0000 </r>
       <r>   -1.4410    1.0000 </r>
       <r>   -1.4314    1.0000 </r>
       <r>   -1.2639    1.0000 </r>
       <r>   -1.2555    1.0000 </r>
       <r>   -1.2535    1.0000 </r>
       <r>   -1.2357    1.0000 </r>
       <r>   -1.2346    1.0000 </r>
       <r>   -1.2246    1.0000 </r>
       <r>   -1.2236    1.0000 </r>
       <r>   -1.2094    1.0000 </r>
       <r>   -1.2072    1.0000 </r>
       <r>   -1.2068    1.0000 </r>
       <r>   -1.2060    1.0000 </r>
       <r>   -1.1941    1.0000 </r>
       <r>   -1.1887    1.0000 </r>
       <r>   -1.1875    1.0000 </r>
       <r>   -1.1851    1.0000 </r>
       <r>   -1.1585    1.0000 </r>
       <r>   -1.1197    1.0000 </r>
       <r>   -1.0900    1.0000 </r>
       <r>   -1.0871    1.0000 </r>
       <r>   -1.0851    1.0000 </r>
       <r>   -1.0781    1.0000 </r>
       <r>   -1.0563    1.0000 </r>
       <r>   -1.0158    1.0000 </r>
       <r>   -0.9348    1.0000 </r>
       <r>   -0.9298    1.0000 </r>
       <r>   -0.9145    1.0000 </r>
       <r>   -0.9112    1.0000 </r>
       <r>   -0.9095    1.0000 </r>
       <r>   -0.8571    1.0000 </r>
       <r>   -0.8453    1.0000 </r>
       <r>   -0.8355    1.0000 </r>
       <r>   -0.7765    1.0000 </r>
       <r>   -0.7324    1.0000 </r>
       <r>   -0.7086    1.0000 </r>
       <r>   -0.7056    1.0000 </r>
       <r>   -0.6564    1.0000 </r>
       <r>   -0.6389    1.0000 </r>
       <r>   -0.5975    1.0000 </r>
       <r>   -0.5948    1.0000 </r>
       <r>   -0.5300    1.0000 </r>
       <r>   -0.5184    1.0000 </r>
       <r>   -0.5174    1.0000 </r>
       <r>   -0.5152    1.0000 </r>
       <r>   -0.5140    1.0000 </r>
       <r>   -0.4617    1.0000 </r>
       <r>   -0.4579    1.0000 </r>
       <r>   -0.4576    1.0000 </r>
       <r>   -0.4567    1.0000 </r>
       <r>   -0.4535    1.0000 </r>
       <r>   -0.4530    1.0000 </r>
       <r>   -0.4529    1.0000 </r>
       <r>   -0.4489    1.0000 </r>
       <r>   -0.4180    1.0000 </r>
       <r>   -0.3849    1.0000 </r>
       <r>   -0.3837    1.0000 </r>
       <r>   -0.3767    1.0000 </r>
       <r>   -0.3521    1.0000 </r>
       <r>   -0.3494    1.0000 </r>
       <r>   -0.3477    1.0000 </r>
       <r>   -0.3465    1.0000 </r>
       <r>   -0.3306    1.0000 </r>
       <r>   -0.3270    1.0000 </r>
       <r>   -0.3249    1.0000 </r>
       <r>   -0.3199    1.0000 </r>
       <r>   -0.2800    1.0000 </r>
       <r>   -0.2643    1.0000 </r>
       <r>   -0.2636    1.0000 </r>
       <r>   -0.2576    1.0000 </r>
       <r>   -0.2561    1.0000 </r>
       <r>   -0.2554    1.0000 </r>
       <r>   -0.2524    1.0000 </r>
       <r>   -0.2270    1.0000 </r>
       <r>   -0.2221    1.0000 </r>
       <r>   -0.2174    1.0000 </r>
       <r>   -0.2136    1.0000 </r>
       <r>   -0.1418    1.0000 </r>
       <r>   -0.1406    1.0000 </r>
       <r>   -0.0465    1.0000 </r>
       <r>   -0.0101    1.0000 </r>
       <r>    0.0021    1.0000 </r>
       <r>    0.0098    1.0000 </r>
       <r>    0.0110    1.0000 </r>
       <r>    0.0179    1.0000 </r>
       <r>    0.0184    1.0000 </r>
       <r>    0.0335    1.0000 </r>
       <r>    0.0365    1.0000 </r>
       <r>    0.0499    1.0000 </r>
       <r>    0.1867    1.0000 </r>
       <r>    0.2769    1.0000 </r>
       <r>    0.3159    1.0000 </r>
       <r>    0.3398    1.0000 </r>
       <r>    0.3432    1.0000 </r>
       <r>    0.3452    1.0000 </r>
       <r>    0.3487    1.0000 </r>
       <r>    0.3507    1.0000 </r>
       <r>    0.3946    1.0000 </r>
       <r>    0.4206    1.0000 </r>
       <r>    0.4741    1.0000 </r>
       <r>    0.4798    1.0000 </r>
       <r>    0.4881    1.0000 </r>
       <r>    0.5104    1.0000 </r>
       <r>    0.5570    1.0000 </r>
       <r>    0.5585    1.0000 </r>
       <r>    0.5655    1.0000 </r>
       <r>    0.5774    1.0000 </r>
       <r>    0.5870    1.0000 </r>
       <r>    0.5887    1.0000 </r>
       <r>    0.6152    1.0000 </r>
       <r>    0.6299    1.0000 </r>
       <r>    0.6524    1.0000 </r>
       <r>    0.6941    1.0000 </r>
       <r>    0.7035    1.0000 </r>
       <r>    0.7280    1.0000 </r>
       <r>    0.7282    1.0000 </r>
       <r>    0.8540    1.0000 </r>
       <r>    0.8550    1.0000 </r>
       <r>    0.8567    1.0000 </r>
       <r>    0.8629    1.0000 </r>
       <r>    0.8643    1.0000 </r>
       <r>    0.8647    1.0000 </r>
       <r>    0.8654    1.0000 </r>
       <r>    0.8739    1.0000 </r>
       <r>    0.8753    1.0000 </r>
       <r>    0.8762    1.0000 </r>
       <r>    0.8836    1.0000 </r>
       <r>    0.8858    1.0000 </r>
       <r>    0.8923    1.0000 </r>
       <r>    0.8938    1.0000 </r>
       <r>    0.9046    1.0000 </r>
       <r>    0.9058    1.0000 </r>
       <r>    0.9939    1.0000 </r>
       <r>    1.0030    1.0000 </r>
       <r>    1.0563    1.0000 </r>
       <r>    1.0658    1.0000 </r>
       <r>    1.0774    1.0000 </r>
       <r>    1.0796    1.0000 </r>
       <r>    1.0939    1.0000 </r>
       <r>    1.0946    1.0000 </r>
       <r>    1.1009    1.0000 </r>
       <r>    1.1084    1.0000 </r>
       <r>    1.1102    1.0000 </r>
       <r>    1.2446    1.0000 </r>
       <r>    1.2590    1.0000 </r>
       <r>    1.3042    1.0000 </r>
       <r>    1.4342    1.0000 </r>
       <r>    1.4467    1.0000 </r>
       <r>    1.4565    1.0000 </r>
       <r>    1.4627    1.0000 </r>
       <r>    1.5917    1.0000 </r>
       <r>    1.6018    1.0000 </r>
       <r>    1.6028    1.0000 </r>
       <r>    1.6048    1.0000 </r>
       <r>    1.6139    1.0000 </r>
       <r>    1.6216    1.0000 </r>
       <r>    1.6524    1.0000 </r>
       <r>    1.6660    1.0000 </r>
       <r>    1.7131    1.0000 </r>
       <r>    1.7134    1.0000 </r>
       <r>    1.7671    1.0000 </r>
       <r>    1.7730    1.0000 </r>
       <r>    1.8445    1.0000 </r>
       <r>    1.8518    1.0000 </r>
       <r>    1.8566    1.0000 </r>
       <r>    1.8615    1.0000 </r>
       <r>    1.8660    1.0000 </r>
       <r>    1.8702    1.0000 </r>
       <r>    1.8775    1.0000 </r>
       <r>    1.8786    1.0000 </r>
       <r>    1.9869    1.0000 </r>
       <r>    2.0020    1.0000 </r>
       <r>    2.1867    1.0000 </r>
       <r>    2.1886    1.0000 </r>
       <r>    2.1967    1.0000 </r>
       <r>    2.1985    1.0000 </r>
       <r>    2.2061    1.0000 </r>
       <r>    2.2101    1.0000 </r>
       <r>    2.3772    1.0000 </r>
       <r>    2.3837    1.0000 </r>
       <r>    2.3891    1.0000 </r>
       <r>    2.3896    1.0000 </r>
       <r>    4.6561    1.0000 </r>
       <r>    5.9202    0.0000 </r>
       <r>    6.6055    0.0000 </r>
       <r>    6.6230    0.0000 </r>
       <r>    6.6275    0.0000 </r>
       <r>    6.8744    0.0000 </r>
       <r>    6.9350    0.0000 </r>
       <r>    7.0013    0.0000 </r>
       <r>    7.0142    0.0000 </r>
       <r>    7.0446    0.0000 </r>
       <r>    7.0540    0.0000 </r>
       <r>    7.0682    0.0000 </r>
       <r>    7.0805    0.0000 </r>
       <r>    7.1068    0.0000 </r>
       <r>    7.1148    0.0000 </r>
       <r>    7.1451    0.0000 </r>
       <r>    7.1471    0.0000 </r>
       <r>    7.2307    0.0000 </r>
       <r>    7.2647    0.0000 </r>
       <r>    7.2649    0.0000 </r>
       <r>    7.2858    0.0000 </r>
       <r>    7.2863    0.0000 </r>
       <r>    7.4230    0.0000 </r>
       <r>    7.4492    0.0000 </r>
       <r>    7.4565    0.0000 </r>
       <r>    7.4747    0.0000 </r>
       <r>    7.4833    0.0000 </r>
       <r>    7.5673    0.0000 </r>
       <r>    7.5724    0.0000 </r>
       <r>    7.6150    0.0000 </r>
       <r>    7.6464    0.0000 </r>
       <r>    7.6615    0.0000 </r>
       <r>    7.6642    0.0000 </r>
       <r>    7.6660    0.0000 </r>
       <r>    7.6667    0.0000 </r>
       <r>    7.6829    0.0000 </r>
       <r>    7.7019    0.0000 </r>
       <r>    7.7325    0.0000 </r>
       <r>    7.7346    0.0000 </r>
       <r>    7.7818    0.0000 </r>
       <r>    7.8437    0.0000 </r>
       <r>    7.8758    0.0000 </r>
       <r>    7.8968    0.0000 </r>
       <r>    7.9695    0.0000 </r>
       <r>    7.9762    0.0000 </r>
       <r>    8.0042    0.0000 </r>
       <r>    8.0076    0.0000 </r>
       <r>    8.0819    0.0000 </r>
       <r>    8.0965    0.0000 </r>
       <r>    8.0988    0.0000 </r>
       <r>    8.1903    0.0000 </r>
       <r>    8.2100    0.0000 </r>
       <r>    8.2340    0.0000 </r>
       <r>    8.2810    0.0000 </r>
       <r>    8.3354    0.0000 </r>
       <r>    8.3375    0.0000 </r>
       <r>    8.3621    0.0000 </r>
       <r>    8.4660    0.0000 </r>
       <r>    8.4787    0.0000 </r>
       <r>    8.4890    0.0000 </r>
       <r>    8.4938    0.0000 </r>
       <r>    8.4968    0.0000 </r>
       <r>    8.5080    0.0000 </r>
       <r>    8.5095    0.0000 </r>
       <r>    8.5118    0.0000 </r>
       <r>    8.5328    0.0000 </r>
       <r>    8.5577    0.0000 </r>
       <r>    8.5635    0.0000 </r>
       <r>    8.6270    0.0000 </r>
       <r>    8.7569    0.0000 </r>
       <r>    8.8114    0.0000 </r>
       <r>    8.8787    0.0000 </r>
       <r>    8.8977    0.0000 </r>
       <r>    8.9157    0.0000 </r>
       <r>    8.9643    0.0000 </r>
       <r>    9.0015    0.0000 </r>
       <r>    9.0081    0.0000 </r>
       <r>    9.0169    0.0000 </r>
       <r>    9.0176    0.0000 </r>
       <r>    9.0214    0.0000 </r>
       <r>    9.0288    0.0000 </r>
       <r>    9.0928    0.0000 </r>
       <r>    9.1312    0.0000 </r>
       <r>    9.1611    0.0000 </r>
       <r>    9.1648    0.0000 </r>
       <r>    9.1780    0.0000 </r>
       <r>    9.2074    0.0000 </r>
       <r>    9.2084    0.0000 </r>
       <r>    9.2112    0.0000 </r>
       <r>    9.3008    0.0000 </r>
       <r>    9.3159    0.0000 </r>
       <r>    9.3989    0.0000 </r>
       <r>    9.4265    0.0000 </r>
       <r>    9.4416    0.0000 </r>
       <r>    9.4463    0.0000 </r>
       <r>    9.5808    0.0000 </r>
       <r>    9.6005    0.0000 </r>
       <r>    9.6030    0.0000 </r>
       <r>    9.6058    0.0000 </r>
       <r>    9.6073    0.0000 </r>
       <r>    9.6126    0.0000 </r>
       <r>    9.6352    0.0000 </r>
       <r>    9.6712    0.0000 </r>
       <r>    9.7065    0.0000 </r>
       <r>    9.7110    0.0000 </r>
       <r>    9.7283    0.0000 </r>
       <r>    9.7364    0.0000 </r>
       <r>    9.7728    0.0000 </r>
       <r>    9.8165    0.0000 </r>
       <r>    9.8252    0.0000 </r>
       <r>    9.9222    0.0000 </r>
       <r>    9.9247    0.0000 </r>
       <r>    9.9369    0.0000 </r>
       <r>    9.9653    0.0000 </r>
       <r>    9.9675    0.0000 </r>
       <r>   10.0293    0.0000 </r>
       <r>   10.0650    0.0000 </r>
       <r>   10.1005    0.0000 </r>
       <r>   10.1007    0.0000 </r>
       <r>   10.3004    0.0000 </r>
       <r>   10.3391    0.0000 </r>
       <r>   10.4249    0.0000 </r>
       <r>   10.4255    0.0000 </r>
       <r>   10.5250    0.0000 </r>
       <r>   10.5260    0.0000 </r>
       <r>   10.5481    0.0000 </r>
       <r>   10.5527    0.0000 </r>
       <r>   10.8650    0.0000 </r>
       <r>   10.9850    0.0000 </r>
       <r>   11.2069    0.0000 </r>
       <r>   11.2100    0.0000 </r>
       <r>   11.2805    0.0000 </r>
       <r>   11.4033    0.0000 </r>
       <r>   11.4113    0.0000 </r>
       <r>   11.4330    0.0000 </r>
       <r>   11.4640    0.0000 </r>
       <r>   11.4919    0.0000 </r>
       <r>   11.5302    0.0000 </r>
       <r>   11.5754    0.0000 </r>
       <r>   11.5820    0.0000 </r>
       <r>   11.5869    0.0000 </r>
       <r>   11.5998    0.0000 </r>
       <r>   11.6190    0.0000 </r>
       <r>   11.6492    0.0000 </r>
       <r>   11.7074    0.0000 </r>
       <r>   11.7411    0.0000 </r>
       <r>   11.8068    0.0000 </r>
       <r>   11.8680    0.0000 </r>
       <r>   11.9304    0.0000 </r>
       <r>   11.9657    0.0000 </r>
       <r>   11.9941    0.0000 </r>
       <r>   12.0580    0.0000 </r>
      </set>
      <set comment="kpoint 7">
       <r>  -17.2937    1.0000 </r>
       <r>  -15.7754    1.0000 </r>
       <r>  -15.7302    1.0000 </r>
       <r>  -15.4169    1.0000 </r>
       <r>  -15.3048    1.0000 </r>
       <r>  -15.2751    1.0000 </r>
       <r>  -15.2423    1.0000 </r>
       <r>  -15.2052    1.0000 </r>
       <r>  -15.1445    1.0000 </r>
       <r>  -15.0918    1.0000 </r>
       <r>  -15.0611    1.0000 </r>
       <r>  -15.0338    1.0000 </r>
       <r>  -15.0154    1.0000 </r>
       <r>  -14.9849    1.0000 </r>
       <r>  -14.9838    1.0000 </r>
       <r>  -14.9068    1.0000 </r>
       <r>  -14.9002    1.0000 </r>
       <r>  -14.8554    1.0000 </r>
       <r>  -14.7584    1.0000 </r>
       <r>  -14.7570    1.0000 </r>
       <r>  -14.6189    1.0000 </r>
       <r>  -14.5678    1.0000 </r>
       <r>  -14.5517    1.0000 </r>
       <r>  -14.4666    1.0000 </r>
       <r>  -14.4626    1.0000 </r>
       <r>  -14.4606    1.0000 </r>
       <r>  -14.4585    1.0000 </r>
       <r>  -14.4248    1.0000 </r>
       <r>  -14.4029    1.0000 </r>
       <r>  -14.3960    1.0000 </r>
       <r>  -14.3856    1.0000 </r>
       <r>  -14.3435    1.0000 </r>
       <r>  -14.2487    1.0000 </r>
       <r>  -14.2456    1.0000 </r>
       <r>  -14.2437    1.0000 </r>
       <r>  -14.2413    1.0000 </r>
       <r>  -14.2077    1.0000 </r>
       <r>  -14.2065    1.0000 </r>
       <r>  -14.1718    1.0000 </r>
       <r>  -14.1496    1.0000 </r>
       <r>  -14.1112    1.0000 </r>
       <r>  -14.0359    1.0000 </r>
       <r>  -13.9992    1.0000 </r>
       <r>  -13.9955    1.0000 </r>
       <r>  -13.9484    1.0000 </r>
       <r>  -13.7879    1.0000 </r>
       <r>  -13.7419    1.0000 </r>
       <r>  -13.7399    1.0000 </r>
       <r>  -13.7125    1.0000 </r>
       <r>  -13.7112    1.0000 </r>
       <r>  -13.7032    1.0000 </r>
       <r>  -13.6817    1.0000 </r>
       <r>  -13.6578    1.0000 </r>
       <r>  -13.6553    1.0000 </r>
       <r>  -13.6048    1.0000 </r>
       <r>  -13.5328    1.0000 </r>
       <r>  -13.5325    1.0000 </r>
       <r>  -13.5213    1.0000 </r>
       <r>  -13.5164    1.0000 </r>
       <r>  -13.5056    1.0000 </r>
       <r>  -13.3597    1.0000 </r>
       <r>  -13.3379    1.0000 </r>
       <r>  -13.2554    1.0000 </r>
       <r>  -13.2231    1.0000 </r>
       <r>  -13.1101    1.0000 </r>
       <r>  -13.0688    1.0000 </r>
       <r>  -13.0637    1.0000 </r>
       <r>  -13.0622    1.0000 </r>
       <r>  -13.0606    1.0000 </r>
       <r>  -13.0334    1.0000 </r>
       <r>  -13.0266    1.0000 </r>
       <r>  -13.0231    1.0000 </r>
       <r>  -13.0167    1.0000 </r>
       <r>  -12.9741    1.0000 </r>
       <r>  -12.9291    1.0000 </r>
       <r>  -12.8942    1.0000 </r>
       <r>  -12.8918    1.0000 </r>
       <r>  -12.8898    1.0000 </r>
       <r>  -12.8880    1.0000 </r>
       <r>  -12.8810    1.0000 </r>
       <r>  -12.8782    1.0000 </r>
       <r>  -12.8771    1.0000 </r>
       <r>  -12.8743    1.0000 </r>
       <r>  -12.8667    1.0000 </r>
       <r>  -12.8602    1.0000 </r>
       <r>  -12.8561    1.0000 </r>
       <r>  -12.8508    1.0000 </r>
       <r>  -12.8506    1.0000 </r>
       <r>  -12.7192    1.0000 </r>
       <r>  -12.7156    1.0000 </r>
       <r>  -12.7142    1.0000 </r>
       <r>  -12.7108    1.0000 </r>
       <r>  -12.6836    1.0000 </r>
       <r>  -12.6101    1.0000 </r>
       <r>  -12.5983    1.0000 </r>
       <r>  -12.5767    1.0000 </r>
       <r>  -12.5732    1.0000 </r>
       <r>  -12.5513    1.0000 </r>
       <r>  -12.5334    1.0000 </r>
       <r>  -12.4987    1.0000 </r>
       <r>  -12.4377    1.0000 </r>
       <r>  -12.4285    1.0000 </r>
       <r>  -12.4247    1.0000 </r>
       <r>  -12.4229    1.0000 </r>
       <r>  -12.3424    1.0000 </r>
       <r>  -12.3382    1.0000 </r>
       <r>  -12.3219    1.0000 </r>
       <r>  -12.3171    1.0000 </r>
       <r>  -12.2463    1.0000 </r>
       <r>  -12.2456    1.0000 </r>
       <r>  -12.2367    1.0000 </r>
       <r>  -12.2326    1.0000 </r>
       <r>  -12.2191    1.0000 </r>
       <r>  -12.2175    1.0000 </r>
       <r>  -12.2082    1.0000 </r>
       <r>  -12.2055    1.0000 </r>
       <r>  -12.1782    1.0000 </r>
       <r>  -12.1751    1.0000 </r>
       <r>  -12.1707    1.0000 </r>
       <r>  -12.1705    1.0000 </r>
       <r>  -12.0972    1.0000 </r>
       <r>  -12.0963    1.0000 </r>
       <r>  -12.0916    1.0000 </r>
       <r>  -12.0892    1.0000 </r>
       <r>  -12.0850    1.0000 </r>
       <r>  -12.0813    1.0000 </r>
       <r>  -11.9511    1.0000 </r>
       <r>  -11.9480    1.0000 </r>
       <r>  -11.9469    1.0000 </r>
       <r>  -11.9435    1.0000 </r>
       <r>  -11.8169    1.0000 </r>
       <r>  -11.8139    1.0000 </r>
       <r>  -11.8079    1.0000 </r>
       <r>  -11.8073    1.0000 </r>
       <r>  -11.8045    1.0000 </r>
       <r>  -11.8034    1.0000 </r>
       <r>  -11.7851    1.0000 </r>
       <r>  -11.7849    1.0000 </r>
       <r>  -11.7796    1.0000 </r>
       <r>  -11.7794    1.0000 </r>
       <r>  -11.6691    1.0000 </r>
       <r>  -11.6680    1.0000 </r>
       <r>  -11.6649    1.0000 </r>
       <r>  -11.6564    1.0000 </r>
       <r>   -8.3631    1.0000 </r>
       <r>   -7.2840    1.0000 </r>
       <r>   -7.2708    1.0000 </r>
       <r>   -6.7937    1.0000 </r>
       <r>   -6.7047    1.0000 </r>
       <r>   -6.6828    1.0000 </r>
       <r>   -6.4379    1.0000 </r>
       <r>   -6.4061    1.0000 </r>
       <r>   -6.3219    1.0000 </r>
       <r>   -6.3088    1.0000 </r>
       <r>   -6.3060    1.0000 </r>
       <r>   -6.3040    1.0000 </r>
       <r>   -6.2993    1.0000 </r>
       <r>   -6.2869    1.0000 </r>
       <r>   -6.2756    1.0000 </r>
       <r>   -6.2749    1.0000 </r>
       <r>   -6.2689    1.0000 </r>
       <r>   -6.2685    1.0000 </r>
       <r>   -6.2158    1.0000 </r>
       <r>   -6.2156    1.0000 </r>
       <r>   -6.2120    1.0000 </r>
       <r>   -6.2074    1.0000 </r>
       <r>   -6.1959    1.0000 </r>
       <r>   -6.1950    1.0000 </r>
       <r>   -6.1590    1.0000 </r>
       <r>   -6.1586    1.0000 </r>
       <r>   -6.1531    1.0000 </r>
       <r>   -6.1465    1.0000 </r>
       <r>   -6.0724    1.0000 </r>
       <r>   -6.0706    1.0000 </r>
       <r>   -5.9353    1.0000 </r>
       <r>   -5.9278    1.0000 </r>
       <r>   -5.9108    1.0000 </r>
       <r>   -5.9036    1.0000 </r>
       <r>   -5.8439    1.0000 </r>
       <r>   -5.7894    1.0000 </r>
       <r>   -5.7809    1.0000 </r>
       <r>   -5.7718    1.0000 </r>
       <r>   -5.7695    1.0000 </r>
       <r>   -5.7686    1.0000 </r>
       <r>   -5.7640    1.0000 </r>
       <r>   -5.7616    1.0000 </r>
       <r>   -5.7586    1.0000 </r>
       <r>   -5.7582    1.0000 </r>
       <r>   -5.7576    1.0000 </r>
       <r>   -5.7508    1.0000 </r>
       <r>   -5.7393    1.0000 </r>
       <r>   -5.6845    1.0000 </r>
       <r>   -5.6542    1.0000 </r>
       <r>   -5.6418    1.0000 </r>
       <r>   -5.6245    1.0000 </r>
       <r>   -5.6234    1.0000 </r>
       <r>   -5.6207    1.0000 </r>
       <r>   -5.6182    1.0000 </r>
       <r>   -5.2293    1.0000 </r>
       <r>   -5.2271    1.0000 </r>
       <r>   -5.2246    1.0000 </r>
       <r>   -5.2243    1.0000 </r>
       <r>   -5.2238    1.0000 </r>
       <r>   -5.2200    1.0000 </r>
       <r>   -5.2191    1.0000 </r>
       <r>   -5.2191    1.0000 </r>
       <r>   -5.2182    1.0000 </r>
       <r>   -5.2177    1.0000 </r>
       <r>   -5.2174    1.0000 </r>
       <r>   -5.2170    1.0000 </r>
       <r>   -5.1148    1.0000 </r>
       <r>   -5.1103    1.0000 </r>
       <r>   -5.0969    1.0000 </r>
       <r>   -5.0907    1.0000 </r>
       <r>   -5.0892    1.0000 </r>
       <r>   -5.0877    1.0000 </r>
       <r>   -5.0861    1.0000 </r>
       <r>   -5.0838    1.0000 </r>
       <r>   -5.0261    1.0000 </r>
       <r>   -4.9211    1.0000 </r>
       <r>   -4.8318    1.0000 </r>
       <r>   -4.6117    1.0000 </r>
       <r>   -4.5543    1.0000 </r>
       <r>   -4.5412    1.0000 </r>
       <r>   -4.4755    1.0000 </r>
       <r>   -4.4730    1.0000 </r>
       <r>   -4.4721    1.0000 </r>
       <r>   -4.4711    1.0000 </r>
       <r>   -4.4706    1.0000 </r>
       <r>   -4.4695    1.0000 </r>
       <r>   -4.4682    1.0000 </r>
       <r>   -4.4679    1.0000 </r>
       <r>   -4.3442    1.0000 </r>
       <r>   -4.3416    1.0000 </r>
       <r>   -4.3397    1.0000 </r>
       <r>   -4.3361    1.0000 </r>
       <r>   -4.3164    1.0000 </r>
       <r>   -4.2889    1.0000 </r>
       <r>   -4.2018    1.0000 </r>
       <r>   -4.0979    1.0000 </r>
       <r>   -4.0878    1.0000 </r>
       <r>   -4.0876    1.0000 </r>
       <r>   -4.0844    1.0000 </r>
       <r>   -4.0835    1.0000 </r>
       <r>   -4.0747    1.0000 </r>
       <r>   -4.0745    1.0000 </r>
       <r>   -4.0715    1.0000 </r>
       <r>   -4.0704    1.0000 </r>
       <r>   -4.0288    1.0000 </r>
       <r>   -3.9510    1.0000 </r>
       <r>   -3.9498    1.0000 </r>
       <r>   -3.9469    1.0000 </r>
       <r>   -3.9452    1.0000 </r>
       <r>   -3.9093    1.0000 </r>
       <r>   -3.8654    1.0000 </r>
       <r>   -3.7857    1.0000 </r>
       <r>   -3.6233    1.0000 </r>
       <r>   -3.6206    1.0000 </r>
       <r>   -3.6157    1.0000 </r>
       <r>   -3.6142    1.0000 </r>
       <r>   -3.6081    1.0000 </r>
       <r>   -3.6035    1.0000 </r>
       <r>   -3.6020    1.0000 </r>
       <r>   -3.5983    1.0000 </r>
       <r>   -3.5977    1.0000 </r>
       <r>   -3.4801    1.0000 </r>
       <r>   -3.4783    1.0000 </r>
       <r>   -3.4783    1.0000 </r>
       <r>   -3.4773    1.0000 </r>
       <r>   -3.4744    1.0000 </r>
       <r>   -3.4681    1.0000 </r>
       <r>   -3.4673    1.0000 </r>
       <r>   -3.4660    1.0000 </r>
       <r>   -3.4651    1.0000 </r>
       <r>   -3.3903    1.0000 </r>
       <r>   -3.3587    1.0000 </r>
       <r>   -3.3472    1.0000 </r>
       <r>   -3.3402    1.0000 </r>
       <r>   -3.3393    1.0000 </r>
       <r>   -3.3389    1.0000 </r>
       <r>   -3.3360    1.0000 </r>
       <r>   -3.1562    1.0000 </r>
       <r>   -3.0974    1.0000 </r>
       <r>   -3.0775    1.0000 </r>
       <r>   -3.0729    1.0000 </r>
       <r>   -3.0727    1.0000 </r>
       <r>   -3.0661    1.0000 </r>
       <r>   -3.0030    1.0000 </r>
       <r>   -3.0001    1.0000 </r>
       <r>   -2.9919    1.0000 </r>
       <r>   -2.9398    1.0000 </r>
       <r>   -2.9383    1.0000 </r>
       <r>   -2.8560    1.0000 </r>
       <r>   -2.8427    1.0000 </r>
       <r>   -2.7699    1.0000 </r>
       <r>   -2.7661    1.0000 </r>
       <r>   -2.7563    1.0000 </r>
       <r>   -2.7266    1.0000 </r>
       <r>   -2.6769    1.0000 </r>
       <r>   -2.6739    1.0000 </r>
       <r>   -2.6723    1.0000 </r>
       <r>   -2.6628    1.0000 </r>
       <r>   -2.6423    1.0000 </r>
       <r>   -2.5484    1.0000 </r>
       <r>   -2.5459    1.0000 </r>
       <r>   -2.5425    1.0000 </r>
       <r>   -2.5177    1.0000 </r>
       <r>   -2.4675    1.0000 </r>
       <r>   -2.3929    1.0000 </r>
       <r>   -2.3874    1.0000 </r>
       <r>   -2.3775    1.0000 </r>
       <r>   -2.3747    1.0000 </r>
       <r>   -2.3731    1.0000 </r>
       <r>   -2.3720    1.0000 </r>
       <r>   -2.3717    1.0000 </r>
       <r>   -2.3709    1.0000 </r>
       <r>   -2.3701    1.0000 </r>
       <r>   -2.3681    1.0000 </r>
       <r>   -2.3662    1.0000 </r>
       <r>   -2.3470    1.0000 </r>
       <r>   -2.2860    1.0000 </r>
       <r>   -2.2644    1.0000 </r>
       <r>   -2.2574    1.0000 </r>
       <r>   -2.2473    1.0000 </r>
       <r>   -2.2418    1.0000 </r>
       <r>   -2.2398    1.0000 </r>
       <r>   -2.2379    1.0000 </r>
       <r>   -2.2369    1.0000 </r>
       <r>   -2.2086    1.0000 </r>
       <r>   -2.2081    1.0000 </r>
       <r>   -2.1996    1.0000 </r>
       <r>   -2.1646    1.0000 </r>
       <r>   -2.1586    1.0000 </r>
       <r>   -2.1441    1.0000 </r>
       <r>   -2.1263    1.0000 </r>
       <r>   -2.0989    1.0000 </r>
       <r>   -2.0914    1.0000 </r>
       <r>   -2.0909    1.0000 </r>
       <r>   -2.0859    1.0000 </r>
       <r>   -2.0854    1.0000 </r>
       <r>   -2.0577    1.0000 </r>
       <r>   -2.0574    1.0000 </r>
       <r>   -2.0511    1.0000 </r>
       <r>   -2.0509    1.0000 </r>
       <r>   -2.0103    1.0000 </r>
       <r>   -1.9642    1.0000 </r>
       <r>   -1.9433    1.0000 </r>
       <r>   -1.9428    1.0000 </r>
       <r>   -1.9362    1.0000 </r>
       <r>   -1.9348    1.0000 </r>
       <r>   -1.9320    1.0000 </r>
       <r>   -1.9290    1.0000 </r>
       <r>   -1.9062    1.0000 </r>
       <r>   -1.9053    1.0000 </r>
       <r>   -1.8963    1.0000 </r>
       <r>   -1.8835    1.0000 </r>
       <r>   -1.8631    1.0000 </r>
       <r>   -1.8604    1.0000 </r>
       <r>   -1.8598    1.0000 </r>
       <r>   -1.8585    1.0000 </r>
       <r>   -1.8576    1.0000 </r>
       <r>   -1.8567    1.0000 </r>
       <r>   -1.8561    1.0000 </r>
       <r>   -1.8549    1.0000 </r>
       <r>   -1.7785    1.0000 </r>
       <r>   -1.7785    1.0000 </r>
       <r>   -1.7777    1.0000 </r>
       <r>   -1.7776    1.0000 </r>
       <r>   -1.7743    1.0000 </r>
       <r>   -1.7741    1.0000 </r>
       <r>   -1.7728    1.0000 </r>
       <r>   -1.7727    1.0000 </r>
       <r>   -1.7477    1.0000 </r>
       <r>   -1.7430    1.0000 </r>
       <r>   -1.7413    1.0000 </r>
       <r>   -1.7404    1.0000 </r>
       <r>   -1.7153    1.0000 </r>
       <r>   -1.7085    1.0000 </r>
       <r>   -1.6884    1.0000 </r>
       <r>   -1.6616    1.0000 </r>
       <r>   -1.6468    1.0000 </r>
       <r>   -1.6457    1.0000 </r>
       <r>   -1.6444    1.0000 </r>
       <r>   -1.6399    1.0000 </r>
       <r>   -1.6102    1.0000 </r>
       <r>   -1.6083    1.0000 </r>
       <r>   -1.5861    1.0000 </r>
       <r>   -1.5839    1.0000 </r>
       <r>   -1.5796    1.0000 </r>
       <r>   -1.5598    1.0000 </r>
       <r>   -1.5551    1.0000 </r>
       <r>   -1.5500    1.0000 </r>
       <r>   -1.4640    1.0000 </r>
       <r>   -1.4492    1.0000 </r>
       <r>   -1.4410    1.0000 </r>
       <r>   -1.4343    1.0000 </r>
       <r>   -1.2640    1.0000 </r>
       <r>   -1.2554    1.0000 </r>
       <r>   -1.2529    1.0000 </r>
       <r>   -1.2360    1.0000 </r>
       <r>   -1.2351    1.0000 </r>
       <r>   -1.2245    1.0000 </r>
       <r>   -1.2236    1.0000 </r>
       <r>   -1.2093    1.0000 </r>
       <r>   -1.2069    1.0000 </r>
       <r>   -1.2067    1.0000 </r>
       <r>   -1.2061    1.0000 </r>
       <r>   -1.1944    1.0000 </r>
       <r>   -1.1882    1.0000 </r>
       <r>   -1.1877    1.0000 </r>
       <r>   -1.1856    1.0000 </r>
       <r>   -1.1586    1.0000 </r>
       <r>   -1.1196    1.0000 </r>
       <r>   -1.0892    1.0000 </r>
       <r>   -1.0887    1.0000 </r>
       <r>   -1.0830    1.0000 </r>
       <r>   -1.0753    1.0000 </r>
       <r>   -1.0562    1.0000 </r>
       <r>   -1.0158    1.0000 </r>
       <r>   -0.9347    1.0000 </r>
       <r>   -0.9307    1.0000 </r>
       <r>   -0.9142    1.0000 </r>
       <r>   -0.9112    1.0000 </r>
       <r>   -0.9089    1.0000 </r>
       <r>   -0.8574    1.0000 </r>
       <r>   -0.8453    1.0000 </r>
       <r>   -0.8354    1.0000 </r>
       <r>   -0.7765    1.0000 </r>
       <r>   -0.7323    1.0000 </r>
       <r>   -0.7086    1.0000 </r>
       <r>   -0.7057    1.0000 </r>
       <r>   -0.6564    1.0000 </r>
       <r>   -0.6389    1.0000 </r>
       <r>   -0.5975    1.0000 </r>
       <r>   -0.5949    1.0000 </r>
       <r>   -0.5300    1.0000 </r>
       <r>   -0.5184    1.0000 </r>
       <r>   -0.5176    1.0000 </r>
       <r>   -0.5152    1.0000 </r>
       <r>   -0.5141    1.0000 </r>
       <r>   -0.4617    1.0000 </r>
       <r>   -0.4579    1.0000 </r>
       <r>   -0.4577    1.0000 </r>
       <r>   -0.4567    1.0000 </r>
       <r>   -0.4535    1.0000 </r>
       <r>   -0.4530    1.0000 </r>
       <r>   -0.4529    1.0000 </r>
       <r>   -0.4488    1.0000 </r>
       <r>   -0.4179    1.0000 </r>
       <r>   -0.3897    1.0000 </r>
       <r>   -0.3820    1.0000 </r>
       <r>   -0.3767    1.0000 </r>
       <r>   -0.3522    1.0000 </r>
       <r>   -0.3494    1.0000 </r>
       <r>   -0.3475    1.0000 </r>
       <r>   -0.3464    1.0000 </r>
       <r>   -0.3297    1.0000 </r>
       <r>   -0.3268    1.0000 </r>
       <r>   -0.3251    1.0000 </r>
       <r>   -0.3206    1.0000 </r>
       <r>   -0.2800    1.0000 </r>
       <r>   -0.2645    1.0000 </r>
       <r>   -0.2643    1.0000 </r>
       <r>   -0.2575    1.0000 </r>
       <r>   -0.2568    1.0000 </r>
       <r>   -0.2542    1.0000 </r>
       <r>   -0.2525    1.0000 </r>
       <r>   -0.2285    1.0000 </r>
       <r>   -0.2246    1.0000 </r>
       <r>   -0.2179    1.0000 </r>
       <r>   -0.2135    1.0000 </r>
       <r>   -0.1418    1.0000 </r>
       <r>   -0.1406    1.0000 </r>
       <r>   -0.0465    1.0000 </r>
       <r>   -0.0087    1.0000 </r>
       <r>    0.0014    1.0000 </r>
       <r>    0.0079    1.0000 </r>
       <r>    0.0121    1.0000 </r>
       <r>    0.0182    1.0000 </r>
       <r>    0.0187    1.0000 </r>
       <r>    0.0343    1.0000 </r>
       <r>    0.0359    1.0000 </r>
       <r>    0.0498    1.0000 </r>
       <r>    0.1868    1.0000 </r>
       <r>    0.2770    1.0000 </r>
       <r>    0.3159    1.0000 </r>
       <r>    0.3398    1.0000 </r>
       <r>    0.3432    1.0000 </r>
       <r>    0.3452    1.0000 </r>
       <r>    0.3487    1.0000 </r>
       <r>    0.3507    1.0000 </r>
       <r>    0.3947    1.0000 </r>
       <r>    0.4205    1.0000 </r>
       <r>    0.4765    1.0000 </r>
       <r>    0.4820    1.0000 </r>
       <r>    0.4889    1.0000 </r>
       <r>    0.5091    1.0000 </r>
       <r>    0.5572    1.0000 </r>
       <r>    0.5587    1.0000 </r>
       <r>    0.5655    1.0000 </r>
       <r>    0.5773    1.0000 </r>
       <r>    0.5869    1.0000 </r>
       <r>    0.5885    1.0000 </r>
       <r>    0.6152    1.0000 </r>
       <r>    0.6298    1.0000 </r>
       <r>    0.6524    1.0000 </r>
       <r>    0.6936    1.0000 </r>
       <r>    0.7091    1.0000 </r>
       <r>    0.7279    1.0000 </r>
       <r>    0.7284    1.0000 </r>
       <r>    0.8523    1.0000 </r>
       <r>    0.8550    1.0000 </r>
       <r>    0.8567    1.0000 </r>
       <r>    0.8628    1.0000 </r>
       <r>    0.8636    1.0000 </r>
       <r>    0.8653    1.0000 </r>
       <r>    0.8664    1.0000 </r>
       <r>    0.8739    1.0000 </r>
       <r>    0.8752    1.0000 </r>
       <r>    0.8766    1.0000 </r>
       <r>    0.8836    1.0000 </r>
       <r>    0.8858    1.0000 </r>
       <r>    0.8923    1.0000 </r>
       <r>    0.8938    1.0000 </r>
       <r>    0.9047    1.0000 </r>
       <r>    0.9057    1.0000 </r>
       <r>    0.9946    1.0000 </r>
       <r>    0.9969    1.0000 </r>
       <r>    1.0578    1.0000 </r>
       <r>    1.0653    1.0000 </r>
       <r>    1.0778    1.0000 </r>
       <r>    1.0790    1.0000 </r>
       <r>    1.0935    1.0000 </r>
       <r>    1.0946    1.0000 </r>
       <r>    1.1008    1.0000 </r>
       <r>    1.1079    1.0000 </r>
       <r>    1.1116    1.0000 </r>
       <r>    1.2446    1.0000 </r>
       <r>    1.2592    1.0000 </r>
       <r>    1.3040    1.0000 </r>
       <r>    1.4353    1.0000 </r>
       <r>    1.4469    1.0000 </r>
       <r>    1.4545    1.0000 </r>
       <r>    1.4627    1.0000 </r>
       <r>    1.5918    1.0000 </r>
       <r>    1.6012    1.0000 </r>
       <r>    1.6027    1.0000 </r>
       <r>    1.6050    1.0000 </r>
       <r>    1.6141    1.0000 </r>
       <r>    1.6219    1.0000 </r>
       <r>    1.6527    1.0000 </r>
       <r>    1.6659    1.0000 </r>
       <r>    1.7129    1.0000 </r>
       <r>    1.7130    1.0000 </r>
       <r>    1.7669    1.0000 </r>
       <r>    1.7736    1.0000 </r>
       <r>    1.8428    1.0000 </r>
       <r>    1.8509    1.0000 </r>
       <r>    1.8561    1.0000 </r>
       <r>    1.8627    1.0000 </r>
       <r>    1.8656    1.0000 </r>
       <r>    1.8706    1.0000 </r>
       <r>    1.8775    1.0000 </r>
       <r>    1.8810    1.0000 </r>
       <r>    1.9867    1.0000 </r>
       <r>    2.0019    1.0000 </r>
       <r>    2.1866    1.0000 </r>
       <r>    2.1885    1.0000 </r>
       <r>    2.1957    1.0000 </r>
       <r>    2.1991    1.0000 </r>
       <r>    2.2063    1.0000 </r>
       <r>    2.2103    1.0000 </r>
       <r>    2.3785    1.0000 </r>
       <r>    2.3826    1.0000 </r>
       <r>    2.3890    1.0000 </r>
       <r>    2.3894    1.0000 </r>
       <r>    4.6561    1.0000 </r>
       <r>    5.9202    0.0000 </r>
       <r>    6.6054    0.0000 </r>
       <r>    6.6229    0.0000 </r>
       <r>    6.6277    0.0000 </r>
       <r>    6.8743    0.0000 </r>
       <r>    6.9350    0.0000 </r>
       <r>    7.0012    0.0000 </r>
       <r>    7.0141    0.0000 </r>
       <r>    7.0451    0.0000 </r>
       <r>    7.0544    0.0000 </r>
       <r>    7.0683    0.0000 </r>
       <r>    7.0805    0.0000 </r>
       <r>    7.1072    0.0000 </r>
       <r>    7.1152    0.0000 </r>
       <r>    7.1439    0.0000 </r>
       <r>    7.1457    0.0000 </r>
       <r>    7.2308    0.0000 </r>
       <r>    7.2646    0.0000 </r>
       <r>    7.2652    0.0000 </r>
       <r>    7.2862    0.0000 </r>
       <r>    7.2864    0.0000 </r>
       <r>    7.4229    0.0000 </r>
       <r>    7.4494    0.0000 </r>
       <r>    7.4568    0.0000 </r>
       <r>    7.4746    0.0000 </r>
       <r>    7.4832    0.0000 </r>
       <r>    7.5674    0.0000 </r>
       <r>    7.5724    0.0000 </r>
       <r>    7.6149    0.0000 </r>
       <r>    7.6465    0.0000 </r>
       <r>    7.6597    0.0000 </r>
       <r>    7.6641    0.0000 </r>
       <r>    7.6658    0.0000 </r>
       <r>    7.6679    0.0000 </r>
       <r>    7.6844    0.0000 </r>
       <r>    7.7021    0.0000 </r>
       <r>    7.7334    0.0000 </r>
       <r>    7.7356    0.0000 </r>
       <r>    7.7817    0.0000 </r>
       <r>    7.8437    0.0000 </r>
       <r>    7.8756    0.0000 </r>
       <r>    7.8967    0.0000 </r>
       <r>    7.9698    0.0000 </r>
       <r>    7.9765    0.0000 </r>
       <r>    8.0029    0.0000 </r>
       <r>    8.0059    0.0000 </r>
       <r>    8.0819    0.0000 </r>
       <r>    8.0961    0.0000 </r>
       <r>    8.0991    0.0000 </r>
       <r>    8.1903    0.0000 </r>
       <r>    8.2100    0.0000 </r>
       <r>    8.2340    0.0000 </r>
       <r>    8.2811    0.0000 </r>
       <r>    8.3354    0.0000 </r>
       <r>    8.3375    0.0000 </r>
       <r>    8.3620    0.0000 </r>
       <r>    8.4657    0.0000 </r>
       <r>    8.4789    0.0000 </r>
       <r>    8.4888    0.0000 </r>
       <r>    8.4934    0.0000 </r>
       <r>    8.4975    0.0000 </r>
       <r>    8.5082    0.0000 </r>
       <r>    8.5088    0.0000 </r>
       <r>    8.5105    0.0000 </r>
       <r>    8.5343    0.0000 </r>
       <r>    8.5578    0.0000 </r>
       <r>    8.5636    0.0000 </r>
       <r>    8.6268    0.0000 </r>
       <r>    8.7570    0.0000 </r>
       <r>    8.8115    0.0000 </r>
       <r>    8.8787    0.0000 </r>
       <r>    8.8977    0.0000 </r>
       <r>    8.9156    0.0000 </r>
       <r>    8.9643    0.0000 </r>
       <r>    9.0016    0.0000 </r>
       <r>    9.0082    0.0000 </r>
       <r>    9.0167    0.0000 </r>
       <r>    9.0175    0.0000 </r>
       <r>    9.0217    0.0000 </r>
       <r>    9.0289    0.0000 </r>
       <r>    9.0926    0.0000 </r>
       <r>    9.1308    0.0000 </r>
       <r>    9.1629    0.0000 </r>
       <r>    9.1639    0.0000 </r>
       <r>    9.1778    0.0000 </r>
       <r>    9.2068    0.0000 </r>
       <r>    9.2089    0.0000 </r>
       <r>    9.2108    0.0000 </r>
       <r>    9.3014    0.0000 </r>
       <r>    9.3159    0.0000 </r>
       <r>    9.3987    0.0000 </r>
       <r>    9.4265    0.0000 </r>
       <r>    9.4417    0.0000 </r>
       <r>    9.4462    0.0000 </r>
       <r>    9.5813    0.0000 </r>
       <r>    9.6015    0.0000 </r>
       <r>    9.6030    0.0000 </r>
       <r>    9.6062    0.0000 </r>
       <r>    9.6077    0.0000 </r>
       <r>    9.6125    0.0000 </r>
       <r>    9.6355    0.0000 </r>
       <r>    9.6712    0.0000 </r>
       <r>    9.7065    0.0000 </r>
       <r>    9.7108    0.0000 </r>
       <r>    9.7290    0.0000 </r>
       <r>    9.7366    0.0000 </r>
       <r>    9.7727    0.0000 </r>
       <r>    9.8164    0.0000 </r>
       <r>    9.8251    0.0000 </r>
       <r>    9.9223    0.0000 </r>
       <r>    9.9248    0.0000 </r>
       <r>    9.9368    0.0000 </r>
       <r>    9.9650    0.0000 </r>
       <r>    9.9678    0.0000 </r>
       <r>   10.0290    0.0000 </r>
       <r>   10.0643    0.0000 </r>
       <r>   10.1007    0.0000 </r>
       <r>   10.1009    0.0000 </r>
       <r>   10.3002    0.0000 </r>
       <r>   10.3387    0.0000 </r>
       <r>   10.4251    0.0000 </r>
       <r>   10.4255    0.0000 </r>
       <r>   10.5250    0.0000 </r>
       <r>   10.5266    0.0000 </r>
       <r>   10.5482    0.0000 </r>
       <r>   10.5509    0.0000 </r>
       <r>   10.8617    0.0000 </r>
       <r>   10.9837    0.0000 </r>
       <r>   11.2070    0.0000 </r>
       <r>   11.2132    0.0000 </r>
       <r>   11.2761    0.0000 </r>
       <r>   11.4027    0.0000 </r>
       <r>   11.4123    0.0000 </r>
       <r>   11.4345    0.0000 </r>
       <r>   11.4703    0.0000 </r>
       <r>   11.5009    0.0000 </r>
       <r>   11.5252    0.0000 </r>
       <r>   11.5392    0.0000 </r>
       <r>   11.5763    0.0000 </r>
       <r>   11.5904    0.0000 </r>
       <r>   11.5997    0.0000 </r>
       <r>   11.6104    0.0000 </r>
       <r>   11.6221    0.0000 </r>
       <r>   11.6678    0.0000 </r>
       <r>   11.7447    0.0000 </r>
       <r>   11.7996    0.0000 </r>
       <r>   11.8498    0.0000 </r>
       <r>   11.8726    0.0000 </r>
       <r>   11.9234    0.0000 </r>
       <r>   12.0035    0.0000 </r>
       <r>   12.0322    0.0000 </r>
      </set>
      <set comment="kpoint 8">
       <r>  -17.2937    1.0000 </r>
       <r>  -15.7753    1.0000 </r>
       <r>  -15.7302    1.0000 </r>
       <r>  -15.4171    1.0000 </r>
       <r>  -15.3047    1.0000 </r>
       <r>  -15.2758    1.0000 </r>
       <r>  -15.2414    1.0000 </r>
       <r>  -15.2053    1.0000 </r>
       <r>  -15.1442    1.0000 </r>
       <r>  -15.0918    1.0000 </r>
       <r>  -15.0610    1.0000 </r>
       <r>  -15.0360    1.0000 </r>
       <r>  -15.0135    1.0000 </r>
       <r>  -14.9848    1.0000 </r>
       <r>  -14.9838    1.0000 </r>
       <r>  -14.9070    1.0000 </r>
       <r>  -14.9002    1.0000 </r>
       <r>  -14.8554    1.0000 </r>
       <r>  -14.7589    1.0000 </r>
       <r>  -14.7568    1.0000 </r>
       <r>  -14.6189    1.0000 </r>
       <r>  -14.5678    1.0000 </r>
       <r>  -14.5517    1.0000 </r>
       <r>  -14.4673    1.0000 </r>
       <r>  -14.4621    1.0000 </r>
       <r>  -14.4602    1.0000 </r>
       <r>  -14.4585    1.0000 </r>
       <r>  -14.4248    1.0000 </r>
       <r>  -14.4027    1.0000 </r>
       <r>  -14.3960    1.0000 </r>
       <r>  -14.3855    1.0000 </r>
       <r>  -14.3436    1.0000 </r>
       <r>  -14.2506    1.0000 </r>
       <r>  -14.2445    1.0000 </r>
       <r>  -14.2426    1.0000 </r>
       <r>  -14.2418    1.0000 </r>
       <r>  -14.2074    1.0000 </r>
       <r>  -14.2065    1.0000 </r>
       <r>  -14.1718    1.0000 </r>
       <r>  -14.1497    1.0000 </r>
       <r>  -14.1112    1.0000 </r>
       <r>  -14.0358    1.0000 </r>
       <r>  -13.9998    1.0000 </r>
       <r>  -13.9955    1.0000 </r>
       <r>  -13.9483    1.0000 </r>
       <r>  -13.7880    1.0000 </r>
       <r>  -13.7423    1.0000 </r>
       <r>  -13.7410    1.0000 </r>
       <r>  -13.7113    1.0000 </r>
       <r>  -13.7107    1.0000 </r>
       <r>  -13.7035    1.0000 </r>
       <r>  -13.6820    1.0000 </r>
       <r>  -13.6575    1.0000 </r>
       <r>  -13.6550    1.0000 </r>
       <r>  -13.6047    1.0000 </r>
       <r>  -13.5366    1.0000 </r>
       <r>  -13.5328    1.0000 </r>
       <r>  -13.5174    1.0000 </r>
       <r>  -13.5158    1.0000 </r>
       <r>  -13.5056    1.0000 </r>
       <r>  -13.3597    1.0000 </r>
       <r>  -13.3379    1.0000 </r>
       <r>  -13.2555    1.0000 </r>
       <r>  -13.2232    1.0000 </r>
       <r>  -13.1102    1.0000 </r>
       <r>  -13.0685    1.0000 </r>
       <r>  -13.0643    1.0000 </r>
       <r>  -13.0618    1.0000 </r>
       <r>  -13.0606    1.0000 </r>
       <r>  -13.0334    1.0000 </r>
       <r>  -13.0266    1.0000 </r>
       <r>  -13.0230    1.0000 </r>
       <r>  -13.0166    1.0000 </r>
       <r>  -12.9742    1.0000 </r>
       <r>  -12.9292    1.0000 </r>
       <r>  -12.8948    1.0000 </r>
       <r>  -12.8925    1.0000 </r>
       <r>  -12.8898    1.0000 </r>
       <r>  -12.8882    1.0000 </r>
       <r>  -12.8799    1.0000 </r>
       <r>  -12.8774    1.0000 </r>
       <r>  -12.8769    1.0000 </r>
       <r>  -12.8757    1.0000 </r>
       <r>  -12.8666    1.0000 </r>
       <r>  -12.8602    1.0000 </r>
       <r>  -12.8561    1.0000 </r>
       <r>  -12.8508    1.0000 </r>
       <r>  -12.8506    1.0000 </r>
       <r>  -12.7194    1.0000 </r>
       <r>  -12.7154    1.0000 </r>
       <r>  -12.7145    1.0000 </r>
       <r>  -12.7104    1.0000 </r>
       <r>  -12.6837    1.0000 </r>
       <r>  -12.6100    1.0000 </r>
       <r>  -12.5986    1.0000 </r>
       <r>  -12.5770    1.0000 </r>
       <r>  -12.5730    1.0000 </r>
       <r>  -12.5511    1.0000 </r>
       <r>  -12.5333    1.0000 </r>
       <r>  -12.4985    1.0000 </r>
       <r>  -12.4377    1.0000 </r>
       <r>  -12.4311    1.0000 </r>
       <r>  -12.4248    1.0000 </r>
       <r>  -12.4214    1.0000 </r>
       <r>  -12.3424    1.0000 </r>
       <r>  -12.3387    1.0000 </r>
       <r>  -12.3222    1.0000 </r>
       <r>  -12.3172    1.0000 </r>
       <r>  -12.2467    1.0000 </r>
       <r>  -12.2451    1.0000 </r>
       <r>  -12.2370    1.0000 </r>
       <r>  -12.2327    1.0000 </r>
       <r>  -12.2183    1.0000 </r>
       <r>  -12.2176    1.0000 </r>
       <r>  -12.2079    1.0000 </r>
       <r>  -12.2050    1.0000 </r>
       <r>  -12.1799    1.0000 </r>
       <r>  -12.1745    1.0000 </r>
       <r>  -12.1709    1.0000 </r>
       <r>  -12.1706    1.0000 </r>
       <r>  -12.1007    1.0000 </r>
       <r>  -12.0942    1.0000 </r>
       <r>  -12.0891    1.0000 </r>
       <r>  -12.0858    1.0000 </r>
       <r>  -12.0849    1.0000 </r>
       <r>  -12.0828    1.0000 </r>
       <r>  -11.9512    1.0000 </r>
       <r>  -11.9478    1.0000 </r>
       <r>  -11.9468    1.0000 </r>
       <r>  -11.9434    1.0000 </r>
       <r>  -11.8171    1.0000 </r>
       <r>  -11.8143    1.0000 </r>
       <r>  -11.8085    1.0000 </r>
       <r>  -11.8076    1.0000 </r>
       <r>  -11.8049    1.0000 </r>
       <r>  -11.8038    1.0000 </r>
       <r>  -11.7850    1.0000 </r>
       <r>  -11.7845    1.0000 </r>
       <r>  -11.7793    1.0000 </r>
       <r>  -11.7791    1.0000 </r>
       <r>  -11.6743    1.0000 </r>
       <r>  -11.6675    1.0000 </r>
       <r>  -11.6603    1.0000 </r>
       <r>  -11.6567    1.0000 </r>
       <r>   -8.3631    1.0000 </r>
       <r>   -7.2840    1.0000 </r>
       <r>   -7.2708    1.0000 </r>
       <r>   -6.7936    1.0000 </r>
       <r>   -6.7046    1.0000 </r>
       <r>   -6.6828    1.0000 </r>
       <r>   -6.4380    1.0000 </r>
       <r>   -6.4062    1.0000 </r>
       <r>   -6.3220    1.0000 </r>
       <r>   -6.3091    1.0000 </r>
       <r>   -6.3064    1.0000 </r>
       <r>   -6.3043    1.0000 </r>
       <r>   -6.2995    1.0000 </r>
       <r>   -6.2870    1.0000 </r>
       <r>   -6.2753    1.0000 </r>
       <r>   -6.2744    1.0000 </r>
       <r>   -6.2686    1.0000 </r>
       <r>   -6.2681    1.0000 </r>
       <r>   -6.2158    1.0000 </r>
       <r>   -6.2156    1.0000 </r>
       <r>   -6.2119    1.0000 </r>
       <r>   -6.2074    1.0000 </r>
       <r>   -6.1959    1.0000 </r>
       <r>   -6.1950    1.0000 </r>
       <r>   -6.1631    1.0000 </r>
       <r>   -6.1587    1.0000 </r>
       <r>   -6.1481    1.0000 </r>
       <r>   -6.1455    1.0000 </r>
       <r>   -6.0736    1.0000 </r>
       <r>   -6.0711    1.0000 </r>
       <r>   -5.9356    1.0000 </r>
       <r>   -5.9282    1.0000 </r>
       <r>   -5.9106    1.0000 </r>
       <r>   -5.9033    1.0000 </r>
       <r>   -5.8439    1.0000 </r>
       <r>   -5.7923    1.0000 </r>
       <r>   -5.7804    1.0000 </r>
       <r>   -5.7718    1.0000 </r>
       <r>   -5.7698    1.0000 </r>
       <r>   -5.7688    1.0000 </r>
       <r>   -5.7640    1.0000 </r>
       <r>   -5.7618    1.0000 </r>
       <r>   -5.7585    1.0000 </r>
       <r>   -5.7579    1.0000 </r>
       <r>   -5.7577    1.0000 </r>
       <r>   -5.7507    1.0000 </r>
       <r>   -5.7393    1.0000 </r>
       <r>   -5.6844    1.0000 </r>
       <r>   -5.6541    1.0000 </r>
       <r>   -5.6418    1.0000 </r>
       <r>   -5.6261    1.0000 </r>
       <r>   -5.6236    1.0000 </r>
       <r>   -5.6193    1.0000 </r>
       <r>   -5.6171    1.0000 </r>
       <r>   -5.2293    1.0000 </r>
       <r>   -5.2271    1.0000 </r>
       <r>   -5.2246    1.0000 </r>
       <r>   -5.2242    1.0000 </r>
       <r>   -5.2238    1.0000 </r>
       <r>   -5.2199    1.0000 </r>
       <r>   -5.2191    1.0000 </r>
       <r>   -5.2191    1.0000 </r>
       <r>   -5.2182    1.0000 </r>
       <r>   -5.2176    1.0000 </r>
       <r>   -5.2173    1.0000 </r>
       <r>   -5.2170    1.0000 </r>
       <r>   -5.1148    1.0000 </r>
       <r>   -5.1103    1.0000 </r>
       <r>   -5.0943    1.0000 </r>
       <r>   -5.0917    1.0000 </r>
       <r>   -5.0888    1.0000 </r>
       <r>   -5.0878    1.0000 </r>
       <r>   -5.0858    1.0000 </r>
       <r>   -5.0815    1.0000 </r>
       <r>   -5.0261    1.0000 </r>
       <r>   -4.9211    1.0000 </r>
       <r>   -4.8319    1.0000 </r>
       <r>   -4.6117    1.0000 </r>
       <r>   -4.5543    1.0000 </r>
       <r>   -4.5412    1.0000 </r>
       <r>   -4.4756    1.0000 </r>
       <r>   -4.4730    1.0000 </r>
       <r>   -4.4722    1.0000 </r>
       <r>   -4.4711    1.0000 </r>
       <r>   -4.4706    1.0000 </r>
       <r>   -4.4695    1.0000 </r>
       <r>   -4.4682    1.0000 </r>
       <r>   -4.4678    1.0000 </r>
       <r>   -4.3464    1.0000 </r>
       <r>   -4.3423    1.0000 </r>
       <r>   -4.3402    1.0000 </r>
       <r>   -4.3380    1.0000 </r>
       <r>   -4.3164    1.0000 </r>
       <r>   -4.2889    1.0000 </r>
       <r>   -4.2019    1.0000 </r>
       <r>   -4.0978    1.0000 </r>
       <r>   -4.0880    1.0000 </r>
       <r>   -4.0878    1.0000 </r>
       <r>   -4.0845    1.0000 </r>
       <r>   -4.0836    1.0000 </r>
       <r>   -4.0746    1.0000 </r>
       <r>   -4.0744    1.0000 </r>
       <r>   -4.0714    1.0000 </r>
       <r>   -4.0703    1.0000 </r>
       <r>   -4.0287    1.0000 </r>
       <r>   -3.9527    1.0000 </r>
       <r>   -3.9503    1.0000 </r>
       <r>   -3.9466    1.0000 </r>
       <r>   -3.9447    1.0000 </r>
       <r>   -3.9093    1.0000 </r>
       <r>   -3.8654    1.0000 </r>
       <r>   -3.7857    1.0000 </r>
       <r>   -3.6234    1.0000 </r>
       <r>   -3.6207    1.0000 </r>
       <r>   -3.6159    1.0000 </r>
       <r>   -3.6143    1.0000 </r>
       <r>   -3.6079    1.0000 </r>
       <r>   -3.6033    1.0000 </r>
       <r>   -3.6018    1.0000 </r>
       <r>   -3.5981    1.0000 </r>
       <r>   -3.5975    1.0000 </r>
       <r>   -3.4814    1.0000 </r>
       <r>   -3.4793    1.0000 </r>
       <r>   -3.4783    1.0000 </r>
       <r>   -3.4730    1.0000 </r>
       <r>   -3.4715    1.0000 </r>
       <r>   -3.4682    1.0000 </r>
       <r>   -3.4672    1.0000 </r>
       <r>   -3.4660    1.0000 </r>
       <r>   -3.4651    1.0000 </r>
       <r>   -3.3914    1.0000 </r>
       <r>   -3.3577    1.0000 </r>
       <r>   -3.3469    1.0000 </r>
       <r>   -3.3409    1.0000 </r>
       <r>   -3.3405    1.0000 </r>
       <r>   -3.3391    1.0000 </r>
       <r>   -3.3375    1.0000 </r>
       <r>   -3.1562    1.0000 </r>
       <r>   -3.0974    1.0000 </r>
       <r>   -3.0775    1.0000 </r>
       <r>   -3.0728    1.0000 </r>
       <r>   -3.0727    1.0000 </r>
       <r>   -3.0661    1.0000 </r>
       <r>   -3.0037    1.0000 </r>
       <r>   -2.9999    1.0000 </r>
       <r>   -2.9918    1.0000 </r>
       <r>   -2.9376    1.0000 </r>
       <r>   -2.9365    1.0000 </r>
       <r>   -2.8560    1.0000 </r>
       <r>   -2.8424    1.0000 </r>
       <r>   -2.7698    1.0000 </r>
       <r>   -2.7660    1.0000 </r>
       <r>   -2.7563    1.0000 </r>
       <r>   -2.7266    1.0000 </r>
       <r>   -2.6771    1.0000 </r>
       <r>   -2.6739    1.0000 </r>
       <r>   -2.6723    1.0000 </r>
       <r>   -2.6628    1.0000 </r>
       <r>   -2.6421    1.0000 </r>
       <r>   -2.5489    1.0000 </r>
       <r>   -2.5482    1.0000 </r>
       <r>   -2.5446    1.0000 </r>
       <r>   -2.5176    1.0000 </r>
       <r>   -2.4674    1.0000 </r>
       <r>   -2.3928    1.0000 </r>
       <r>   -2.3874    1.0000 </r>
       <r>   -2.3775    1.0000 </r>
       <r>   -2.3746    1.0000 </r>
       <r>   -2.3730    1.0000 </r>
       <r>   -2.3720    1.0000 </r>
       <r>   -2.3717    1.0000 </r>
       <r>   -2.3708    1.0000 </r>
       <r>   -2.3700    1.0000 </r>
       <r>   -2.3681    1.0000 </r>
       <r>   -2.3661    1.0000 </r>
       <r>   -2.3479    1.0000 </r>
       <r>   -2.2861    1.0000 </r>
       <r>   -2.2637    1.0000 </r>
       <r>   -2.2563    1.0000 </r>
       <r>   -2.2437    1.0000 </r>
       <r>   -2.2412    1.0000 </r>
       <r>   -2.2392    1.0000 </r>
       <r>   -2.2370    1.0000 </r>
       <r>   -2.2345    1.0000 </r>
       <r>   -2.2085    1.0000 </r>
       <r>   -2.2081    1.0000 </r>
       <r>   -2.2001    1.0000 </r>
       <r>   -2.1648    1.0000 </r>
       <r>   -2.1589    1.0000 </r>
       <r>   -2.1443    1.0000 </r>
       <r>   -2.1264    1.0000 </r>
       <r>   -2.0987    1.0000 </r>
       <r>   -2.0917    1.0000 </r>
       <r>   -2.0912    1.0000 </r>
       <r>   -2.0861    1.0000 </r>
       <r>   -2.0857    1.0000 </r>
       <r>   -2.0575    1.0000 </r>
       <r>   -2.0570    1.0000 </r>
       <r>   -2.0508    1.0000 </r>
       <r>   -2.0506    1.0000 </r>
       <r>   -2.0104    1.0000 </r>
       <r>   -1.9647    1.0000 </r>
       <r>   -1.9484    1.0000 </r>
       <r>   -1.9434    1.0000 </r>
       <r>   -1.9364    1.0000 </r>
       <r>   -1.9320    1.0000 </r>
       <r>   -1.9312    1.0000 </r>
       <r>   -1.9302    1.0000 </r>
       <r>   -1.9080    1.0000 </r>
       <r>   -1.9044    1.0000 </r>
       <r>   -1.8962    1.0000 </r>
       <r>   -1.8839    1.0000 </r>
       <r>   -1.8631    1.0000 </r>
       <r>   -1.8604    1.0000 </r>
       <r>   -1.8598    1.0000 </r>
       <r>   -1.8585    1.0000 </r>
       <r>   -1.8576    1.0000 </r>
       <r>   -1.8566    1.0000 </r>
       <r>   -1.8562    1.0000 </r>
       <r>   -1.8550    1.0000 </r>
       <r>   -1.7787    1.0000 </r>
       <r>   -1.7786    1.0000 </r>
       <r>   -1.7777    1.0000 </r>
       <r>   -1.7776    1.0000 </r>
       <r>   -1.7744    1.0000 </r>
       <r>   -1.7741    1.0000 </r>
       <r>   -1.7728    1.0000 </r>
       <r>   -1.7728    1.0000 </r>
       <r>   -1.7474    1.0000 </r>
       <r>   -1.7432    1.0000 </r>
       <r>   -1.7419    1.0000 </r>
       <r>   -1.7392    1.0000 </r>
       <r>   -1.7153    1.0000 </r>
       <r>   -1.7085    1.0000 </r>
       <r>   -1.6882    1.0000 </r>
       <r>   -1.6618    1.0000 </r>
       <r>   -1.6498    1.0000 </r>
       <r>   -1.6456    1.0000 </r>
       <r>   -1.6441    1.0000 </r>
       <r>   -1.6429    1.0000 </r>
       <r>   -1.6104    1.0000 </r>
       <r>   -1.6086    1.0000 </r>
       <r>   -1.5861    1.0000 </r>
       <r>   -1.5842    1.0000 </r>
       <r>   -1.5800    1.0000 </r>
       <r>   -1.5597    1.0000 </r>
       <r>   -1.5546    1.0000 </r>
       <r>   -1.5497    1.0000 </r>
       <r>   -1.4640    1.0000 </r>
       <r>   -1.4490    1.0000 </r>
       <r>   -1.4413    1.0000 </r>
       <r>   -1.4283    1.0000 </r>
       <r>   -1.2637    1.0000 </r>
       <r>   -1.2573    1.0000 </r>
       <r>   -1.2533    1.0000 </r>
       <r>   -1.2351    1.0000 </r>
       <r>   -1.2349    1.0000 </r>
       <r>   -1.2246    1.0000 </r>
       <r>   -1.2238    1.0000 </r>
       <r>   -1.2091    1.0000 </r>
       <r>   -1.2068    1.0000 </r>
       <r>   -1.2066    1.0000 </r>
       <r>   -1.2066    1.0000 </r>
       <r>   -1.1943    1.0000 </r>
       <r>   -1.1876    1.0000 </r>
       <r>   -1.1875    1.0000 </r>
       <r>   -1.1853    1.0000 </r>
       <r>   -1.1584    1.0000 </r>
       <r>   -1.1194    1.0000 </r>
       <r>   -1.0947    1.0000 </r>
       <r>   -1.0887    1.0000 </r>
       <r>   -1.0813    1.0000 </r>
       <r>   -1.0795    1.0000 </r>
       <r>   -1.0562    1.0000 </r>
       <r>   -1.0159    1.0000 </r>
       <r>   -0.9349    1.0000 </r>
       <r>   -0.9307    1.0000 </r>
       <r>   -0.9144    1.0000 </r>
       <r>   -0.9102    1.0000 </r>
       <r>   -0.9092    1.0000 </r>
       <r>   -0.8572    1.0000 </r>
       <r>   -0.8453    1.0000 </r>
       <r>   -0.8356    1.0000 </r>
       <r>   -0.7766    1.0000 </r>
       <r>   -0.7324    1.0000 </r>
       <r>   -0.7085    1.0000 </r>
       <r>   -0.7056    1.0000 </r>
       <r>   -0.6563    1.0000 </r>
       <r>   -0.6388    1.0000 </r>
       <r>   -0.5985    1.0000 </r>
       <r>   -0.5938    1.0000 </r>
       <r>   -0.5299    1.0000 </r>
       <r>   -0.5184    1.0000 </r>
       <r>   -0.5173    1.0000 </r>
       <r>   -0.5152    1.0000 </r>
       <r>   -0.5140    1.0000 </r>
       <r>   -0.4618    1.0000 </r>
       <r>   -0.4580    1.0000 </r>
       <r>   -0.4578    1.0000 </r>
       <r>   -0.4567    1.0000 </r>
       <r>   -0.4537    1.0000 </r>
       <r>   -0.4530    1.0000 </r>
       <r>   -0.4528    1.0000 </r>
       <r>   -0.4488    1.0000 </r>
       <r>   -0.4180    1.0000 </r>
       <r>   -0.3853    1.0000 </r>
       <r>   -0.3793    1.0000 </r>
       <r>   -0.3767    1.0000 </r>
       <r>   -0.3520    1.0000 </r>
       <r>   -0.3493    1.0000 </r>
       <r>   -0.3474    1.0000 </r>
       <r>   -0.3463    1.0000 </r>
       <r>   -0.3313    1.0000 </r>
       <r>   -0.3263    1.0000 </r>
       <r>   -0.3252    1.0000 </r>
       <r>   -0.3203    1.0000 </r>
       <r>   -0.2799    1.0000 </r>
       <r>   -0.2643    1.0000 </r>
       <r>   -0.2639    1.0000 </r>
       <r>   -0.2580    1.0000 </r>
       <r>   -0.2559    1.0000 </r>
       <r>   -0.2545    1.0000 </r>
       <r>   -0.2524    1.0000 </r>
       <r>   -0.2244    1.0000 </r>
       <r>   -0.2215    1.0000 </r>
       <r>   -0.2170    1.0000 </r>
       <r>   -0.2138    1.0000 </r>
       <r>   -0.1416    1.0000 </r>
       <r>   -0.1404    1.0000 </r>
       <r>   -0.0465    1.0000 </r>
       <r>   -0.0072    1.0000 </r>
       <r>    0.0006    1.0000 </r>
       <r>    0.0088    1.0000 </r>
       <r>    0.0118    1.0000 </r>
       <r>    0.0149    1.0000 </r>
       <r>    0.0172    1.0000 </r>
       <r>    0.0353    1.0000 </r>
       <r>    0.0368    1.0000 </r>
       <r>    0.0497    1.0000 </r>
       <r>    0.1866    1.0000 </r>
       <r>    0.2770    1.0000 </r>
       <r>    0.3160    1.0000 </r>
       <r>    0.3398    1.0000 </r>
       <r>    0.3432    1.0000 </r>
       <r>    0.3452    1.0000 </r>
       <r>    0.3487    1.0000 </r>
       <r>    0.3507    1.0000 </r>
       <r>    0.3946    1.0000 </r>
       <r>    0.4205    1.0000 </r>
       <r>    0.4719    1.0000 </r>
       <r>    0.4778    1.0000 </r>
       <r>    0.4885    1.0000 </r>
       <r>    0.5104    1.0000 </r>
       <r>    0.5568    1.0000 </r>
       <r>    0.5583    1.0000 </r>
       <r>    0.5656    1.0000 </r>
       <r>    0.5774    1.0000 </r>
       <r>    0.5871    1.0000 </r>
       <r>    0.5888    1.0000 </r>
       <r>    0.6152    1.0000 </r>
       <r>    0.6299    1.0000 </r>
       <r>    0.6526    1.0000 </r>
       <r>    0.6885    1.0000 </r>
       <r>    0.7038    1.0000 </r>
       <r>    0.7278    1.0000 </r>
       <r>    0.7283    1.0000 </r>
       <r>    0.8547    1.0000 </r>
       <r>    0.8548    1.0000 </r>
       <r>    0.8564    1.0000 </r>
       <r>    0.8622    1.0000 </r>
       <r>    0.8646    1.0000 </r>
       <r>    0.8654    1.0000 </r>
       <r>    0.8660    1.0000 </r>
       <r>    0.8737    1.0000 </r>
       <r>    0.8747    1.0000 </r>
       <r>    0.8752    1.0000 </r>
       <r>    0.8840    1.0000 </r>
       <r>    0.8861    1.0000 </r>
       <r>    0.8924    1.0000 </r>
       <r>    0.8940    1.0000 </r>
       <r>    0.9046    1.0000 </r>
       <r>    0.9059    1.0000 </r>
       <r>    0.9958    1.0000 </r>
       <r>    1.0062    1.0000 </r>
       <r>    1.0579    1.0000 </r>
       <r>    1.0631    1.0000 </r>
       <r>    1.0774    1.0000 </r>
       <r>    1.0795    1.0000 </r>
       <r>    1.0936    1.0000 </r>
       <r>    1.0945    1.0000 </r>
       <r>    1.1007    1.0000 </r>
       <r>    1.1091    1.0000 </r>
       <r>    1.1110    1.0000 </r>
       <r>    1.2446    1.0000 </r>
       <r>    1.2591    1.0000 </r>
       <r>    1.3042    1.0000 </r>
       <r>    1.4351    1.0000 </r>
       <r>    1.4467    1.0000 </r>
       <r>    1.4563    1.0000 </r>
       <r>    1.4624    1.0000 </r>
       <r>    1.5915    1.0000 </r>
       <r>    1.6018    1.0000 </r>
       <r>    1.6026    1.0000 </r>
       <r>    1.6056    1.0000 </r>
       <r>    1.6140    1.0000 </r>
       <r>    1.6219    1.0000 </r>
       <r>    1.6526    1.0000 </r>
       <r>    1.6659    1.0000 </r>
       <r>    1.7133    1.0000 </r>
       <r>    1.7134    1.0000 </r>
       <r>    1.7668    1.0000 </r>
       <r>    1.7709    1.0000 </r>
       <r>    1.8459    1.0000 </r>
       <r>    1.8482    1.0000 </r>
       <r>    1.8545    1.0000 </r>
       <r>    1.8628    1.0000 </r>
       <r>    1.8664    1.0000 </r>
       <r>    1.8703    1.0000 </r>
       <r>    1.8786    1.0000 </r>
       <r>    1.8800    1.0000 </r>
       <r>    1.9868    1.0000 </r>
       <r>    2.0020    1.0000 </r>
       <r>    2.1867    1.0000 </r>
       <r>    2.1887    1.0000 </r>
       <r>    2.1965    1.0000 </r>
       <r>    2.1998    1.0000 </r>
       <r>    2.2060    1.0000 </r>
       <r>    2.2101    1.0000 </r>
       <r>    2.3811    1.0000 </r>
       <r>    2.3822    1.0000 </r>
       <r>    2.3866    1.0000 </r>
       <r>    2.3895    1.0000 </r>
       <r>    4.6561    1.0000 </r>
       <r>    5.9202    0.0000 </r>
       <r>    6.6055    0.0000 </r>
       <r>    6.6229    0.0000 </r>
       <r>    6.6276    0.0000 </r>
       <r>    6.8744    0.0000 </r>
       <r>    6.9352    0.0000 </r>
       <r>    7.0011    0.0000 </r>
       <r>    7.0141    0.0000 </r>
       <r>    7.0436    0.0000 </r>
       <r>    7.0541    0.0000 </r>
       <r>    7.0682    0.0000 </r>
       <r>    7.0803    0.0000 </r>
       <r>    7.1080    0.0000 </r>
       <r>    7.1137    0.0000 </r>
       <r>    7.1462    0.0000 </r>
       <r>    7.1472    0.0000 </r>
       <r>    7.2306    0.0000 </r>
       <r>    7.2652    0.0000 </r>
       <r>    7.2654    0.0000 </r>
       <r>    7.2853    0.0000 </r>
       <r>    7.2863    0.0000 </r>
       <r>    7.4231    0.0000 </r>
       <r>    7.4494    0.0000 </r>
       <r>    7.4568    0.0000 </r>
       <r>    7.4748    0.0000 </r>
       <r>    7.4833    0.0000 </r>
       <r>    7.5673    0.0000 </r>
       <r>    7.5723    0.0000 </r>
       <r>    7.6148    0.0000 </r>
       <r>    7.6441    0.0000 </r>
       <r>    7.6610    0.0000 </r>
       <r>    7.6639    0.0000 </r>
       <r>    7.6656    0.0000 </r>
       <r>    7.6677    0.0000 </r>
       <r>    7.6834    0.0000 </r>
       <r>    7.7017    0.0000 </r>
       <r>    7.7312    0.0000 </r>
       <r>    7.7348    0.0000 </r>
       <r>    7.7817    0.0000 </r>
       <r>    7.8440    0.0000 </r>
       <r>    7.8756    0.0000 </r>
       <r>    7.8968    0.0000 </r>
       <r>    7.9708    0.0000 </r>
       <r>    7.9748    0.0000 </r>
       <r>    8.0066    0.0000 </r>
       <r>    8.0073    0.0000 </r>
       <r>    8.0818    0.0000 </r>
       <r>    8.0978    0.0000 </r>
       <r>    8.0988    0.0000 </r>
       <r>    8.1903    0.0000 </r>
       <r>    8.2100    0.0000 </r>
       <r>    8.2341    0.0000 </r>
       <r>    8.2808    0.0000 </r>
       <r>    8.3354    0.0000 </r>
       <r>    8.3377    0.0000 </r>
       <r>    8.3623    0.0000 </r>
       <r>    8.4655    0.0000 </r>
       <r>    8.4803    0.0000 </r>
       <r>    8.4886    0.0000 </r>
       <r>    8.4939    0.0000 </r>
       <r>    8.4968    0.0000 </r>
       <r>    8.5062    0.0000 </r>
       <r>    8.5104    0.0000 </r>
       <r>    8.5118    0.0000 </r>
       <r>    8.5329    0.0000 </r>
       <r>    8.5575    0.0000 </r>
       <r>    8.5629    0.0000 </r>
       <r>    8.6278    0.0000 </r>
       <r>    8.7567    0.0000 </r>
       <r>    8.8115    0.0000 </r>
       <r>    8.8787    0.0000 </r>
       <r>    8.8975    0.0000 </r>
       <r>    8.9157    0.0000 </r>
       <r>    8.9643    0.0000 </r>
       <r>    9.0015    0.0000 </r>
       <r>    9.0082    0.0000 </r>
       <r>    9.0165    0.0000 </r>
       <r>    9.0176    0.0000 </r>
       <r>    9.0217    0.0000 </r>
       <r>    9.0289    0.0000 </r>
       <r>    9.0922    0.0000 </r>
       <r>    9.1324    0.0000 </r>
       <r>    9.1621    0.0000 </r>
       <r>    9.1652    0.0000 </r>
       <r>    9.1773    0.0000 </r>
       <r>    9.2074    0.0000 </r>
       <r>    9.2081    0.0000 </r>
       <r>    9.2100    0.0000 </r>
       <r>    9.3009    0.0000 </r>
       <r>    9.3161    0.0000 </r>
       <r>    9.3987    0.0000 </r>
       <r>    9.4264    0.0000 </r>
       <r>    9.4418    0.0000 </r>
       <r>    9.4463    0.0000 </r>
       <r>    9.5812    0.0000 </r>
       <r>    9.5987    0.0000 </r>
       <r>    9.6019    0.0000 </r>
       <r>    9.6060    0.0000 </r>
       <r>    9.6076    0.0000 </r>
       <r>    9.6126    0.0000 </r>
       <r>    9.6355    0.0000 </r>
       <r>    9.6712    0.0000 </r>
       <r>    9.7069    0.0000 </r>
       <r>    9.7113    0.0000 </r>
       <r>    9.7292    0.0000 </r>
       <r>    9.7360    0.0000 </r>
       <r>    9.7720    0.0000 </r>
       <r>    9.8159    0.0000 </r>
       <r>    9.8252    0.0000 </r>
       <r>    9.9220    0.0000 </r>
       <r>    9.9246    0.0000 </r>
       <r>    9.9367    0.0000 </r>
       <r>    9.9653    0.0000 </r>
       <r>    9.9681    0.0000 </r>
       <r>   10.0286    0.0000 </r>
       <r>   10.0652    0.0000 </r>
       <r>   10.1004    0.0000 </r>
       <r>   10.1017    0.0000 </r>
       <r>   10.3001    0.0000 </r>
       <r>   10.3386    0.0000 </r>
       <r>   10.4254    0.0000 </r>
       <r>   10.4257    0.0000 </r>
       <r>   10.5243    0.0000 </r>
       <r>   10.5263    0.0000 </r>
       <r>   10.5491    0.0000 </r>
       <r>   10.5528    0.0000 </r>
       <r>   10.8625    0.0000 </r>
       <r>   10.9848    0.0000 </r>
       <r>   11.2065    0.0000 </r>
       <r>   11.2113    0.0000 </r>
       <r>   11.2833    0.0000 </r>
       <r>   11.4044    0.0000 </r>
       <r>   11.4176    0.0000 </r>
       <r>   11.4321    0.0000 </r>
       <r>   11.4425    0.0000 </r>
       <r>   11.4852    0.0000 </r>
       <r>   11.5107    0.0000 </r>
       <r>   11.5355    0.0000 </r>
       <r>   11.5758    0.0000 </r>
       <r>   11.5828    0.0000 </r>
       <r>   11.5928    0.0000 </r>
       <r>   11.6118    0.0000 </r>
       <r>   11.6360    0.0000 </r>
       <r>   11.6668    0.0000 </r>
       <r>   11.7017    0.0000 </r>
       <r>   11.7711    0.0000 </r>
       <r>   11.8242    0.0000 </r>
       <r>   11.8718    0.0000 </r>
       <r>   11.9106    0.0000 </r>
       <r>   11.9609    0.0000 </r>
       <r>   12.0530    0.0000 </r>
      </set>
     </set>
     <set comment="spin 2">
      <set comment="kpoint 1">
       <r>  -17.1663    1.0000 </r>
       <r>  -15.6764    1.0000 </r>
       <r>  -15.6763    1.0000 </r>
       <r>  -15.5709    1.0000 </r>
       <r>  -15.3632    1.0000 </r>
       <r>  -15.3442    1.0000 </r>
       <r>  -15.1574    1.0000 </r>
       <r>  -15.1573    1.0000 </r>
       <r>  -15.1528    1.0000 </r>
       <r>  -15.0719    1.0000 </r>
       <r>  -14.8855    1.0000 </r>
       <r>  -14.8719    1.0000 </r>
       <r>  -14.8710    1.0000 </r>
       <r>  -14.8453    1.0000 </r>
       <r>  -14.8193    1.0000 </r>
       <r>  -14.8189    1.0000 </r>
       <r>  -14.8188    1.0000 </r>
       <r>  -14.8170    1.0000 </r>
       <r>  -14.7990    1.0000 </r>
       <r>  -14.7878    1.0000 </r>
       <r>  -14.7873    1.0000 </r>
       <r>  -14.7743    1.0000 </r>
       <r>  -14.7212    1.0000 </r>
       <r>  -14.7205    1.0000 </r>
       <r>  -14.6465    1.0000 </r>
       <r>  -14.6281    1.0000 </r>
       <r>  -14.6252    1.0000 </r>
       <r>  -14.6170    1.0000 </r>
       <r>  -14.6132    1.0000 </r>
       <r>  -14.6025    1.0000 </r>
       <r>  -14.5443    1.0000 </r>
       <r>  -14.2499    1.0000 </r>
       <r>  -14.2499    1.0000 </r>
       <r>  -14.2411    1.0000 </r>
       <r>  -13.9167    1.0000 </r>
       <r>  -13.9166    1.0000 </r>
       <r>  -13.8635    1.0000 </r>
       <r>  -13.8300    1.0000 </r>
       <r>  -13.8296    1.0000 </r>
       <r>  -13.8258    1.0000 </r>
       <r>  -13.8246    1.0000 </r>
       <r>  -13.8124    1.0000 </r>
       <r>  -13.8116    1.0000 </r>
       <r>  -13.8113    1.0000 </r>
       <r>  -13.8064    1.0000 </r>
       <r>  -13.8063    1.0000 </r>
       <r>  -13.8013    1.0000 </r>
       <r>  -13.8012    1.0000 </r>
       <r>  -13.7996    1.0000 </r>
       <r>  -13.7604    1.0000 </r>
       <r>  -13.7549    1.0000 </r>
       <r>  -13.7549    1.0000 </r>
       <r>  -13.6404    1.0000 </r>
       <r>  -13.6349    1.0000 </r>
       <r>  -13.6345    1.0000 </r>
       <r>  -13.6339    1.0000 </r>
       <r>  -13.6333    1.0000 </r>
       <r>  -13.6301    1.0000 </r>
       <r>  -13.3982    1.0000 </r>
       <r>  -13.3972    1.0000 </r>
       <r>  -13.3881    1.0000 </r>
       <r>  -13.3822    1.0000 </r>
       <r>  -13.3819    1.0000 </r>
       <r>  -13.3812    1.0000 </r>
       <r>  -13.3675    1.0000 </r>
       <r>  -13.3634    1.0000 </r>
       <r>  -13.3633    1.0000 </r>
       <r>  -13.3629    1.0000 </r>
       <r>  -13.3628    1.0000 </r>
       <r>  -13.3604    1.0000 </r>
       <r>  -13.2696    1.0000 </r>
       <r>  -13.2689    1.0000 </r>
       <r>  -13.2073    1.0000 </r>
       <r>  -13.2028    1.0000 </r>
       <r>  -13.2017    1.0000 </r>
       <r>  -13.2008    1.0000 </r>
       <r>  -13.1999    1.0000 </r>
       <r>  -13.1951    1.0000 </r>
       <r>  -12.8861    1.0000 </r>
       <r>  -12.8555    1.0000 </r>
       <r>  -12.8555    1.0000 </r>
       <r>  -12.7715    1.0000 </r>
       <r>  -12.6720    1.0000 </r>
       <r>  -12.5885    1.0000 </r>
       <r>  -12.5885    1.0000 </r>
       <r>  -12.5881    1.0000 </r>
       <r>  -12.5326    1.0000 </r>
       <r>  -12.5326    1.0000 </r>
       <r>  -12.4967    1.0000 </r>
       <r>  -12.4966    1.0000 </r>
       <r>  -12.4676    1.0000 </r>
       <r>  -12.3441    1.0000 </r>
       <r>  -12.3393    1.0000 </r>
       <r>  -12.3270    1.0000 </r>
       <r>  -12.3203    1.0000 </r>
       <r>  -12.3157    1.0000 </r>
       <r>  -12.3156    1.0000 </r>
       <r>  -12.3092    1.0000 </r>
       <r>  -12.3088    1.0000 </r>
       <r>  -12.3082    1.0000 </r>
       <r>  -12.3075    1.0000 </r>
       <r>  -12.2996    1.0000 </r>
       <r>  -12.2993    1.0000 </r>
       <r>  -12.2850    1.0000 </r>
       <r>  -12.2846    1.0000 </r>
       <r>  -12.2820    1.0000 </r>
       <r>  -12.2814    1.0000 </r>
       <r>  -12.2753    1.0000 </r>
       <r>  -12.2750    1.0000 </r>
       <r>  -12.2729    1.0000 </r>
       <r>  -12.2726    1.0000 </r>
       <r>  -12.2724    1.0000 </r>
       <r>  -12.2716    1.0000 </r>
       <r>  -12.2618    1.0000 </r>
       <r>  -12.2608    1.0000 </r>
       <r>  -12.1914    1.0000 </r>
       <r>  -12.1902    1.0000 </r>
       <r>  -12.1893    1.0000 </r>
       <r>  -12.1860    1.0000 </r>
       <r>  -12.1851    1.0000 </r>
       <r>  -12.1849    1.0000 </r>
       <r>  -12.1646    1.0000 </r>
       <r>  -12.1572    1.0000 </r>
       <r>  -12.1563    1.0000 </r>
       <r>  -12.1541    1.0000 </r>
       <r>  -12.1520    1.0000 </r>
       <r>  -12.1514    1.0000 </r>
       <r>  -12.1481    1.0000 </r>
       <r>  -12.1440    1.0000 </r>
       <r>  -12.1422    1.0000 </r>
       <r>  -12.1415    1.0000 </r>
       <r>  -12.1381    1.0000 </r>
       <r>  -12.1279    1.0000 </r>
       <r>  -12.0648    1.0000 </r>
       <r>  -12.0614    1.0000 </r>
       <r>  -12.0560    1.0000 </r>
       <r>  -11.9603    1.0000 </r>
       <r>  -11.9603    1.0000 </r>
       <r>  -11.5943    1.0000 </r>
       <r>  -11.5940    1.0000 </r>
       <r>  -11.5939    1.0000 </r>
       <r>  -11.5936    1.0000 </r>
       <r>  -11.4712    1.0000 </r>
       <r>  -11.4660    1.0000 </r>
       <r>   -8.1767    1.0000 </r>
       <r>   -7.2989    1.0000 </r>
       <r>   -7.2989    1.0000 </r>
       <r>   -6.5941    1.0000 </r>
       <r>   -6.5940    1.0000 </r>
       <r>   -6.5330    1.0000 </r>
       <r>   -6.5252    1.0000 </r>
       <r>   -6.5252    1.0000 </r>
       <r>   -6.5234    1.0000 </r>
       <r>   -6.5213    1.0000 </r>
       <r>   -6.5212    1.0000 </r>
       <r>   -6.5030    1.0000 </r>
       <r>   -6.4692    1.0000 </r>
       <r>   -6.3924    1.0000 </r>
       <r>   -6.3898    1.0000 </r>
       <r>   -6.3874    1.0000 </r>
       <r>   -6.3091    1.0000 </r>
       <r>   -6.3090    1.0000 </r>
       <r>   -6.0934    1.0000 </r>
       <r>   -6.0934    1.0000 </r>
       <r>   -6.0272    1.0000 </r>
       <r>   -6.0271    1.0000 </r>
       <r>   -6.0046    1.0000 </r>
       <r>   -5.9865    1.0000 </r>
       <r>   -5.9065    1.0000 </r>
       <r>   -5.9065    1.0000 </r>
       <r>   -5.7144    1.0000 </r>
       <r>   -5.7144    1.0000 </r>
       <r>   -5.7128    1.0000 </r>
       <r>   -5.7127    1.0000 </r>
       <r>   -5.7056    1.0000 </r>
       <r>   -5.7056    1.0000 </r>
       <r>   -5.7040    1.0000 </r>
       <r>   -5.7039    1.0000 </r>
       <r>   -5.6905    1.0000 </r>
       <r>   -5.6900    1.0000 </r>
       <r>   -5.6865    1.0000 </r>
       <r>   -5.6858    1.0000 </r>
       <r>   -5.6820    1.0000 </r>
       <r>   -5.6808    1.0000 </r>
       <r>   -5.6807    1.0000 </r>
       <r>   -5.6796    1.0000 </r>
       <r>   -5.6687    1.0000 </r>
       <r>   -5.6684    1.0000 </r>
       <r>   -5.6681    1.0000 </r>
       <r>   -5.6680    1.0000 </r>
       <r>   -5.6669    1.0000 </r>
       <r>   -5.6666    1.0000 </r>
       <r>   -5.6664    1.0000 </r>
       <r>   -5.6664    1.0000 </r>
       <r>   -5.5753    1.0000 </r>
       <r>   -5.5749    1.0000 </r>
       <r>   -5.5637    1.0000 </r>
       <r>   -5.5617    1.0000 </r>
       <r>   -5.5617    1.0000 </r>
       <r>   -5.5604    1.0000 </r>
       <r>   -5.5587    1.0000 </r>
       <r>   -5.5579    1.0000 </r>
       <r>   -5.5553    1.0000 </r>
       <r>   -5.5539    1.0000 </r>
       <r>   -5.5532    1.0000 </r>
       <r>   -5.5509    1.0000 </r>
       <r>   -5.5471    1.0000 </r>
       <r>   -5.5461    1.0000 </r>
       <r>   -5.5430    1.0000 </r>
       <r>   -5.5382    1.0000 </r>
       <r>   -5.4180    1.0000 </r>
       <r>   -5.4168    1.0000 </r>
       <r>   -5.3587    1.0000 </r>
       <r>   -5.2307    1.0000 </r>
       <r>   -5.1381    1.0000 </r>
       <r>   -5.1380    1.0000 </r>
       <r>   -4.9856    1.0000 </r>
       <r>   -4.9186    1.0000 </r>
       <r>   -4.9186    1.0000 </r>
       <r>   -4.8706    1.0000 </r>
       <r>   -4.7489    1.0000 </r>
       <r>   -4.7489    1.0000 </r>
       <r>   -4.7424    1.0000 </r>
       <r>   -4.7424    1.0000 </r>
       <r>   -4.6191    1.0000 </r>
       <r>   -4.6191    1.0000 </r>
       <r>   -4.4765    1.0000 </r>
       <r>   -4.4765    1.0000 </r>
       <r>   -4.4754    1.0000 </r>
       <r>   -4.4744    1.0000 </r>
       <r>   -4.4743    1.0000 </r>
       <r>   -4.4734    1.0000 </r>
       <r>   -4.4732    1.0000 </r>
       <r>   -4.4732    1.0000 </r>
       <r>   -4.4731    1.0000 </r>
       <r>   -4.4715    1.0000 </r>
       <r>   -4.4714    1.0000 </r>
       <r>   -4.4711    1.0000 </r>
       <r>   -4.3435    1.0000 </r>
       <r>   -4.3418    1.0000 </r>
       <r>   -4.3388    1.0000 </r>
       <r>   -4.3388    1.0000 </r>
       <r>   -4.3356    1.0000 </r>
       <r>   -4.3340    1.0000 </r>
       <r>   -4.1437    1.0000 </r>
       <r>   -4.0360    1.0000 </r>
       <r>   -3.9235    1.0000 </r>
       <r>   -3.9234    1.0000 </r>
       <r>   -3.6229    1.0000 </r>
       <r>   -3.6229    1.0000 </r>
       <r>   -3.5973    1.0000 </r>
       <r>   -3.5851    1.0000 </r>
       <r>   -3.5817    1.0000 </r>
       <r>   -3.5152    1.0000 </r>
       <r>   -3.5151    1.0000 </r>
       <r>   -3.3535    1.0000 </r>
       <r>   -3.3180    1.0000 </r>
       <r>   -3.3179    1.0000 </r>
       <r>   -3.3147    1.0000 </r>
       <r>   -3.3141    1.0000 </r>
       <r>   -3.3029    1.0000 </r>
       <r>   -3.3028    1.0000 </r>
       <r>   -3.2199    1.0000 </r>
       <r>   -3.1818    1.0000 </r>
       <r>   -3.1727    1.0000 </r>
       <r>   -3.1726    1.0000 </r>
       <r>   -3.1701    1.0000 </r>
       <r>   -3.1691    1.0000 </r>
       <r>   -3.1315    1.0000 </r>
       <r>   -3.1020    1.0000 </r>
       <r>   -3.1019    1.0000 </r>
       <r>   -3.1012    1.0000 </r>
       <r>   -3.1009    1.0000 </r>
       <r>   -3.1009    1.0000 </r>
       <r>   -3.1008    1.0000 </r>
       <r>   -3.0921    1.0000 </r>
       <r>   -3.0921    1.0000 </r>
       <r>   -3.0914    1.0000 </r>
       <r>   -3.0911    1.0000 </r>
       <r>   -3.0910    1.0000 </r>
       <r>   -3.0908    1.0000 </r>
       <r>   -3.0491    1.0000 </r>
       <r>   -2.9749    1.0000 </r>
       <r>   -2.9713    1.0000 </r>
       <r>   -2.9690    1.0000 </r>
       <r>   -2.9682    1.0000 </r>
       <r>   -2.9662    1.0000 </r>
       <r>   -2.9629    1.0000 </r>
       <r>   -2.9617    1.0000 </r>
       <r>   -2.9237    1.0000 </r>
       <r>   -2.9236    1.0000 </r>
       <r>   -2.9235    1.0000 </r>
       <r>   -2.9234    1.0000 </r>
       <r>   -2.9165    1.0000 </r>
       <r>   -2.9165    1.0000 </r>
       <r>   -2.9160    1.0000 </r>
       <r>   -2.9158    1.0000 </r>
       <r>   -2.9066    1.0000 </r>
       <r>   -2.9058    1.0000 </r>
       <r>   -2.8998    1.0000 </r>
       <r>   -2.8994    1.0000 </r>
       <r>   -2.8907    1.0000 </r>
       <r>   -2.8906    1.0000 </r>
       <r>   -2.8894    1.0000 </r>
       <r>   -2.8892    1.0000 </r>
       <r>   -2.8794    1.0000 </r>
       <r>   -2.8793    1.0000 </r>
       <r>   -2.8784    1.0000 </r>
       <r>   -2.8783    1.0000 </r>
       <r>   -2.8770    1.0000 </r>
       <r>   -2.8767    1.0000 </r>
       <r>   -2.8765    1.0000 </r>
       <r>   -2.8764    1.0000 </r>
       <r>   -2.7747    1.0000 </r>
       <r>   -2.7726    1.0000 </r>
       <r>   -2.7720    1.0000 </r>
       <r>   -2.7707    1.0000 </r>
       <r>   -2.7686    1.0000 </r>
       <r>   -2.7679    1.0000 </r>
       <r>   -2.7665    1.0000 </r>
       <r>   -2.7635    1.0000 </r>
       <r>   -2.7588    1.0000 </r>
       <r>   -2.7580    1.0000 </r>
       <r>   -2.7567    1.0000 </r>
       <r>   -2.7515    1.0000 </r>
       <r>   -2.5610    1.0000 </r>
       <r>   -2.4539    1.0000 </r>
       <r>   -2.4521    1.0000 </r>
       <r>   -2.3097    1.0000 </r>
       <r>   -2.3091    1.0000 </r>
       <r>   -2.3065    1.0000 </r>
       <r>   -2.2794    1.0000 </r>
       <r>   -2.2790    1.0000 </r>
       <r>   -2.2646    1.0000 </r>
       <r>   -2.2298    1.0000 </r>
       <r>   -2.2293    1.0000 </r>
       <r>   -2.2180    1.0000 </r>
       <r>   -2.2177    1.0000 </r>
       <r>   -2.2122    1.0000 </r>
       <r>   -2.2102    1.0000 </r>
       <r>   -2.0969    1.0000 </r>
       <r>   -2.0881    1.0000 </r>
       <r>   -2.0881    1.0000 </r>
       <r>   -1.9433    1.0000 </r>
       <r>   -1.9433    1.0000 </r>
       <r>   -1.9022    1.0000 </r>
       <r>   -1.9020    1.0000 </r>
       <r>   -1.8940    1.0000 </r>
       <r>   -1.8914    1.0000 </r>
       <r>   -1.8443    1.0000 </r>
       <r>   -1.7800    1.0000 </r>
       <r>   -1.7794    1.0000 </r>
       <r>   -1.7793    1.0000 </r>
       <r>   -1.7133    1.0000 </r>
       <r>   -1.7132    1.0000 </r>
       <r>   -1.7132    1.0000 </r>
       <r>   -1.7111    1.0000 </r>
       <r>   -1.7110    1.0000 </r>
       <r>   -1.7110    1.0000 </r>
       <r>   -1.5831    1.0000 </r>
       <r>   -1.5807    1.0000 </r>
       <r>   -1.5784    1.0000 </r>
       <r>   -1.5474    1.0000 </r>
       <r>   -1.5426    1.0000 </r>
       <r>   -1.5425    1.0000 </r>
       <r>   -1.5214    1.0000 </r>
       <r>   -1.5214    1.0000 </r>
       <r>   -1.5013    1.0000 </r>
       <r>   -1.5013    1.0000 </r>
       <r>   -1.5005    1.0000 </r>
       <r>   -1.4996    1.0000 </r>
       <r>   -1.4995    1.0000 </r>
       <r>   -1.4981    1.0000 </r>
       <r>   -1.4964    1.0000 </r>
       <r>   -1.4961    1.0000 </r>
       <r>   -1.4960    1.0000 </r>
       <r>   -1.4922    1.0000 </r>
       <r>   -1.4921    1.0000 </r>
       <r>   -1.4916    1.0000 </r>
       <r>   -1.4855    1.0000 </r>
       <r>   -1.4855    1.0000 </r>
       <r>   -1.4773    1.0000 </r>
       <r>   -1.3734    1.0000 </r>
       <r>   -1.3695    1.0000 </r>
       <r>   -1.3680    1.0000 </r>
       <r>   -1.3665    1.0000 </r>
       <r>   -1.3652    1.0000 </r>
       <r>   -1.3615    1.0000 </r>
       <r>   -1.3185    1.0000 </r>
       <r>   -1.3182    1.0000 </r>
       <r>   -1.3095    1.0000 </r>
       <r>   -1.2476    1.0000 </r>
       <r>   -1.2392    1.0000 </r>
       <r>   -1.2391    1.0000 </r>
       <r>   -1.1794    1.0000 </r>
       <r>   -1.1779    1.0000 </r>
       <r>   -1.1759    1.0000 </r>
       <r>   -1.1517    1.0000 </r>
       <r>   -1.1513    1.0000 </r>
       <r>   -1.1505    1.0000 </r>
       <r>   -1.1504    1.0000 </r>
       <r>   -1.1504    1.0000 </r>
       <r>   -1.1493    1.0000 </r>
       <r>   -1.1493    1.0000 </r>
       <r>   -1.1492    1.0000 </r>
       <r>   -1.1483    1.0000 </r>
       <r>   -1.1483    1.0000 </r>
       <r>   -1.1481    1.0000 </r>
       <r>   -1.1471    1.0000 </r>
       <r>   -1.1469    1.0000 </r>
       <r>   -1.1463    1.0000 </r>
       <r>   -1.1341    1.0000 </r>
       <r>   -1.1258    1.0000 </r>
       <r>   -1.1153    1.0000 </r>
       <r>   -1.1152    1.0000 </r>
       <r>   -1.1021    1.0000 </r>
       <r>   -1.0263    1.0000 </r>
       <r>   -1.0217    1.0000 </r>
       <r>   -1.0192    1.0000 </r>
       <r>   -1.0190    1.0000 </r>
       <r>   -1.0168    1.0000 </r>
       <r>   -1.0120    1.0000 </r>
       <r>   -0.9615    1.0000 </r>
       <r>   -0.9605    1.0000 </r>
       <r>   -0.9537    1.0000 </r>
       <r>   -0.9482    1.0000 </r>
       <r>   -0.9330    1.0000 </r>
       <r>   -0.9326    1.0000 </r>
       <r>   -0.8700    1.0000 </r>
       <r>   -0.8687    1.0000 </r>
       <r>   -0.8686    1.0000 </r>
       <r>   -0.8624    1.0000 </r>
       <r>   -0.8516    1.0000 </r>
       <r>   -0.8516    1.0000 </r>
       <r>   -0.8500    1.0000 </r>
       <r>   -0.8499    1.0000 </r>
       <r>   -0.8497    1.0000 </r>
       <r>   -0.8495    1.0000 </r>
       <r>   -0.8481    1.0000 </r>
       <r>   -0.8436    1.0000 </r>
       <r>   -0.8434    1.0000 </r>
       <r>   -0.8421    1.0000 </r>
       <r>   -0.8420    1.0000 </r>
       <r>   -0.8332    1.0000 </r>
       <r>   -0.8330    1.0000 </r>
       <r>   -0.8250    1.0000 </r>
       <r>   -0.7270    1.0000 </r>
       <r>   -0.7238    1.0000 </r>
       <r>   -0.7219    1.0000 </r>
       <r>   -0.7218    1.0000 </r>
       <r>   -0.7182    1.0000 </r>
       <r>   -0.7137    1.0000 </r>
       <r>   -0.4522    1.0000 </r>
       <r>   -0.4494    1.0000 </r>
       <r>   -0.3889    1.0000 </r>
       <r>   -0.3430    1.0000 </r>
       <r>   -0.3413    1.0000 </r>
       <r>   -0.3344    1.0000 </r>
       <r>   -0.3336    1.0000 </r>
       <r>   -0.2575    1.0000 </r>
       <r>   -0.2564    1.0000 </r>
       <r>   -0.2564    1.0000 </r>
       <r>   -0.2471    1.0000 </r>
       <r>   -0.2469    1.0000 </r>
       <r>   -0.2435    1.0000 </r>
       <r>   -0.2434    1.0000 </r>
       <r>   -0.2410    1.0000 </r>
       <r>   -0.0875    1.0000 </r>
       <r>   -0.0874    1.0000 </r>
       <r>   -0.0389    1.0000 </r>
       <r>    0.0312    1.0000 </r>
       <r>    0.0324    1.0000 </r>
       <r>    0.0639    1.0000 </r>
       <r>    0.0837    1.0000 </r>
       <r>    0.0882    1.0000 </r>
       <r>    0.0887    1.0000 </r>
       <r>    0.2141    1.0000 </r>
       <r>    0.2154    1.0000 </r>
       <r>    0.2178    1.0000 </r>
       <r>    0.2180    1.0000 </r>
       <r>    0.2189    1.0000 </r>
       <r>    0.2191    1.0000 </r>
       <r>    0.2260    1.0000 </r>
       <r>    0.2264    1.0000 </r>
       <r>    0.2372    1.0000 </r>
       <r>    0.2373    1.0000 </r>
       <r>    0.2384    1.0000 </r>
       <r>    0.2386    1.0000 </r>
       <r>    0.2454    1.0000 </r>
       <r>    0.2466    1.0000 </r>
       <r>    0.3469    1.0000 </r>
       <r>    0.3529    1.0000 </r>
       <r>    0.3551    1.0000 </r>
       <r>    0.3605    1.0000 </r>
       <r>    0.3623    1.0000 </r>
       <r>    0.3706    1.0000 </r>
       <r>    0.4291    1.0000 </r>
       <r>    0.5255    1.0000 </r>
       <r>    0.5666    1.0000 </r>
       <r>    0.5670    1.0000 </r>
       <r>    0.6137    1.0000 </r>
       <r>    0.6143    1.0000 </r>
       <r>    0.6199    1.0000 </r>
       <r>    0.6226    1.0000 </r>
       <r>    0.6336    1.0000 </r>
       <r>    0.6353    1.0000 </r>
       <r>    0.6430    1.0000 </r>
       <r>    0.6434    1.0000 </r>
       <r>    0.6709    1.0000 </r>
       <r>    0.6796    1.0000 </r>
       <r>    0.6839    1.0000 </r>
       <r>    0.6851    1.0000 </r>
       <r>    0.7448    1.0000 </r>
       <r>    0.7449    1.0000 </r>
       <r>    0.8654    1.0000 </r>
       <r>    0.8662    1.0000 </r>
       <r>    0.8744    1.0000 </r>
       <r>    1.0637    1.0000 </r>
       <r>    1.0645    1.0000 </r>
       <r>    1.1340    1.0000 </r>
       <r>    1.1341    1.0000 </r>
       <r>    1.1343    1.0000 </r>
       <r>    1.1344    1.0000 </r>
       <r>    1.1492    1.0000 </r>
       <r>    1.1684    1.0000 </r>
       <r>    1.1961    1.0000 </r>
       <r>    1.1969    1.0000 </r>
       <r>    1.2398    1.0000 </r>
       <r>    1.2448    1.0000 </r>
       <r>    1.2465    1.0000 </r>
       <r>    1.2583    1.0000 </r>
       <r>    1.2632    1.0000 </r>
       <r>    1.2648    1.0000 </r>
       <r>    1.2742    1.0000 </r>
       <r>    1.2758    1.0000 </r>
       <r>    1.2836    1.0000 </r>
       <r>    1.2838    1.0000 </r>
       <r>    1.2851    1.0000 </r>
       <r>    1.2882    1.0000 </r>
       <r>    1.3022    1.0000 </r>
       <r>    1.3023    1.0000 </r>
       <r>    1.3233    1.0000 </r>
       <r>    1.3235    1.0000 </r>
       <r>    1.3340    1.0000 </r>
       <r>    1.3341    1.0000 </r>
       <r>    1.3413    1.0000 </r>
       <r>    1.3435    1.0000 </r>
       <r>    1.4067    1.0000 </r>
       <r>    1.4098    1.0000 </r>
       <r>    1.4112    1.0000 </r>
       <r>    1.4850    1.0000 </r>
       <r>    1.4866    1.0000 </r>
       <r>    1.4867    1.0000 </r>
       <r>    1.8171    1.0000 </r>
       <r>    1.8182    1.0000 </r>
       <r>    1.8461    1.0000 </r>
       <r>    1.8714    1.0000 </r>
       <r>    1.8981    1.0000 </r>
       <r>    1.8990    1.0000 </r>
       <r>    1.9049    1.0000 </r>
       <r>    1.9055    1.0000 </r>
       <r>    1.9297    1.0000 </r>
       <r>    1.9332    1.0000 </r>
       <r>    1.9354    1.0000 </r>
       <r>    1.9359    1.0000 </r>
       <r>    1.9630    1.0000 </r>
       <r>    1.9645    1.0000 </r>
       <r>    1.9677    1.0000 </r>
       <r>    2.0596    1.0000 </r>
       <r>    2.0597    1.0000 </r>
       <r>    2.3349    1.0000 </r>
       <r>    2.3387    1.0000 </r>
       <r>    2.4123    1.0000 </r>
       <r>    2.4143    1.0000 </r>
       <r>    2.5025    1.0000 </r>
       <r>    2.5053    1.0000 </r>
       <r>    5.5524    0.0000 </r>
       <r>    6.5235    0.0000 </r>
       <r>    6.5236    0.0000 </r>
       <r>    6.7098    0.0000 </r>
       <r>    6.7274    0.0000 </r>
       <r>    6.7318    0.0000 </r>
       <r>    7.0222    0.0000 </r>
       <r>    7.0539    0.0000 </r>
       <r>    7.0567    0.0000 </r>
       <r>    7.0871    0.0000 </r>
       <r>    7.0871    0.0000 </r>
       <r>    7.1694    0.0000 </r>
       <r>    7.1695    0.0000 </r>
       <r>    7.1774    0.0000 </r>
       <r>    7.2617    0.0000 </r>
       <r>    7.2862    0.0000 </r>
       <r>    7.2863    0.0000 </r>
       <r>    7.3119    0.0000 </r>
       <r>    7.3555    0.0000 </r>
       <r>    7.3767    0.0000 </r>
       <r>    7.3770    0.0000 </r>
       <r>    7.4036    0.0000 </r>
       <r>    7.4595    0.0000 </r>
       <r>    7.4596    0.0000 </r>
       <r>    7.5455    0.0000 </r>
       <r>    7.5456    0.0000 </r>
       <r>    7.5931    0.0000 </r>
       <r>    7.5966    0.0000 </r>
       <r>    7.5967    0.0000 </r>
       <r>    7.6081    0.0000 </r>
       <r>    7.7347    0.0000 </r>
       <r>    7.7834    0.0000 </r>
       <r>    7.8149    0.0000 </r>
       <r>    7.8166    0.0000 </r>
       <r>    7.8316    0.0000 </r>
       <r>    7.8500    0.0000 </r>
       <r>    7.8500    0.0000 </r>
       <r>    7.8589    0.0000 </r>
       <r>    7.8613    0.0000 </r>
       <r>    7.8752    0.0000 </r>
       <r>    7.8832    0.0000 </r>
       <r>    7.8847    0.0000 </r>
       <r>    7.8861    0.0000 </r>
       <r>    7.8900    0.0000 </r>
       <r>    7.8901    0.0000 </r>
       <r>    7.9067    0.0000 </r>
       <r>    7.9086    0.0000 </r>
       <r>    7.9100    0.0000 </r>
       <r>    7.9147    0.0000 </r>
       <r>    7.9149    0.0000 </r>
       <r>    7.9177    0.0000 </r>
       <r>    7.9234    0.0000 </r>
       <r>    7.9271    0.0000 </r>
       <r>    7.9335    0.0000 </r>
       <r>    7.9337    0.0000 </r>
       <r>    8.0407    0.0000 </r>
       <r>    8.0432    0.0000 </r>
       <r>    8.0444    0.0000 </r>
       <r>    8.3919    0.0000 </r>
       <r>    8.4302    0.0000 </r>
       <r>    8.4316    0.0000 </r>
       <r>    8.4363    0.0000 </r>
       <r>    8.4418    0.0000 </r>
       <r>    8.4425    0.0000 </r>
       <r>    8.4655    0.0000 </r>
       <r>    8.4674    0.0000 </r>
       <r>    8.4800    0.0000 </r>
       <r>    8.4810    0.0000 </r>
       <r>    8.5008    0.0000 </r>
       <r>    8.5021    0.0000 </r>
       <r>    8.5033    0.0000 </r>
       <r>    8.5066    0.0000 </r>
       <r>    8.5378    0.0000 </r>
       <r>    8.5390    0.0000 </r>
       <r>    8.5682    0.0000 </r>
       <r>    8.7657    0.0000 </r>
       <r>    8.9279    0.0000 </r>
       <r>    9.1722    0.0000 </r>
       <r>    9.1723    0.0000 </r>
       <r>    9.2064    0.0000 </r>
       <r>    9.2064    0.0000 </r>
       <r>    9.2296    0.0000 </r>
       <r>    9.3538    0.0000 </r>
       <r>    9.3551    0.0000 </r>
       <r>    9.5118    0.0000 </r>
       <r>    9.5268    0.0000 </r>
       <r>    9.5268    0.0000 </r>
       <r>    9.5291    0.0000 </r>
       <r>    9.5330    0.0000 </r>
       <r>    9.5339    0.0000 </r>
       <r>    9.5363    0.0000 </r>
       <r>    9.5378    0.0000 </r>
       <r>    9.5399    0.0000 </r>
       <r>    9.5419    0.0000 </r>
       <r>    9.6389    0.0000 </r>
       <r>    9.6414    0.0000 </r>
       <r>    9.8934    0.0000 </r>
       <r>    9.9692    0.0000 </r>
       <r>   10.0479    0.0000 </r>
       <r>   10.1225    0.0000 </r>
       <r>   10.1274    0.0000 </r>
       <r>   10.1393    0.0000 </r>
       <r>   10.1399    0.0000 </r>
       <r>   10.1405    0.0000 </r>
       <r>   10.1498    0.0000 </r>
       <r>   10.1597    0.0000 </r>
       <r>   10.1612    0.0000 </r>
       <r>   10.1701    0.0000 </r>
       <r>   10.1716    0.0000 </r>
       <r>   10.2488    0.0000 </r>
       <r>   10.2599    0.0000 </r>
       <r>   10.2987    0.0000 </r>
       <r>   10.2999    0.0000 </r>
       <r>   10.3288    0.0000 </r>
       <r>   10.3300    0.0000 </r>
       <r>   10.3655    0.0000 </r>
       <r>   10.4438    0.0000 </r>
       <r>   10.4460    0.0000 </r>
       <r>   10.4502    0.0000 </r>
       <r>   10.4628    0.0000 </r>
       <r>   10.4634    0.0000 </r>
       <r>   10.4671    0.0000 </r>
       <r>   10.4949    0.0000 </r>
       <r>   10.5160    0.0000 </r>
       <r>   10.5194    0.0000 </r>
       <r>   10.5201    0.0000 </r>
       <r>   10.5208    0.0000 </r>
       <r>   10.5270    0.0000 </r>
       <r>   10.5729    0.0000 </r>
       <r>   10.5750    0.0000 </r>
       <r>   10.5764    0.0000 </r>
       <r>   10.5771    0.0000 </r>
       <r>   10.5827    0.0000 </r>
       <r>   10.5924    0.0000 </r>
       <r>   10.6025    0.0000 </r>
       <r>   10.6062    0.0000 </r>
       <r>   10.6741    0.0000 </r>
       <r>   10.7165    0.0000 </r>
       <r>   10.8246    0.0000 </r>
       <r>   10.8612    0.0000 </r>
       <r>   10.8773    0.0000 </r>
       <r>   10.8818    0.0000 </r>
       <r>   10.8850    0.0000 </r>
       <r>   10.8892    0.0000 </r>
       <r>   10.9066    0.0000 </r>
       <r>   10.9460    0.0000 </r>
       <r>   10.9496    0.0000 </r>
       <r>   10.9580    0.0000 </r>
       <r>   10.9625    0.0000 </r>
       <r>   10.9709    0.0000 </r>
       <r>   12.0666    0.0000 </r>
       <r>   12.2787    0.0000 </r>
      </set>
      <set comment="kpoint 2">
       <r>  -17.1661    1.0000 </r>
       <r>  -15.7432    1.0000 </r>
       <r>  -15.6888    1.0000 </r>
       <r>  -15.4155    1.0000 </r>
       <r>  -15.2954    1.0000 </r>
       <r>  -15.2486    1.0000 </r>
       <r>  -15.2280    1.0000 </r>
       <r>  -15.1910    1.0000 </r>
       <r>  -15.1884    1.0000 </r>
       <r>  -15.0940    1.0000 </r>
       <r>  -15.0550    1.0000 </r>
       <r>  -15.0252    1.0000 </r>
       <r>  -15.0077    1.0000 </r>
       <r>  -14.9542    1.0000 </r>
       <r>  -14.9449    1.0000 </r>
       <r>  -14.9372    1.0000 </r>
       <r>  -14.9358    1.0000 </r>
       <r>  -14.8534    1.0000 </r>
       <r>  -14.7541    1.0000 </r>
       <r>  -14.7513    1.0000 </r>
       <r>  -14.6163    1.0000 </r>
       <r>  -14.5682    1.0000 </r>
       <r>  -14.5437    1.0000 </r>
       <r>  -14.4567    1.0000 </r>
       <r>  -14.4448    1.0000 </r>
       <r>  -14.4437    1.0000 </r>
       <r>  -14.4281    1.0000 </r>
       <r>  -14.4241    1.0000 </r>
       <r>  -14.4200    1.0000 </r>
       <r>  -14.4161    1.0000 </r>
       <r>  -14.4146    1.0000 </r>
       <r>  -14.3451    1.0000 </r>
       <r>  -14.2458    1.0000 </r>
       <r>  -14.2432    1.0000 </r>
       <r>  -14.2398    1.0000 </r>
       <r>  -14.2381    1.0000 </r>
       <r>  -14.2001    1.0000 </r>
       <r>  -14.1916    1.0000 </r>
       <r>  -14.1673    1.0000 </r>
       <r>  -14.1663    1.0000 </r>
       <r>  -14.1141    1.0000 </r>
       <r>  -14.0344    1.0000 </r>
       <r>  -13.9965    1.0000 </r>
       <r>  -13.9944    1.0000 </r>
       <r>  -13.9381    1.0000 </r>
       <r>  -13.7863    1.0000 </r>
       <r>  -13.7353    1.0000 </r>
       <r>  -13.7100    1.0000 </r>
       <r>  -13.7085    1.0000 </r>
       <r>  -13.7066    1.0000 </r>
       <r>  -13.6973    1.0000 </r>
       <r>  -13.6933    1.0000 </r>
       <r>  -13.6740    1.0000 </r>
       <r>  -13.6736    1.0000 </r>
       <r>  -13.5995    1.0000 </r>
       <r>  -13.5314    1.0000 </r>
       <r>  -13.5301    1.0000 </r>
       <r>  -13.5180    1.0000 </r>
       <r>  -13.5127    1.0000 </r>
       <r>  -13.5018    1.0000 </r>
       <r>  -13.3576    1.0000 </r>
       <r>  -13.3335    1.0000 </r>
       <r>  -13.2540    1.0000 </r>
       <r>  -13.2222    1.0000 </r>
       <r>  -13.1123    1.0000 </r>
       <r>  -13.0589    1.0000 </r>
       <r>  -13.0538    1.0000 </r>
       <r>  -13.0514    1.0000 </r>
       <r>  -13.0422    1.0000 </r>
       <r>  -13.0389    1.0000 </r>
       <r>  -13.0373    1.0000 </r>
       <r>  -13.0348    1.0000 </r>
       <r>  -13.0332    1.0000 </r>
       <r>  -12.9737    1.0000 </r>
       <r>  -12.9257    1.0000 </r>
       <r>  -12.8885    1.0000 </r>
       <r>  -12.8855    1.0000 </r>
       <r>  -12.8808    1.0000 </r>
       <r>  -12.8802    1.0000 </r>
       <r>  -12.8762    1.0000 </r>
       <r>  -12.8737    1.0000 </r>
       <r>  -12.8731    1.0000 </r>
       <r>  -12.8704    1.0000 </r>
       <r>  -12.8687    1.0000 </r>
       <r>  -12.8671    1.0000 </r>
       <r>  -12.8634    1.0000 </r>
       <r>  -12.8628    1.0000 </r>
       <r>  -12.8595    1.0000 </r>
       <r>  -12.7181    1.0000 </r>
       <r>  -12.7154    1.0000 </r>
       <r>  -12.7138    1.0000 </r>
       <r>  -12.7097    1.0000 </r>
       <r>  -12.6803    1.0000 </r>
       <r>  -12.6085    1.0000 </r>
       <r>  -12.5913    1.0000 </r>
       <r>  -12.5838    1.0000 </r>
       <r>  -12.5692    1.0000 </r>
       <r>  -12.5548    1.0000 </r>
       <r>  -12.5329    1.0000 </r>
       <r>  -12.4983    1.0000 </r>
       <r>  -12.4353    1.0000 </r>
       <r>  -12.4309    1.0000 </r>
       <r>  -12.4237    1.0000 </r>
       <r>  -12.4186    1.0000 </r>
       <r>  -12.3355    1.0000 </r>
       <r>  -12.3322    1.0000 </r>
       <r>  -12.3276    1.0000 </r>
       <r>  -12.3233    1.0000 </r>
       <r>  -12.2438    1.0000 </r>
       <r>  -12.2415    1.0000 </r>
       <r>  -12.2392    1.0000 </r>
       <r>  -12.2360    1.0000 </r>
       <r>  -12.2168    1.0000 </r>
       <r>  -12.2154    1.0000 </r>
       <r>  -12.2102    1.0000 </r>
       <r>  -12.2081    1.0000 </r>
       <r>  -12.1767    1.0000 </r>
       <r>  -12.1765    1.0000 </r>
       <r>  -12.1692    1.0000 </r>
       <r>  -12.1691    1.0000 </r>
       <r>  -12.0957    1.0000 </r>
       <r>  -12.0955    1.0000 </r>
       <r>  -12.0887    1.0000 </r>
       <r>  -12.0873    1.0000 </r>
       <r>  -12.0861    1.0000 </r>
       <r>  -12.0840    1.0000 </r>
       <r>  -11.9496    1.0000 </r>
       <r>  -11.9475    1.0000 </r>
       <r>  -11.9469    1.0000 </r>
       <r>  -11.9446    1.0000 </r>
       <r>  -11.8178    1.0000 </r>
       <r>  -11.8126    1.0000 </r>
       <r>  -11.8066    1.0000 </r>
       <r>  -11.8062    1.0000 </r>
       <r>  -11.8057    1.0000 </r>
       <r>  -11.8050    1.0000 </r>
       <r>  -11.7841    1.0000 </r>
       <r>  -11.7838    1.0000 </r>
       <r>  -11.7805    1.0000 </r>
       <r>  -11.7802    1.0000 </r>
       <r>  -11.6697    1.0000 </r>
       <r>  -11.6678    1.0000 </r>
       <r>  -11.6644    1.0000 </r>
       <r>  -11.6563    1.0000 </r>
       <r>   -8.1624    1.0000 </r>
       <r>   -7.2498    1.0000 </r>
       <r>   -7.2353    1.0000 </r>
       <r>   -6.7831    1.0000 </r>
       <r>   -6.6995    1.0000 </r>
       <r>   -6.6787    1.0000 </r>
       <r>   -6.4258    1.0000 </r>
       <r>   -6.4019    1.0000 </r>
       <r>   -6.3173    1.0000 </r>
       <r>   -6.3073    1.0000 </r>
       <r>   -6.3052    1.0000 </r>
       <r>   -6.3042    1.0000 </r>
       <r>   -6.2990    1.0000 </r>
       <r>   -6.2839    1.0000 </r>
       <r>   -6.2732    1.0000 </r>
       <r>   -6.2723    1.0000 </r>
       <r>   -6.2708    1.0000 </r>
       <r>   -6.2708    1.0000 </r>
       <r>   -6.2140    1.0000 </r>
       <r>   -6.2131    1.0000 </r>
       <r>   -6.2129    1.0000 </r>
       <r>   -6.2043    1.0000 </r>
       <r>   -6.1975    1.0000 </r>
       <r>   -6.1925    1.0000 </r>
       <r>   -6.1591    1.0000 </r>
       <r>   -6.1583    1.0000 </r>
       <r>   -6.1497    1.0000 </r>
       <r>   -6.1486    1.0000 </r>
       <r>   -6.0740    1.0000 </r>
       <r>   -6.0694    1.0000 </r>
       <r>   -5.9324    1.0000 </r>
       <r>   -5.9304    1.0000 </r>
       <r>   -5.9071    1.0000 </r>
       <r>   -5.9071    1.0000 </r>
       <r>   -5.8366    1.0000 </r>
       <r>   -5.7893    1.0000 </r>
       <r>   -5.7820    1.0000 </r>
       <r>   -5.7698    1.0000 </r>
       <r>   -5.7673    1.0000 </r>
       <r>   -5.7633    1.0000 </r>
       <r>   -5.7624    1.0000 </r>
       <r>   -5.7614    1.0000 </r>
       <r>   -5.7589    1.0000 </r>
       <r>   -5.7568    1.0000 </r>
       <r>   -5.7523    1.0000 </r>
       <r>   -5.7517    1.0000 </r>
       <r>   -5.7376    1.0000 </r>
       <r>   -5.6804    1.0000 </r>
       <r>   -5.6520    1.0000 </r>
       <r>   -5.6393    1.0000 </r>
       <r>   -5.6249    1.0000 </r>
       <r>   -5.6218    1.0000 </r>
       <r>   -5.6200    1.0000 </r>
       <r>   -5.6180    1.0000 </r>
       <r>   -5.2266    1.0000 </r>
       <r>   -5.2255    1.0000 </r>
       <r>   -5.2236    1.0000 </r>
       <r>   -5.2228    1.0000 </r>
       <r>   -5.2214    1.0000 </r>
       <r>   -5.2212    1.0000 </r>
       <r>   -5.2209    1.0000 </r>
       <r>   -5.2205    1.0000 </r>
       <r>   -5.2190    1.0000 </r>
       <r>   -5.2185    1.0000 </r>
       <r>   -5.2179    1.0000 </r>
       <r>   -5.2175    1.0000 </r>
       <r>   -5.1068    1.0000 </r>
       <r>   -5.0953    1.0000 </r>
       <r>   -5.0939    1.0000 </r>
       <r>   -5.0904    1.0000 </r>
       <r>   -5.0888    1.0000 </r>
       <r>   -5.0877    1.0000 </r>
       <r>   -5.0861    1.0000 </r>
       <r>   -5.0839    1.0000 </r>
       <r>   -5.0084    1.0000 </r>
       <r>   -4.9190    1.0000 </r>
       <r>   -4.8269    1.0000 </r>
       <r>   -4.5974    1.0000 </r>
       <r>   -4.5428    1.0000 </r>
       <r>   -4.5346    1.0000 </r>
       <r>   -4.4752    1.0000 </r>
       <r>   -4.4725    1.0000 </r>
       <r>   -4.4715    1.0000 </r>
       <r>   -4.4711    1.0000 </r>
       <r>   -4.4707    1.0000 </r>
       <r>   -4.4691    1.0000 </r>
       <r>   -4.4679    1.0000 </r>
       <r>   -4.4677    1.0000 </r>
       <r>   -4.3455    1.0000 </r>
       <r>   -4.3423    1.0000 </r>
       <r>   -4.3395    1.0000 </r>
       <r>   -4.3366    1.0000 </r>
       <r>   -4.3118    1.0000 </r>
       <r>   -4.1904    1.0000 </r>
       <r>   -4.0919    1.0000 </r>
       <r>   -4.0893    1.0000 </r>
       <r>   -4.0871    1.0000 </r>
       <r>   -4.0869    1.0000 </r>
       <r>   -4.0846    1.0000 </r>
       <r>   -4.0833    1.0000 </r>
       <r>   -4.0740    1.0000 </r>
       <r>   -4.0737    1.0000 </r>
       <r>   -4.0719    1.0000 </r>
       <r>   -4.0707    1.0000 </r>
       <r>   -4.0246    1.0000 </r>
       <r>   -3.9512    1.0000 </r>
       <r>   -3.9499    1.0000 </r>
       <r>   -3.9466    1.0000 </r>
       <r>   -3.9458    1.0000 </r>
       <r>   -3.9073    1.0000 </r>
       <r>   -3.8631    1.0000 </r>
       <r>   -3.7743    1.0000 </r>
       <r>   -3.7444    1.0000 </r>
       <r>   -3.6225    1.0000 </r>
       <r>   -3.6206    1.0000 </r>
       <r>   -3.6152    1.0000 </r>
       <r>   -3.6137    1.0000 </r>
       <r>   -3.6035    1.0000 </r>
       <r>   -3.6029    1.0000 </r>
       <r>   -3.5984    1.0000 </r>
       <r>   -3.5979    1.0000 </r>
       <r>   -3.4817    1.0000 </r>
       <r>   -3.4785    1.0000 </r>
       <r>   -3.4748    1.0000 </r>
       <r>   -3.4723    1.0000 </r>
       <r>   -3.4716    1.0000 </r>
       <r>   -3.4686    1.0000 </r>
       <r>   -3.4683    1.0000 </r>
       <r>   -3.4680    1.0000 </r>
       <r>   -3.4651    1.0000 </r>
       <r>   -3.4646    1.0000 </r>
       <r>   -3.4341    1.0000 </r>
       <r>   -3.3436    1.0000 </r>
       <r>   -3.3383    1.0000 </r>
       <r>   -3.3381    1.0000 </r>
       <r>   -3.1460    1.0000 </r>
       <r>   -3.0896    1.0000 </r>
       <r>   -3.0753    1.0000 </r>
       <r>   -3.0739    1.0000 </r>
       <r>   -3.0700    1.0000 </r>
       <r>   -3.0697    1.0000 </r>
       <r>   -3.0672    1.0000 </r>
       <r>   -2.9871    1.0000 </r>
       <r>   -2.9394    1.0000 </r>
       <r>   -2.9363    1.0000 </r>
       <r>   -2.9011    1.0000 </r>
       <r>   -2.8453    1.0000 </r>
       <r>   -2.8079    1.0000 </r>
       <r>   -2.7636    1.0000 </r>
       <r>   -2.7543    1.0000 </r>
       <r>   -2.7510    1.0000 </r>
       <r>   -2.7476    1.0000 </r>
       <r>   -2.7438    1.0000 </r>
       <r>   -2.7234    1.0000 </r>
       <r>   -2.7231    1.0000 </r>
       <r>   -2.6822    1.0000 </r>
       <r>   -2.6778    1.0000 </r>
       <r>   -2.6686    1.0000 </r>
       <r>   -2.6673    1.0000 </r>
       <r>   -2.6635    1.0000 </r>
       <r>   -2.5441    1.0000 </r>
       <r>   -2.5437    1.0000 </r>
       <r>   -2.5191    1.0000 </r>
       <r>   -2.5162    1.0000 </r>
       <r>   -2.5090    1.0000 </r>
       <r>   -2.4551    1.0000 </r>
       <r>   -2.4234    1.0000 </r>
       <r>   -2.4155    1.0000 </r>
       <r>   -2.3839    1.0000 </r>
       <r>   -2.3758    1.0000 </r>
       <r>   -2.3737    1.0000 </r>
       <r>   -2.3733    1.0000 </r>
       <r>   -2.3724    1.0000 </r>
       <r>   -2.3717    1.0000 </r>
       <r>   -2.3704    1.0000 </r>
       <r>   -2.3697    1.0000 </r>
       <r>   -2.3689    1.0000 </r>
       <r>   -2.3572    1.0000 </r>
       <r>   -2.3546    1.0000 </r>
       <r>   -2.3421    1.0000 </r>
       <r>   -2.3163    1.0000 </r>
       <r>   -2.2584    1.0000 </r>
       <r>   -2.2440    1.0000 </r>
       <r>   -2.2409    1.0000 </r>
       <r>   -2.2400    1.0000 </r>
       <r>   -2.2370    1.0000 </r>
       <r>   -2.2094    1.0000 </r>
       <r>   -2.1727    1.0000 </r>
       <r>   -2.1438    1.0000 </r>
       <r>   -2.1274    1.0000 </r>
       <r>   -2.0886    1.0000 </r>
       <r>   -2.0884    1.0000 </r>
       <r>   -2.0882    1.0000 </r>
       <r>   -2.0878    1.0000 </r>
       <r>   -2.0548    1.0000 </r>
       <r>   -2.0545    1.0000 </r>
       <r>   -2.0539    1.0000 </r>
       <r>   -2.0534    1.0000 </r>
       <r>   -2.0149    1.0000 </r>
       <r>   -2.0121    1.0000 </r>
       <r>   -2.0080    1.0000 </r>
       <r>   -2.0005    1.0000 </r>
       <r>   -1.9818    1.0000 </r>
       <r>   -1.9441    1.0000 </r>
       <r>   -1.9423    1.0000 </r>
       <r>   -1.9347    1.0000 </r>
       <r>   -1.9315    1.0000 </r>
       <r>   -1.8961    1.0000 </r>
       <r>   -1.8696    1.0000 </r>
       <r>   -1.8675    1.0000 </r>
       <r>   -1.8667    1.0000 </r>
       <r>   -1.8654    1.0000 </r>
       <r>   -1.8232    1.0000 </r>
       <r>   -1.8224    1.0000 </r>
       <r>   -1.8219    1.0000 </r>
       <r>   -1.8172    1.0000 </r>
       <r>   -1.8154    1.0000 </r>
       <r>   -1.8141    1.0000 </r>
       <r>   -1.7770    1.0000 </r>
       <r>   -1.7768    1.0000 </r>
       <r>   -1.7758    1.0000 </r>
       <r>   -1.7757    1.0000 </r>
       <r>   -1.7756    1.0000 </r>
       <r>   -1.7753    1.0000 </r>
       <r>   -1.7751    1.0000 </r>
       <r>   -1.7744    1.0000 </r>
       <r>   -1.7634    1.0000 </r>
       <r>   -1.7127    1.0000 </r>
       <r>   -1.7055    1.0000 </r>
       <r>   -1.6995    1.0000 </r>
       <r>   -1.6931    1.0000 </r>
       <r>   -1.6578    1.0000 </r>
       <r>   -1.6493    1.0000 </r>
       <r>   -1.6467    1.0000 </r>
       <r>   -1.6462    1.0000 </r>
       <r>   -1.6439    1.0000 </r>
       <r>   -1.6408    1.0000 </r>
       <r>   -1.6348    1.0000 </r>
       <r>   -1.6159    1.0000 </r>
       <r>   -1.6099    1.0000 </r>
       <r>   -1.6050    1.0000 </r>
       <r>   -1.6034    1.0000 </r>
       <r>   -1.5827    1.0000 </r>
       <r>   -1.5805    1.0000 </r>
       <r>   -1.5794    1.0000 </r>
       <r>   -1.5648    1.0000 </r>
       <r>   -1.5642    1.0000 </r>
       <r>   -1.5561    1.0000 </r>
       <r>   -1.5536    1.0000 </r>
       <r>   -1.5512    1.0000 </r>
       <r>   -1.4773    1.0000 </r>
       <r>   -1.4486    1.0000 </r>
       <r>   -1.4409    1.0000 </r>
       <r>   -1.4313    1.0000 </r>
       <r>   -1.3498    1.0000 </r>
       <r>   -1.3474    1.0000 </r>
       <r>   -1.3363    1.0000 </r>
       <r>   -1.3354    1.0000 </r>
       <r>   -1.2292    1.0000 </r>
       <r>   -1.2290    1.0000 </r>
       <r>   -1.2258    1.0000 </r>
       <r>   -1.2257    1.0000 </r>
       <r>   -1.2117    1.0000 </r>
       <r>   -1.2115    1.0000 </r>
       <r>   -1.2096    1.0000 </r>
       <r>   -1.2083    1.0000 </r>
       <r>   -1.1853    1.0000 </r>
       <r>   -1.0935    1.0000 </r>
       <r>   -1.0903    1.0000 </r>
       <r>   -1.0890    1.0000 </r>
       <r>   -1.0818    1.0000 </r>
       <r>   -1.0498    1.0000 </r>
       <r>   -1.0075    1.0000 </r>
       <r>   -0.9824    1.0000 </r>
       <r>   -0.9294    1.0000 </r>
       <r>   -0.8735    1.0000 </r>
       <r>   -0.8656    1.0000 </r>
       <r>   -0.8452    1.0000 </r>
       <r>   -0.7778    1.0000 </r>
       <r>   -0.7745    1.0000 </r>
       <r>   -0.7491    1.0000 </r>
       <r>   -0.7219    1.0000 </r>
       <r>   -0.7168    1.0000 </r>
       <r>   -0.7096    1.0000 </r>
       <r>   -0.7061    1.0000 </r>
       <r>   -0.7024    1.0000 </r>
       <r>   -0.6771    1.0000 </r>
       <r>   -0.6747    1.0000 </r>
       <r>   -0.6742    1.0000 </r>
       <r>   -0.6719    1.0000 </r>
       <r>   -0.6539    1.0000 </r>
       <r>   -0.6535    1.0000 </r>
       <r>   -0.6530    1.0000 </r>
       <r>   -0.6229    1.0000 </r>
       <r>   -0.5176    1.0000 </r>
       <r>   -0.5166    1.0000 </r>
       <r>   -0.5158    1.0000 </r>
       <r>   -0.5147    1.0000 </r>
       <r>   -0.4620    1.0000 </r>
       <r>   -0.4584    1.0000 </r>
       <r>   -0.4574    1.0000 </r>
       <r>   -0.4569    1.0000 </r>
       <r>   -0.4542    1.0000 </r>
       <r>   -0.4536    1.0000 </r>
       <r>   -0.4529    1.0000 </r>
       <r>   -0.4497    1.0000 </r>
       <r>   -0.4260    1.0000 </r>
       <r>   -0.3992    1.0000 </r>
       <r>   -0.3848    1.0000 </r>
       <r>   -0.3836    1.0000 </r>
       <r>   -0.3762    1.0000 </r>
       <r>   -0.3684    1.0000 </r>
       <r>   -0.3568    1.0000 </r>
       <r>   -0.3539    1.0000 </r>
       <r>   -0.3494    1.0000 </r>
       <r>   -0.3463    1.0000 </r>
       <r>   -0.3426    1.0000 </r>
       <r>   -0.3395    1.0000 </r>
       <r>   -0.3310    1.0000 </r>
       <r>   -0.3272    1.0000 </r>
       <r>   -0.3252    1.0000 </r>
       <r>   -0.3202    1.0000 </r>
       <r>   -0.2757    1.0000 </r>
       <r>   -0.2278    1.0000 </r>
       <r>   -0.2221    1.0000 </r>
       <r>   -0.0984    1.0000 </r>
       <r>   -0.0449    1.0000 </r>
       <r>    0.0263    1.0000 </r>
       <r>    0.0698    1.0000 </r>
       <r>    0.1203    1.0000 </r>
       <r>    0.1580    1.0000 </r>
       <r>    0.1587    1.0000 </r>
       <r>    0.1756    1.0000 </r>
       <r>    0.1870    1.0000 </r>
       <r>    0.2033    1.0000 </r>
       <r>    0.2129    1.0000 </r>
       <r>    0.2139    1.0000 </r>
       <r>    0.2182    1.0000 </r>
       <r>    0.2206    1.0000 </r>
       <r>    0.2408    1.0000 </r>
       <r>    0.2435    1.0000 </r>
       <r>    0.2934    1.0000 </r>
       <r>    0.3188    1.0000 </r>
       <r>    0.3216    1.0000 </r>
       <r>    0.3439    1.0000 </r>
       <r>    0.3449    1.0000 </r>
       <r>    0.3490    1.0000 </r>
       <r>    0.3502    1.0000 </r>
       <r>    0.3692    1.0000 </r>
       <r>    0.3788    1.0000 </r>
       <r>    0.3966    1.0000 </r>
       <r>    0.4551    1.0000 </r>
       <r>    0.4601    1.0000 </r>
       <r>    0.4646    1.0000 </r>
       <r>    0.4652    1.0000 </r>
       <r>    0.4667    1.0000 </r>
       <r>    0.4740    1.0000 </r>
       <r>    0.4775    1.0000 </r>
       <r>    0.4798    1.0000 </r>
       <r>    0.5556    1.0000 </r>
       <r>    0.5599    1.0000 </r>
       <r>    0.5662    1.0000 </r>
       <r>    0.5854    1.0000 </r>
       <r>    0.5899    1.0000 </r>
       <r>    0.6938    1.0000 </r>
       <r>    0.6954    1.0000 </r>
       <r>    0.7031    1.0000 </r>
       <r>    0.7070    1.0000 </r>
       <r>    0.7345    1.0000 </r>
       <r>    0.8102    1.0000 </r>
       <r>    0.8117    1.0000 </r>
       <r>    0.8426    1.0000 </r>
       <r>    0.8556    1.0000 </r>
       <r>    0.8565    1.0000 </r>
       <r>    0.8817    1.0000 </r>
       <r>    0.8842    1.0000 </r>
       <r>    0.8851    1.0000 </r>
       <r>    0.9160    1.0000 </r>
       <r>    0.9938    1.0000 </r>
       <r>    0.9981    1.0000 </r>
       <r>    0.9985    1.0000 </r>
       <r>    1.0029    1.0000 </r>
       <r>    1.0240    1.0000 </r>
       <r>    1.0330    1.0000 </r>
       <r>    1.0881    1.0000 </r>
       <r>    1.1059    1.0000 </r>
       <r>    1.2098    1.0000 </r>
       <r>    1.2109    1.0000 </r>
       <r>    1.2242    1.0000 </r>
       <r>    1.2343    1.0000 </r>
       <r>    1.2482    1.0000 </r>
       <r>    1.2503    1.0000 </r>
       <r>    1.2544    1.0000 </r>
       <r>    1.2643    1.0000 </r>
       <r>    1.3166    1.0000 </r>
       <r>    1.3183    1.0000 </r>
       <r>    1.3671    1.0000 </r>
       <r>    1.3679    1.0000 </r>
       <r>    1.4029    1.0000 </r>
       <r>    1.4051    1.0000 </r>
       <r>    1.4405    1.0000 </r>
       <r>    1.4409    1.0000 </r>
       <r>    1.5038    1.0000 </r>
       <r>    1.5059    1.0000 </r>
       <r>    1.5400    1.0000 </r>
       <r>    1.5852    1.0000 </r>
       <r>    1.5900    1.0000 </r>
       <r>    1.5920    1.0000 </r>
       <r>    1.7666    1.0000 </r>
       <r>    1.7696    1.0000 </r>
       <r>    1.8479    1.0000 </r>
       <r>    1.8558    1.0000 </r>
       <r>    1.8621    1.0000 </r>
       <r>    1.8635    1.0000 </r>
       <r>    1.9195    1.0000 </r>
       <r>    1.9264    1.0000 </r>
       <r>    1.9544    1.0000 </r>
       <r>    1.9595    1.0000 </r>
       <r>    1.9814    1.0000 </r>
       <r>    1.9817    1.0000 </r>
       <r>    2.0244    1.0000 </r>
       <r>    2.0266    1.0000 </r>
       <r>    2.0650    1.0000 </r>
       <r>    2.0687    1.0000 </r>
       <r>    2.0966    1.0000 </r>
       <r>    2.0971    1.0000 </r>
       <r>    2.2255    1.0000 </r>
       <r>    2.2296    1.0000 </r>
       <r>    2.3991    1.0000 </r>
       <r>    2.4017    1.0000 </r>
       <r>    2.4044    1.0000 </r>
       <r>    2.4069    1.0000 </r>
       <r>    5.5533    0.0000 </r>
       <r>    6.6711    0.0000 </r>
       <r>    6.6901    0.0000 </r>
       <r>    6.6927    0.0000 </r>
       <r>    6.7215    0.0000 </r>
       <r>    6.8894    0.0000 </r>
       <r>    6.9313    0.0000 </r>
       <r>    7.0002    0.0000 </r>
       <r>    7.0116    0.0000 </r>
       <r>    7.0878    0.0000 </r>
       <r>    7.0971    0.0000 </r>
       <r>    7.1639    0.0000 </r>
       <r>    7.2136    0.0000 </r>
       <r>    7.2145    0.0000 </r>
       <r>    7.2295    0.0000 </r>
       <r>    7.2568    0.0000 </r>
       <r>    7.2899    0.0000 </r>
       <r>    7.2981    0.0000 </r>
       <r>    7.3073    0.0000 </r>
       <r>    7.3290    0.0000 </r>
       <r>    7.3338    0.0000 </r>
       <r>    7.3413    0.0000 </r>
       <r>    7.3454    0.0000 </r>
       <r>    7.3519    0.0000 </r>
       <r>    7.3612    0.0000 </r>
       <r>    7.3639    0.0000 </r>
       <r>    7.3852    0.0000 </r>
       <r>    7.3866    0.0000 </r>
       <r>    7.3937    0.0000 </r>
       <r>    7.3969    0.0000 </r>
       <r>    7.4300    0.0000 </r>
       <r>    7.4314    0.0000 </r>
       <r>    7.4681    0.0000 </r>
       <r>    7.7060    0.0000 </r>
       <r>    7.7419    0.0000 </r>
       <r>    7.7450    0.0000 </r>
       <r>    7.7495    0.0000 </r>
       <r>    7.7995    0.0000 </r>
       <r>    7.8369    0.0000 </r>
       <r>    7.8605    0.0000 </r>
       <r>    7.8770    0.0000 </r>
       <r>    7.8902    0.0000 </r>
       <r>    7.9091    0.0000 </r>
       <r>    7.9195    0.0000 </r>
       <r>    7.9222    0.0000 </r>
       <r>    7.9620    0.0000 </r>
       <r>    8.0048    0.0000 </r>
       <r>    8.0806    0.0000 </r>
       <r>    8.1244    0.0000 </r>
       <r>    8.1678    0.0000 </r>
       <r>    8.1720    0.0000 </r>
       <r>    8.1750    0.0000 </r>
       <r>    8.1874    0.0000 </r>
       <r>    8.2176    0.0000 </r>
       <r>    8.2230    0.0000 </r>
       <r>    8.2256    0.0000 </r>
       <r>    8.2439    0.0000 </r>
       <r>    8.2560    0.0000 </r>
       <r>    8.2716    0.0000 </r>
       <r>    8.2886    0.0000 </r>
       <r>    8.4379    0.0000 </r>
       <r>    8.5698    0.0000 </r>
       <r>    8.5823    0.0000 </r>
       <r>    8.6012    0.0000 </r>
       <r>    8.6383    0.0000 </r>
       <r>    8.6411    0.0000 </r>
       <r>    8.6497    0.0000 </r>
       <r>    8.6674    0.0000 </r>
       <r>    8.6751    0.0000 </r>
       <r>    8.6846    0.0000 </r>
       <r>    8.6888    0.0000 </r>
       <r>    8.6892    0.0000 </r>
       <r>    8.7342    0.0000 </r>
       <r>    8.9040    0.0000 </r>
       <r>    8.9777    0.0000 </r>
       <r>    9.0018    0.0000 </r>
       <r>    9.0176    0.0000 </r>
       <r>    9.0412    0.0000 </r>
       <r>    9.0839    0.0000 </r>
       <r>    9.1263    0.0000 </r>
       <r>    9.2290    0.0000 </r>
       <r>    9.2514    0.0000 </r>
       <r>    9.2665    0.0000 </r>
       <r>    9.2682    0.0000 </r>
       <r>    9.2804    0.0000 </r>
       <r>    9.2855    0.0000 </r>
       <r>    9.2964    0.0000 </r>
       <r>    9.2996    0.0000 </r>
       <r>    9.3043    0.0000 </r>
       <r>    9.3227    0.0000 </r>
       <r>    9.3267    0.0000 </r>
       <r>    9.3300    0.0000 </r>
       <r>    9.3317    0.0000 </r>
       <r>    9.3969    0.0000 </r>
       <r>    9.4951    0.0000 </r>
       <r>    9.5284    0.0000 </r>
       <r>    9.6518    0.0000 </r>
       <r>    9.6842    0.0000 </r>
       <r>    9.6874    0.0000 </r>
       <r>    9.6901    0.0000 </r>
       <r>    9.6919    0.0000 </r>
       <r>    9.7478    0.0000 </r>
       <r>    9.9094    0.0000 </r>
       <r>   10.0791    0.0000 </r>
       <r>   10.0958    0.0000 </r>
       <r>   10.0980    0.0000 </r>
       <r>   10.1087    0.0000 </r>
       <r>   10.1506    0.0000 </r>
       <r>   10.1723    0.0000 </r>
       <r>   10.1777    0.0000 </r>
       <r>   10.1981    0.0000 </r>
       <r>   10.2001    0.0000 </r>
       <r>   10.2306    0.0000 </r>
       <r>   10.2419    0.0000 </r>
       <r>   10.2846    0.0000 </r>
       <r>   10.3101    0.0000 </r>
       <r>   10.3186    0.0000 </r>
       <r>   10.3769    0.0000 </r>
       <r>   10.3831    0.0000 </r>
       <r>   10.3911    0.0000 </r>
       <r>   10.3944    0.0000 </r>
       <r>   10.4225    0.0000 </r>
       <r>   10.4383    0.0000 </r>
       <r>   10.4453    0.0000 </r>
       <r>   10.4760    0.0000 </r>
       <r>   10.5173    0.0000 </r>
       <r>   10.5406    0.0000 </r>
       <r>   10.6306    0.0000 </r>
       <r>   10.6765    0.0000 </r>
       <r>   10.7229    0.0000 </r>
       <r>   10.7233    0.0000 </r>
       <r>   10.7269    0.0000 </r>
       <r>   10.7335    0.0000 </r>
       <r>   10.7539    0.0000 </r>
       <r>   10.7614    0.0000 </r>
       <r>   10.7656    0.0000 </r>
       <r>   10.7896    0.0000 </r>
       <r>   10.7919    0.0000 </r>
       <r>   10.7948    0.0000 </r>
       <r>   10.8157    0.0000 </r>
       <r>   10.8174    0.0000 </r>
       <r>   11.2448    0.0000 </r>
       <r>   11.2610    0.0000 </r>
       <r>   11.4736    0.0000 </r>
       <r>   11.5050    0.0000 </r>
       <r>   11.5677    0.0000 </r>
       <r>   11.6458    0.0000 </r>
       <r>   11.6945    0.0000 </r>
       <r>   11.7323    0.0000 </r>
       <r>   11.7565    0.0000 </r>
       <r>   11.7879    0.0000 </r>
       <r>   11.9456    0.0000 </r>
      </set>
      <set comment="kpoint 3">
       <r>  -17.1661    1.0000 </r>
       <r>  -15.7432    1.0000 </r>
       <r>  -15.6887    1.0000 </r>
       <r>  -15.4155    1.0000 </r>
       <r>  -15.2953    1.0000 </r>
       <r>  -15.2487    1.0000 </r>
       <r>  -15.2279    1.0000 </r>
       <r>  -15.1910    1.0000 </r>
       <r>  -15.1885    1.0000 </r>
       <r>  -15.0940    1.0000 </r>
       <r>  -15.0550    1.0000 </r>
       <r>  -15.0249    1.0000 </r>
       <r>  -15.0079    1.0000 </r>
       <r>  -14.9545    1.0000 </r>
       <r>  -14.9447    1.0000 </r>
       <r>  -14.9372    1.0000 </r>
       <r>  -14.9358    1.0000 </r>
       <r>  -14.8534    1.0000 </r>
       <r>  -14.7532    1.0000 </r>
       <r>  -14.7523    1.0000 </r>
       <r>  -14.6163    1.0000 </r>
       <r>  -14.5681    1.0000 </r>
       <r>  -14.5437    1.0000 </r>
       <r>  -14.4569    1.0000 </r>
       <r>  -14.4451    1.0000 </r>
       <r>  -14.4426    1.0000 </r>
       <r>  -14.4287    1.0000 </r>
       <r>  -14.4242    1.0000 </r>
       <r>  -14.4200    1.0000 </r>
       <r>  -14.4161    1.0000 </r>
       <r>  -14.4145    1.0000 </r>
       <r>  -14.3451    1.0000 </r>
       <r>  -14.2477    1.0000 </r>
       <r>  -14.2419    1.0000 </r>
       <r>  -14.2397    1.0000 </r>
       <r>  -14.2375    1.0000 </r>
       <r>  -14.1998    1.0000 </r>
       <r>  -14.1920    1.0000 </r>
       <r>  -14.1673    1.0000 </r>
       <r>  -14.1663    1.0000 </r>
       <r>  -14.1140    1.0000 </r>
       <r>  -14.0345    1.0000 </r>
       <r>  -13.9968    1.0000 </r>
       <r>  -13.9938    1.0000 </r>
       <r>  -13.9381    1.0000 </r>
       <r>  -13.7862    1.0000 </r>
       <r>  -13.7351    1.0000 </r>
       <r>  -13.7105    1.0000 </r>
       <r>  -13.7084    1.0000 </r>
       <r>  -13.7065    1.0000 </r>
       <r>  -13.6967    1.0000 </r>
       <r>  -13.6939    1.0000 </r>
       <r>  -13.6741    1.0000 </r>
       <r>  -13.6737    1.0000 </r>
       <r>  -13.5995    1.0000 </r>
       <r>  -13.5304    1.0000 </r>
       <r>  -13.5304    1.0000 </r>
       <r>  -13.5182    1.0000 </r>
       <r>  -13.5135    1.0000 </r>
       <r>  -13.5019    1.0000 </r>
       <r>  -13.3576    1.0000 </r>
       <r>  -13.3335    1.0000 </r>
       <r>  -13.2539    1.0000 </r>
       <r>  -13.2222    1.0000 </r>
       <r>  -13.1123    1.0000 </r>
       <r>  -13.0590    1.0000 </r>
       <r>  -13.0539    1.0000 </r>
       <r>  -13.0509    1.0000 </r>
       <r>  -13.0423    1.0000 </r>
       <r>  -13.0391    1.0000 </r>
       <r>  -13.0374    1.0000 </r>
       <r>  -13.0348    1.0000 </r>
       <r>  -13.0332    1.0000 </r>
       <r>  -12.9737    1.0000 </r>
       <r>  -12.9256    1.0000 </r>
       <r>  -12.8881    1.0000 </r>
       <r>  -12.8847    1.0000 </r>
       <r>  -12.8824    1.0000 </r>
       <r>  -12.8807    1.0000 </r>
       <r>  -12.8749    1.0000 </r>
       <r>  -12.8738    1.0000 </r>
       <r>  -12.8733    1.0000 </r>
       <r>  -12.8702    1.0000 </r>
       <r>  -12.8687    1.0000 </r>
       <r>  -12.8671    1.0000 </r>
       <r>  -12.8633    1.0000 </r>
       <r>  -12.8628    1.0000 </r>
       <r>  -12.8595    1.0000 </r>
       <r>  -12.7185    1.0000 </r>
       <r>  -12.7155    1.0000 </r>
       <r>  -12.7134    1.0000 </r>
       <r>  -12.7098    1.0000 </r>
       <r>  -12.6802    1.0000 </r>
       <r>  -12.6087    1.0000 </r>
       <r>  -12.5910    1.0000 </r>
       <r>  -12.5837    1.0000 </r>
       <r>  -12.5694    1.0000 </r>
       <r>  -12.5549    1.0000 </r>
       <r>  -12.5328    1.0000 </r>
       <r>  -12.4984    1.0000 </r>
       <r>  -12.4353    1.0000 </r>
       <r>  -12.4307    1.0000 </r>
       <r>  -12.4225    1.0000 </r>
       <r>  -12.4193    1.0000 </r>
       <r>  -12.3356    1.0000 </r>
       <r>  -12.3320    1.0000 </r>
       <r>  -12.3276    1.0000 </r>
       <r>  -12.3233    1.0000 </r>
       <r>  -12.2438    1.0000 </r>
       <r>  -12.2419    1.0000 </r>
       <r>  -12.2391    1.0000 </r>
       <r>  -12.2359    1.0000 </r>
       <r>  -12.2170    1.0000 </r>
       <r>  -12.2148    1.0000 </r>
       <r>  -12.2103    1.0000 </r>
       <r>  -12.2083    1.0000 </r>
       <r>  -12.1782    1.0000 </r>
       <r>  -12.1756    1.0000 </r>
       <r>  -12.1694    1.0000 </r>
       <r>  -12.1688    1.0000 </r>
       <r>  -12.0970    1.0000 </r>
       <r>  -12.0963    1.0000 </r>
       <r>  -12.0919    1.0000 </r>
       <r>  -12.0876    1.0000 </r>
       <r>  -12.0842    1.0000 </r>
       <r>  -12.0811    1.0000 </r>
       <r>  -11.9497    1.0000 </r>
       <r>  -11.9476    1.0000 </r>
       <r>  -11.9468    1.0000 </r>
       <r>  -11.9446    1.0000 </r>
       <r>  -11.8167    1.0000 </r>
       <r>  -11.8135    1.0000 </r>
       <r>  -11.8064    1.0000 </r>
       <r>  -11.8060    1.0000 </r>
       <r>  -11.8056    1.0000 </r>
       <r>  -11.8049    1.0000 </r>
       <r>  -11.7841    1.0000 </r>
       <r>  -11.7839    1.0000 </r>
       <r>  -11.7806    1.0000 </r>
       <r>  -11.7803    1.0000 </r>
       <r>  -11.6691    1.0000 </r>
       <r>  -11.6679    1.0000 </r>
       <r>  -11.6649    1.0000 </r>
       <r>  -11.6563    1.0000 </r>
       <r>   -8.1624    1.0000 </r>
       <r>   -7.2498    1.0000 </r>
       <r>   -7.2352    1.0000 </r>
       <r>   -6.7831    1.0000 </r>
       <r>   -6.6996    1.0000 </r>
       <r>   -6.6786    1.0000 </r>
       <r>   -6.4258    1.0000 </r>
       <r>   -6.4019    1.0000 </r>
       <r>   -6.3173    1.0000 </r>
       <r>   -6.3073    1.0000 </r>
       <r>   -6.3051    1.0000 </r>
       <r>   -6.3042    1.0000 </r>
       <r>   -6.2989    1.0000 </r>
       <r>   -6.2839    1.0000 </r>
       <r>   -6.2733    1.0000 </r>
       <r>   -6.2724    1.0000 </r>
       <r>   -6.2711    1.0000 </r>
       <r>   -6.2709    1.0000 </r>
       <r>   -6.2140    1.0000 </r>
       <r>   -6.2131    1.0000 </r>
       <r>   -6.2129    1.0000 </r>
       <r>   -6.2043    1.0000 </r>
       <r>   -6.1974    1.0000 </r>
       <r>   -6.1925    1.0000 </r>
       <r>   -6.1588    1.0000 </r>
       <r>   -6.1584    1.0000 </r>
       <r>   -6.1529    1.0000 </r>
       <r>   -6.1463    1.0000 </r>
       <r>   -6.0722    1.0000 </r>
       <r>   -6.0704    1.0000 </r>
       <r>   -5.9323    1.0000 </r>
       <r>   -5.9304    1.0000 </r>
       <r>   -5.9072    1.0000 </r>
       <r>   -5.9071    1.0000 </r>
       <r>   -5.8366    1.0000 </r>
       <r>   -5.7892    1.0000 </r>
       <r>   -5.7808    1.0000 </r>
       <r>   -5.7695    1.0000 </r>
       <r>   -5.7674    1.0000 </r>
       <r>   -5.7633    1.0000 </r>
       <r>   -5.7624    1.0000 </r>
       <r>   -5.7617    1.0000 </r>
       <r>   -5.7589    1.0000 </r>
       <r>   -5.7568    1.0000 </r>
       <r>   -5.7523    1.0000 </r>
       <r>   -5.7517    1.0000 </r>
       <r>   -5.7375    1.0000 </r>
       <r>   -5.6804    1.0000 </r>
       <r>   -5.6521    1.0000 </r>
       <r>   -5.6394    1.0000 </r>
       <r>   -5.6241    1.0000 </r>
       <r>   -5.6231    1.0000 </r>
       <r>   -5.6203    1.0000 </r>
       <r>   -5.6179    1.0000 </r>
       <r>   -5.2266    1.0000 </r>
       <r>   -5.2254    1.0000 </r>
       <r>   -5.2236    1.0000 </r>
       <r>   -5.2229    1.0000 </r>
       <r>   -5.2213    1.0000 </r>
       <r>   -5.2211    1.0000 </r>
       <r>   -5.2209    1.0000 </r>
       <r>   -5.2205    1.0000 </r>
       <r>   -5.2190    1.0000 </r>
       <r>   -5.2185    1.0000 </r>
       <r>   -5.2180    1.0000 </r>
       <r>   -5.2175    1.0000 </r>
       <r>   -5.1069    1.0000 </r>
       <r>   -5.0971    1.0000 </r>
       <r>   -5.0946    1.0000 </r>
       <r>   -5.0905    1.0000 </r>
       <r>   -5.0888    1.0000 </r>
       <r>   -5.0875    1.0000 </r>
       <r>   -5.0859    1.0000 </r>
       <r>   -5.0837    1.0000 </r>
       <r>   -5.0084    1.0000 </r>
       <r>   -4.9190    1.0000 </r>
       <r>   -4.8269    1.0000 </r>
       <r>   -4.5974    1.0000 </r>
       <r>   -4.5428    1.0000 </r>
       <r>   -4.5347    1.0000 </r>
       <r>   -4.4752    1.0000 </r>
       <r>   -4.4725    1.0000 </r>
       <r>   -4.4715    1.0000 </r>
       <r>   -4.4711    1.0000 </r>
       <r>   -4.4707    1.0000 </r>
       <r>   -4.4691    1.0000 </r>
       <r>   -4.4678    1.0000 </r>
       <r>   -4.4677    1.0000 </r>
       <r>   -4.3441    1.0000 </r>
       <r>   -4.3415    1.0000 </r>
       <r>   -4.3396    1.0000 </r>
       <r>   -4.3360    1.0000 </r>
       <r>   -4.3118    1.0000 </r>
       <r>   -4.1904    1.0000 </r>
       <r>   -4.0919    1.0000 </r>
       <r>   -4.0893    1.0000 </r>
       <r>   -4.0871    1.0000 </r>
       <r>   -4.0869    1.0000 </r>
       <r>   -4.0846    1.0000 </r>
       <r>   -4.0833    1.0000 </r>
       <r>   -4.0740    1.0000 </r>
       <r>   -4.0737    1.0000 </r>
       <r>   -4.0719    1.0000 </r>
       <r>   -4.0708    1.0000 </r>
       <r>   -4.0247    1.0000 </r>
       <r>   -3.9509    1.0000 </r>
       <r>   -3.9497    1.0000 </r>
       <r>   -3.9468    1.0000 </r>
       <r>   -3.9451    1.0000 </r>
       <r>   -3.9073    1.0000 </r>
       <r>   -3.8631    1.0000 </r>
       <r>   -3.7743    1.0000 </r>
       <r>   -3.7445    1.0000 </r>
       <r>   -3.6225    1.0000 </r>
       <r>   -3.6207    1.0000 </r>
       <r>   -3.6151    1.0000 </r>
       <r>   -3.6138    1.0000 </r>
       <r>   -3.6034    1.0000 </r>
       <r>   -3.6029    1.0000 </r>
       <r>   -3.5985    1.0000 </r>
       <r>   -3.5980    1.0000 </r>
       <r>   -3.4800    1.0000 </r>
       <r>   -3.4781    1.0000 </r>
       <r>   -3.4770    1.0000 </r>
       <r>   -3.4742    1.0000 </r>
       <r>   -3.4722    1.0000 </r>
       <r>   -3.4686    1.0000 </r>
       <r>   -3.4682    1.0000 </r>
       <r>   -3.4680    1.0000 </r>
       <r>   -3.4651    1.0000 </r>
       <r>   -3.4645    1.0000 </r>
       <r>   -3.4339    1.0000 </r>
       <r>   -3.3436    1.0000 </r>
       <r>   -3.3389    1.0000 </r>
       <r>   -3.3360    1.0000 </r>
       <r>   -3.1460    1.0000 </r>
       <r>   -3.0896    1.0000 </r>
       <r>   -3.0754    1.0000 </r>
       <r>   -3.0739    1.0000 </r>
       <r>   -3.0700    1.0000 </r>
       <r>   -3.0697    1.0000 </r>
       <r>   -3.0673    1.0000 </r>
       <r>   -2.9871    1.0000 </r>
       <r>   -2.9397    1.0000 </r>
       <r>   -2.9381    1.0000 </r>
       <r>   -2.9014    1.0000 </r>
       <r>   -2.8453    1.0000 </r>
       <r>   -2.8078    1.0000 </r>
       <r>   -2.7636    1.0000 </r>
       <r>   -2.7544    1.0000 </r>
       <r>   -2.7510    1.0000 </r>
       <r>   -2.7480    1.0000 </r>
       <r>   -2.7438    1.0000 </r>
       <r>   -2.7237    1.0000 </r>
       <r>   -2.7231    1.0000 </r>
       <r>   -2.6822    1.0000 </r>
       <r>   -2.6778    1.0000 </r>
       <r>   -2.6686    1.0000 </r>
       <r>   -2.6672    1.0000 </r>
       <r>   -2.6629    1.0000 </r>
       <r>   -2.5446    1.0000 </r>
       <r>   -2.5407    1.0000 </r>
       <r>   -2.5186    1.0000 </r>
       <r>   -2.5162    1.0000 </r>
       <r>   -2.5090    1.0000 </r>
       <r>   -2.4551    1.0000 </r>
       <r>   -2.4234    1.0000 </r>
       <r>   -2.4154    1.0000 </r>
       <r>   -2.3839    1.0000 </r>
       <r>   -2.3759    1.0000 </r>
       <r>   -2.3738    1.0000 </r>
       <r>   -2.3733    1.0000 </r>
       <r>   -2.3724    1.0000 </r>
       <r>   -2.3717    1.0000 </r>
       <r>   -2.3703    1.0000 </r>
       <r>   -2.3698    1.0000 </r>
       <r>   -2.3687    1.0000 </r>
       <r>   -2.3572    1.0000 </r>
       <r>   -2.3546    1.0000 </r>
       <r>   -2.3420    1.0000 </r>
       <r>   -2.3163    1.0000 </r>
       <r>   -2.2585    1.0000 </r>
       <r>   -2.2471    1.0000 </r>
       <r>   -2.2416    1.0000 </r>
       <r>   -2.2396    1.0000 </r>
       <r>   -2.2378    1.0000 </r>
       <r>   -2.2095    1.0000 </r>
       <r>   -2.1727    1.0000 </r>
       <r>   -2.1437    1.0000 </r>
       <r>   -2.1274    1.0000 </r>
       <r>   -2.0885    1.0000 </r>
       <r>   -2.0883    1.0000 </r>
       <r>   -2.0881    1.0000 </r>
       <r>   -2.0877    1.0000 </r>
       <r>   -2.0548    1.0000 </r>
       <r>   -2.0547    1.0000 </r>
       <r>   -2.0540    1.0000 </r>
       <r>   -2.0535    1.0000 </r>
       <r>   -2.0156    1.0000 </r>
       <r>   -2.0128    1.0000 </r>
       <r>   -2.0080    1.0000 </r>
       <r>   -2.0007    1.0000 </r>
       <r>   -1.9809    1.0000 </r>
       <r>   -1.9433    1.0000 </r>
       <r>   -1.9427    1.0000 </r>
       <r>   -1.9347    1.0000 </r>
       <r>   -1.9291    1.0000 </r>
       <r>   -1.8961    1.0000 </r>
       <r>   -1.8696    1.0000 </r>
       <r>   -1.8675    1.0000 </r>
       <r>   -1.8668    1.0000 </r>
       <r>   -1.8652    1.0000 </r>
       <r>   -1.8233    1.0000 </r>
       <r>   -1.8231    1.0000 </r>
       <r>   -1.8210    1.0000 </r>
       <r>   -1.8175    1.0000 </r>
       <r>   -1.8159    1.0000 </r>
       <r>   -1.8139    1.0000 </r>
       <r>   -1.7770    1.0000 </r>
       <r>   -1.7767    1.0000 </r>
       <r>   -1.7758    1.0000 </r>
       <r>   -1.7757    1.0000 </r>
       <r>   -1.7756    1.0000 </r>
       <r>   -1.7753    1.0000 </r>
       <r>   -1.7751    1.0000 </r>
       <r>   -1.7744    1.0000 </r>
       <r>   -1.7632    1.0000 </r>
       <r>   -1.7126    1.0000 </r>
       <r>   -1.7056    1.0000 </r>
       <r>   -1.6992    1.0000 </r>
       <r>   -1.6922    1.0000 </r>
       <r>   -1.6580    1.0000 </r>
       <r>   -1.6470    1.0000 </r>
       <r>   -1.6469    1.0000 </r>
       <r>   -1.6458    1.0000 </r>
       <r>   -1.6444    1.0000 </r>
       <r>   -1.6405    1.0000 </r>
       <r>   -1.6352    1.0000 </r>
       <r>   -1.6165    1.0000 </r>
       <r>   -1.6114    1.0000 </r>
       <r>   -1.6036    1.0000 </r>
       <r>   -1.6029    1.0000 </r>
       <r>   -1.5827    1.0000 </r>
       <r>   -1.5805    1.0000 </r>
       <r>   -1.5796    1.0000 </r>
       <r>   -1.5651    1.0000 </r>
       <r>   -1.5643    1.0000 </r>
       <r>   -1.5561    1.0000 </r>
       <r>   -1.5537    1.0000 </r>
       <r>   -1.5512    1.0000 </r>
       <r>   -1.4767    1.0000 </r>
       <r>   -1.4492    1.0000 </r>
       <r>   -1.4410    1.0000 </r>
       <r>   -1.4343    1.0000 </r>
       <r>   -1.3497    1.0000 </r>
       <r>   -1.3474    1.0000 </r>
       <r>   -1.3358    1.0000 </r>
       <r>   -1.3355    1.0000 </r>
       <r>   -1.2290    1.0000 </r>
       <r>   -1.2289    1.0000 </r>
       <r>   -1.2257    1.0000 </r>
       <r>   -1.2257    1.0000 </r>
       <r>   -1.2119    1.0000 </r>
       <r>   -1.2116    1.0000 </r>
       <r>   -1.2097    1.0000 </r>
       <r>   -1.2082    1.0000 </r>
       <r>   -1.1853    1.0000 </r>
       <r>   -1.0929    1.0000 </r>
       <r>   -1.0924    1.0000 </r>
       <r>   -1.0863    1.0000 </r>
       <r>   -1.0789    1.0000 </r>
       <r>   -1.0497    1.0000 </r>
       <r>   -1.0074    1.0000 </r>
       <r>   -0.9822    1.0000 </r>
       <r>   -0.9295    1.0000 </r>
       <r>   -0.8731    1.0000 </r>
       <r>   -0.8656    1.0000 </r>
       <r>   -0.8452    1.0000 </r>
       <r>   -0.7778    1.0000 </r>
       <r>   -0.7763    1.0000 </r>
       <r>   -0.7470    1.0000 </r>
       <r>   -0.7218    1.0000 </r>
       <r>   -0.7167    1.0000 </r>
       <r>   -0.7095    1.0000 </r>
       <r>   -0.7063    1.0000 </r>
       <r>   -0.7029    1.0000 </r>
       <r>   -0.6762    1.0000 </r>
       <r>   -0.6748    1.0000 </r>
       <r>   -0.6743    1.0000 </r>
       <r>   -0.6725    1.0000 </r>
       <r>   -0.6542    1.0000 </r>
       <r>   -0.6539    1.0000 </r>
       <r>   -0.6533    1.0000 </r>
       <r>   -0.6222    1.0000 </r>
       <r>   -0.5176    1.0000 </r>
       <r>   -0.5167    1.0000 </r>
       <r>   -0.5158    1.0000 </r>
       <r>   -0.5148    1.0000 </r>
       <r>   -0.4619    1.0000 </r>
       <r>   -0.4585    1.0000 </r>
       <r>   -0.4575    1.0000 </r>
       <r>   -0.4569    1.0000 </r>
       <r>   -0.4542    1.0000 </r>
       <r>   -0.4536    1.0000 </r>
       <r>   -0.4529    1.0000 </r>
       <r>   -0.4497    1.0000 </r>
       <r>   -0.4259    1.0000 </r>
       <r>   -0.3989    1.0000 </r>
       <r>   -0.3897    1.0000 </r>
       <r>   -0.3820    1.0000 </r>
       <r>   -0.3759    1.0000 </r>
       <r>   -0.3688    1.0000 </r>
       <r>   -0.3569    1.0000 </r>
       <r>   -0.3538    1.0000 </r>
       <r>   -0.3493    1.0000 </r>
       <r>   -0.3463    1.0000 </r>
       <r>   -0.3426    1.0000 </r>
       <r>   -0.3397    1.0000 </r>
       <r>   -0.3300    1.0000 </r>
       <r>   -0.3271    1.0000 </r>
       <r>   -0.3254    1.0000 </r>
       <r>   -0.3209    1.0000 </r>
       <r>   -0.2757    1.0000 </r>
       <r>   -0.2293    1.0000 </r>
       <r>   -0.2252    1.0000 </r>
       <r>   -0.0991    1.0000 </r>
       <r>   -0.0449    1.0000 </r>
       <r>    0.0259    1.0000 </r>
       <r>    0.0699    1.0000 </r>
       <r>    0.1213    1.0000 </r>
       <r>    0.1575    1.0000 </r>
       <r>    0.1586    1.0000 </r>
       <r>    0.1759    1.0000 </r>
       <r>    0.1870    1.0000 </r>
       <r>    0.2033    1.0000 </r>
       <r>    0.2129    1.0000 </r>
       <r>    0.2136    1.0000 </r>
       <r>    0.2182    1.0000 </r>
       <r>    0.2206    1.0000 </r>
       <r>    0.2396    1.0000 </r>
       <r>    0.2449    1.0000 </r>
       <r>    0.2935    1.0000 </r>
       <r>    0.3188    1.0000 </r>
       <r>    0.3218    1.0000 </r>
       <r>    0.3439    1.0000 </r>
       <r>    0.3448    1.0000 </r>
       <r>    0.3491    1.0000 </r>
       <r>    0.3502    1.0000 </r>
       <r>    0.3707    1.0000 </r>
       <r>    0.3775    1.0000 </r>
       <r>    0.3966    1.0000 </r>
       <r>    0.4551    1.0000 </r>
       <r>    0.4601    1.0000 </r>
       <r>    0.4646    1.0000 </r>
       <r>    0.4652    1.0000 </r>
       <r>    0.4667    1.0000 </r>
       <r>    0.4765    1.0000 </r>
       <r>    0.4775    1.0000 </r>
       <r>    0.4820    1.0000 </r>
       <r>    0.5558    1.0000 </r>
       <r>    0.5601    1.0000 </r>
       <r>    0.5662    1.0000 </r>
       <r>    0.5853    1.0000 </r>
       <r>    0.5897    1.0000 </r>
       <r>    0.6933    1.0000 </r>
       <r>    0.6956    1.0000 </r>
       <r>    0.7069    1.0000 </r>
       <r>    0.7087    1.0000 </r>
       <r>    0.7346    1.0000 </r>
       <r>    0.8094    1.0000 </r>
       <r>    0.8123    1.0000 </r>
       <r>    0.8416    1.0000 </r>
       <r>    0.8556    1.0000 </r>
       <r>    0.8564    1.0000 </r>
       <r>    0.8817    1.0000 </r>
       <r>    0.8842    1.0000 </r>
       <r>    0.8852    1.0000 </r>
       <r>    0.9160    1.0000 </r>
       <r>    0.9946    1.0000 </r>
       <r>    0.9968    1.0000 </r>
       <r>    0.9975    1.0000 </r>
       <r>    0.9982    1.0000 </r>
       <r>    1.0238    1.0000 </r>
       <r>    1.0338    1.0000 </r>
       <r>    1.0889    1.0000 </r>
       <r>    1.1057    1.0000 </r>
       <r>    1.2106    1.0000 </r>
       <r>    1.2110    1.0000 </r>
       <r>    1.2248    1.0000 </r>
       <r>    1.2328    1.0000 </r>
       <r>    1.2483    1.0000 </r>
       <r>    1.2508    1.0000 </r>
       <r>    1.2545    1.0000 </r>
       <r>    1.2642    1.0000 </r>
       <r>    1.3165    1.0000 </r>
       <r>    1.3189    1.0000 </r>
       <r>    1.3643    1.0000 </r>
       <r>    1.3707    1.0000 </r>
       <r>    1.4031    1.0000 </r>
       <r>    1.4051    1.0000 </r>
       <r>    1.4404    1.0000 </r>
       <r>    1.4408    1.0000 </r>
       <r>    1.5039    1.0000 </r>
       <r>    1.5061    1.0000 </r>
       <r>    1.5407    1.0000 </r>
       <r>    1.5847    1.0000 </r>
       <r>    1.5895    1.0000 </r>
       <r>    1.5918    1.0000 </r>
       <r>    1.7658    1.0000 </r>
       <r>    1.7696    1.0000 </r>
       <r>    1.8478    1.0000 </r>
       <r>    1.8558    1.0000 </r>
       <r>    1.8628    1.0000 </r>
       <r>    1.8634    1.0000 </r>
       <r>    1.9186    1.0000 </r>
       <r>    1.9272    1.0000 </r>
       <r>    1.9520    1.0000 </r>
       <r>    1.9623    1.0000 </r>
       <r>    1.9816    1.0000 </r>
       <r>    1.9826    1.0000 </r>
       <r>    2.0241    1.0000 </r>
       <r>    2.0259    1.0000 </r>
       <r>    2.0651    1.0000 </r>
       <r>    2.0688    1.0000 </r>
       <r>    2.0965    1.0000 </r>
       <r>    2.0970    1.0000 </r>
       <r>    2.2247    1.0000 </r>
       <r>    2.2301    1.0000 </r>
       <r>    2.4005    1.0000 </r>
       <r>    2.4029    1.0000 </r>
       <r>    2.4038    1.0000 </r>
       <r>    2.4049    1.0000 </r>
       <r>    5.5533    0.0000 </r>
       <r>    6.6710    0.0000 </r>
       <r>    6.6901    0.0000 </r>
       <r>    6.6930    0.0000 </r>
       <r>    6.7215    0.0000 </r>
       <r>    6.8891    0.0000 </r>
       <r>    6.9314    0.0000 </r>
       <r>    7.0001    0.0000 </r>
       <r>    7.0115    0.0000 </r>
       <r>    7.0879    0.0000 </r>
       <r>    7.0971    0.0000 </r>
       <r>    7.1645    0.0000 </r>
       <r>    7.2135    0.0000 </r>
       <r>    7.2147    0.0000 </r>
       <r>    7.2295    0.0000 </r>
       <r>    7.2568    0.0000 </r>
       <r>    7.2899    0.0000 </r>
       <r>    7.2983    0.0000 </r>
       <r>    7.3073    0.0000 </r>
       <r>    7.3292    0.0000 </r>
       <r>    7.3335    0.0000 </r>
       <r>    7.3412    0.0000 </r>
       <r>    7.3449    0.0000 </r>
       <r>    7.3521    0.0000 </r>
       <r>    7.3619    0.0000 </r>
       <r>    7.3637    0.0000 </r>
       <r>    7.3853    0.0000 </r>
       <r>    7.3855    0.0000 </r>
       <r>    7.3937    0.0000 </r>
       <r>    7.3970    0.0000 </r>
       <r>    7.4299    0.0000 </r>
       <r>    7.4314    0.0000 </r>
       <r>    7.4683    0.0000 </r>
       <r>    7.7058    0.0000 </r>
       <r>    7.7415    0.0000 </r>
       <r>    7.7449    0.0000 </r>
       <r>    7.7493    0.0000 </r>
       <r>    7.8001    0.0000 </r>
       <r>    7.8368    0.0000 </r>
       <r>    7.8604    0.0000 </r>
       <r>    7.8769    0.0000 </r>
       <r>    7.8908    0.0000 </r>
       <r>    7.9094    0.0000 </r>
       <r>    7.9209    0.0000 </r>
       <r>    7.9224    0.0000 </r>
       <r>    7.9618    0.0000 </r>
       <r>    8.0049    0.0000 </r>
       <r>    8.0806    0.0000 </r>
       <r>    8.1243    0.0000 </r>
       <r>    8.1678    0.0000 </r>
       <r>    8.1720    0.0000 </r>
       <r>    8.1725    0.0000 </r>
       <r>    8.1869    0.0000 </r>
       <r>    8.2189    0.0000 </r>
       <r>    8.2228    0.0000 </r>
       <r>    8.2253    0.0000 </r>
       <r>    8.2439    0.0000 </r>
       <r>    8.2560    0.0000 </r>
       <r>    8.2717    0.0000 </r>
       <r>    8.2888    0.0000 </r>
       <r>    8.4377    0.0000 </r>
       <r>    8.5702    0.0000 </r>
       <r>    8.5811    0.0000 </r>
       <r>    8.6003    0.0000 </r>
       <r>    8.6375    0.0000 </r>
       <r>    8.6403    0.0000 </r>
       <r>    8.6511    0.0000 </r>
       <r>    8.6674    0.0000 </r>
       <r>    8.6751    0.0000 </r>
       <r>    8.6844    0.0000 </r>
       <r>    8.6887    0.0000 </r>
       <r>    8.6893    0.0000 </r>
       <r>    8.7354    0.0000 </r>
       <r>    8.9040    0.0000 </r>
       <r>    8.9776    0.0000 </r>
       <r>    9.0018    0.0000 </r>
       <r>    9.0176    0.0000 </r>
       <r>    9.0412    0.0000 </r>
       <r>    9.0836    0.0000 </r>
       <r>    9.1269    0.0000 </r>
       <r>    9.2291    0.0000 </r>
       <r>    9.2513    0.0000 </r>
       <r>    9.2665    0.0000 </r>
       <r>    9.2683    0.0000 </r>
       <r>    9.2804    0.0000 </r>
       <r>    9.2855    0.0000 </r>
       <r>    9.2979    0.0000 </r>
       <r>    9.3005    0.0000 </r>
       <r>    9.3048    0.0000 </r>
       <r>    9.3223    0.0000 </r>
       <r>    9.3266    0.0000 </r>
       <r>    9.3286    0.0000 </r>
       <r>    9.3316    0.0000 </r>
       <r>    9.3970    0.0000 </r>
       <r>    9.4948    0.0000 </r>
       <r>    9.5285    0.0000 </r>
       <r>    9.6522    0.0000 </r>
       <r>    9.6849    0.0000 </r>
       <r>    9.6875    0.0000 </r>
       <r>    9.6900    0.0000 </r>
       <r>    9.6927    0.0000 </r>
       <r>    9.7479    0.0000 </r>
       <r>    9.9095    0.0000 </r>
       <r>   10.0793    0.0000 </r>
       <r>   10.0957    0.0000 </r>
       <r>   10.0976    0.0000 </r>
       <r>   10.1086    0.0000 </r>
       <r>   10.1502    0.0000 </r>
       <r>   10.1723    0.0000 </r>
       <r>   10.1781    0.0000 </r>
       <r>   10.1982    0.0000 </r>
       <r>   10.1998    0.0000 </r>
       <r>   10.2308    0.0000 </r>
       <r>   10.2407    0.0000 </r>
       <r>   10.2858    0.0000 </r>
       <r>   10.3096    0.0000 </r>
       <r>   10.3204    0.0000 </r>
       <r>   10.3778    0.0000 </r>
       <r>   10.3821    0.0000 </r>
       <r>   10.3902    0.0000 </r>
       <r>   10.3942    0.0000 </r>
       <r>   10.4230    0.0000 </r>
       <r>   10.4387    0.0000 </r>
       <r>   10.4461    0.0000 </r>
       <r>   10.4787    0.0000 </r>
       <r>   10.5172    0.0000 </r>
       <r>   10.5402    0.0000 </r>
       <r>   10.6300    0.0000 </r>
       <r>   10.6774    0.0000 </r>
       <r>   10.7234    0.0000 </r>
       <r>   10.7237    0.0000 </r>
       <r>   10.7262    0.0000 </r>
       <r>   10.7353    0.0000 </r>
       <r>   10.7536    0.0000 </r>
       <r>   10.7625    0.0000 </r>
       <r>   10.7678    0.0000 </r>
       <r>   10.7902    0.0000 </r>
       <r>   10.7914    0.0000 </r>
       <r>   10.7954    0.0000 </r>
       <r>   10.8156    0.0000 </r>
       <r>   10.8170    0.0000 </r>
       <r>   11.2434    0.0000 </r>
       <r>   11.2614    0.0000 </r>
       <r>   11.4835    0.0000 </r>
       <r>   11.5800    0.0000 </r>
       <r>   11.6681    0.0000 </r>
       <r>   11.7075    0.0000 </r>
       <r>   11.7389    0.0000 </r>
       <r>   11.7462    0.0000 </r>
       <r>   11.7789    0.0000 </r>
       <r>   11.8037    0.0000 </r>
       <r>   12.2789    0.0000 </r>
      </set>
      <set comment="kpoint 4">
       <r>  -17.1661    1.0000 </r>
       <r>  -15.7432    1.0000 </r>
       <r>  -15.6888    1.0000 </r>
       <r>  -15.4157    1.0000 </r>
       <r>  -15.2950    1.0000 </r>
       <r>  -15.2492    1.0000 </r>
       <r>  -15.2282    1.0000 </r>
       <r>  -15.1902    1.0000 </r>
       <r>  -15.1881    1.0000 </r>
       <r>  -15.0942    1.0000 </r>
       <r>  -15.0549    1.0000 </r>
       <r>  -15.0267    1.0000 </r>
       <r>  -15.0060    1.0000 </r>
       <r>  -14.9546    1.0000 </r>
       <r>  -14.9446    1.0000 </r>
       <r>  -14.9373    1.0000 </r>
       <r>  -14.9358    1.0000 </r>
       <r>  -14.8534    1.0000 </r>
       <r>  -14.7538    1.0000 </r>
       <r>  -14.7518    1.0000 </r>
       <r>  -14.6164    1.0000 </r>
       <r>  -14.5682    1.0000 </r>
       <r>  -14.5438    1.0000 </r>
       <r>  -14.4576    1.0000 </r>
       <r>  -14.4443    1.0000 </r>
       <r>  -14.4427    1.0000 </r>
       <r>  -14.4282    1.0000 </r>
       <r>  -14.4242    1.0000 </r>
       <r>  -14.4199    1.0000 </r>
       <r>  -14.4160    1.0000 </r>
       <r>  -14.4144    1.0000 </r>
       <r>  -14.3454    1.0000 </r>
       <r>  -14.2482    1.0000 </r>
       <r>  -14.2402    1.0000 </r>
       <r>  -14.2395    1.0000 </r>
       <r>  -14.2392    1.0000 </r>
       <r>  -14.2002    1.0000 </r>
       <r>  -14.1912    1.0000 </r>
       <r>  -14.1674    1.0000 </r>
       <r>  -14.1663    1.0000 </r>
       <r>  -14.1141    1.0000 </r>
       <r>  -14.0344    1.0000 </r>
       <r>  -13.9983    1.0000 </r>
       <r>  -13.9928    1.0000 </r>
       <r>  -13.9380    1.0000 </r>
       <r>  -13.7865    1.0000 </r>
       <r>  -13.7355    1.0000 </r>
       <r>  -13.7109    1.0000 </r>
       <r>  -13.7088    1.0000 </r>
       <r>  -13.7068    1.0000 </r>
       <r>  -13.6957    1.0000 </r>
       <r>  -13.6935    1.0000 </r>
       <r>  -13.6738    1.0000 </r>
       <r>  -13.6733    1.0000 </r>
       <r>  -13.5994    1.0000 </r>
       <r>  -13.5344    1.0000 </r>
       <r>  -13.5305    1.0000 </r>
       <r>  -13.5145    1.0000 </r>
       <r>  -13.5128    1.0000 </r>
       <r>  -13.5018    1.0000 </r>
       <r>  -13.3576    1.0000 </r>
       <r>  -13.3335    1.0000 </r>
       <r>  -13.2540    1.0000 </r>
       <r>  -13.2222    1.0000 </r>
       <r>  -13.1125    1.0000 </r>
       <r>  -13.0586    1.0000 </r>
       <r>  -13.0535    1.0000 </r>
       <r>  -13.0509    1.0000 </r>
       <r>  -13.0423    1.0000 </r>
       <r>  -13.0397    1.0000 </r>
       <r>  -13.0373    1.0000 </r>
       <r>  -13.0347    1.0000 </r>
       <r>  -13.0331    1.0000 </r>
       <r>  -12.9739    1.0000 </r>
       <r>  -12.9258    1.0000 </r>
       <r>  -12.8880    1.0000 </r>
       <r>  -12.8845    1.0000 </r>
       <r>  -12.8831    1.0000 </r>
       <r>  -12.8805    1.0000 </r>
       <r>  -12.8757    1.0000 </r>
       <r>  -12.8735    1.0000 </r>
       <r>  -12.8722    1.0000 </r>
       <r>  -12.8709    1.0000 </r>
       <r>  -12.8688    1.0000 </r>
       <r>  -12.8671    1.0000 </r>
       <r>  -12.8634    1.0000 </r>
       <r>  -12.8628    1.0000 </r>
       <r>  -12.8595    1.0000 </r>
       <r>  -12.7182    1.0000 </r>
       <r>  -12.7142    1.0000 </r>
       <r>  -12.7134    1.0000 </r>
       <r>  -12.7113    1.0000 </r>
       <r>  -12.6802    1.0000 </r>
       <r>  -12.6086    1.0000 </r>
       <r>  -12.5913    1.0000 </r>
       <r>  -12.5840    1.0000 </r>
       <r>  -12.5693    1.0000 </r>
       <r>  -12.5546    1.0000 </r>
       <r>  -12.5327    1.0000 </r>
       <r>  -12.4982    1.0000 </r>
       <r>  -12.4353    1.0000 </r>
       <r>  -12.4326    1.0000 </r>
       <r>  -12.4220    1.0000 </r>
       <r>  -12.4189    1.0000 </r>
       <r>  -12.3355    1.0000 </r>
       <r>  -12.3326    1.0000 </r>
       <r>  -12.3279    1.0000 </r>
       <r>  -12.3234    1.0000 </r>
       <r>  -12.2441    1.0000 </r>
       <r>  -12.2413    1.0000 </r>
       <r>  -12.2394    1.0000 </r>
       <r>  -12.2360    1.0000 </r>
       <r>  -12.2161    1.0000 </r>
       <r>  -12.2149    1.0000 </r>
       <r>  -12.2099    1.0000 </r>
       <r>  -12.2078    1.0000 </r>
       <r>  -12.1799    1.0000 </r>
       <r>  -12.1751    1.0000 </r>
       <r>  -12.1694    1.0000 </r>
       <r>  -12.1691    1.0000 </r>
       <r>  -12.1006    1.0000 </r>
       <r>  -12.0941    1.0000 </r>
       <r>  -12.0882    1.0000 </r>
       <r>  -12.0858    1.0000 </r>
       <r>  -12.0838    1.0000 </r>
       <r>  -12.0824    1.0000 </r>
       <r>  -11.9497    1.0000 </r>
       <r>  -11.9476    1.0000 </r>
       <r>  -11.9467    1.0000 </r>
       <r>  -11.9445    1.0000 </r>
       <r>  -11.8169    1.0000 </r>
       <r>  -11.8139    1.0000 </r>
       <r>  -11.8069    1.0000 </r>
       <r>  -11.8062    1.0000 </r>
       <r>  -11.8060    1.0000 </r>
       <r>  -11.8053    1.0000 </r>
       <r>  -11.7841    1.0000 </r>
       <r>  -11.7836    1.0000 </r>
       <r>  -11.7803    1.0000 </r>
       <r>  -11.7800    1.0000 </r>
       <r>  -11.6742    1.0000 </r>
       <r>  -11.6675    1.0000 </r>
       <r>  -11.6603    1.0000 </r>
       <r>  -11.6566    1.0000 </r>
       <r>   -8.1624    1.0000 </r>
       <r>   -7.2498    1.0000 </r>
       <r>   -7.2352    1.0000 </r>
       <r>   -6.7831    1.0000 </r>
       <r>   -6.6995    1.0000 </r>
       <r>   -6.6786    1.0000 </r>
       <r>   -6.4259    1.0000 </r>
       <r>   -6.4019    1.0000 </r>
       <r>   -6.3174    1.0000 </r>
       <r>   -6.3076    1.0000 </r>
       <r>   -6.3054    1.0000 </r>
       <r>   -6.3044    1.0000 </r>
       <r>   -6.2992    1.0000 </r>
       <r>   -6.2840    1.0000 </r>
       <r>   -6.2729    1.0000 </r>
       <r>   -6.2720    1.0000 </r>
       <r>   -6.2706    1.0000 </r>
       <r>   -6.2705    1.0000 </r>
       <r>   -6.2140    1.0000 </r>
       <r>   -6.2131    1.0000 </r>
       <r>   -6.2129    1.0000 </r>
       <r>   -6.2043    1.0000 </r>
       <r>   -6.1974    1.0000 </r>
       <r>   -6.1926    1.0000 </r>
       <r>   -6.1628    1.0000 </r>
       <r>   -6.1585    1.0000 </r>
       <r>   -6.1479    1.0000 </r>
       <r>   -6.1453    1.0000 </r>
       <r>   -6.0734    1.0000 </r>
       <r>   -6.0708    1.0000 </r>
       <r>   -5.9327    1.0000 </r>
       <r>   -5.9308    1.0000 </r>
       <r>   -5.9069    1.0000 </r>
       <r>   -5.9069    1.0000 </r>
       <r>   -5.8366    1.0000 </r>
       <r>   -5.7921    1.0000 </r>
       <r>   -5.7804    1.0000 </r>
       <r>   -5.7697    1.0000 </r>
       <r>   -5.7677    1.0000 </r>
       <r>   -5.7635    1.0000 </r>
       <r>   -5.7625    1.0000 </r>
       <r>   -5.7615    1.0000 </r>
       <r>   -5.7589    1.0000 </r>
       <r>   -5.7564    1.0000 </r>
       <r>   -5.7522    1.0000 </r>
       <r>   -5.7516    1.0000 </r>
       <r>   -5.7375    1.0000 </r>
       <r>   -5.6804    1.0000 </r>
       <r>   -5.6520    1.0000 </r>
       <r>   -5.6393    1.0000 </r>
       <r>   -5.6258    1.0000 </r>
       <r>   -5.6233    1.0000 </r>
       <r>   -5.6189    1.0000 </r>
       <r>   -5.6167    1.0000 </r>
       <r>   -5.2266    1.0000 </r>
       <r>   -5.2254    1.0000 </r>
       <r>   -5.2236    1.0000 </r>
       <r>   -5.2228    1.0000 </r>
       <r>   -5.2213    1.0000 </r>
       <r>   -5.2211    1.0000 </r>
       <r>   -5.2208    1.0000 </r>
       <r>   -5.2204    1.0000 </r>
       <r>   -5.2190    1.0000 </r>
       <r>   -5.2185    1.0000 </r>
       <r>   -5.2180    1.0000 </r>
       <r>   -5.2174    1.0000 </r>
       <r>   -5.1068    1.0000 </r>
       <r>   -5.0954    1.0000 </r>
       <r>   -5.0942    1.0000 </r>
       <r>   -5.0911    1.0000 </r>
       <r>   -5.0887    1.0000 </r>
       <r>   -5.0876    1.0000 </r>
       <r>   -5.0854    1.0000 </r>
       <r>   -5.0813    1.0000 </r>
       <r>   -5.0084    1.0000 </r>
       <r>   -4.9190    1.0000 </r>
       <r>   -4.8269    1.0000 </r>
       <r>   -4.5974    1.0000 </r>
       <r>   -4.5428    1.0000 </r>
       <r>   -4.5346    1.0000 </r>
       <r>   -4.4753    1.0000 </r>
       <r>   -4.4725    1.0000 </r>
       <r>   -4.4717    1.0000 </r>
       <r>   -4.4711    1.0000 </r>
       <r>   -4.4706    1.0000 </r>
       <r>   -4.4692    1.0000 </r>
       <r>   -4.4678    1.0000 </r>
       <r>   -4.4676    1.0000 </r>
       <r>   -4.3463    1.0000 </r>
       <r>   -4.3422    1.0000 </r>
       <r>   -4.3401    1.0000 </r>
       <r>   -4.3378    1.0000 </r>
       <r>   -4.3118    1.0000 </r>
       <r>   -4.1904    1.0000 </r>
       <r>   -4.0919    1.0000 </r>
       <r>   -4.0894    1.0000 </r>
       <r>   -4.0872    1.0000 </r>
       <r>   -4.0870    1.0000 </r>
       <r>   -4.0848    1.0000 </r>
       <r>   -4.0834    1.0000 </r>
       <r>   -4.0739    1.0000 </r>
       <r>   -4.0736    1.0000 </r>
       <r>   -4.0718    1.0000 </r>
       <r>   -4.0707    1.0000 </r>
       <r>   -4.0246    1.0000 </r>
       <r>   -3.9527    1.0000 </r>
       <r>   -3.9502    1.0000 </r>
       <r>   -3.9465    1.0000 </r>
       <r>   -3.9446    1.0000 </r>
       <r>   -3.9073    1.0000 </r>
       <r>   -3.8631    1.0000 </r>
       <r>   -3.7743    1.0000 </r>
       <r>   -3.7439    1.0000 </r>
       <r>   -3.6227    1.0000 </r>
       <r>   -3.6208    1.0000 </r>
       <r>   -3.6152    1.0000 </r>
       <r>   -3.6139    1.0000 </r>
       <r>   -3.6032    1.0000 </r>
       <r>   -3.6027    1.0000 </r>
       <r>   -3.5983    1.0000 </r>
       <r>   -3.5978    1.0000 </r>
       <r>   -3.4812    1.0000 </r>
       <r>   -3.4790    1.0000 </r>
       <r>   -3.4731    1.0000 </r>
       <r>   -3.4728    1.0000 </r>
       <r>   -3.4712    1.0000 </r>
       <r>   -3.4686    1.0000 </r>
       <r>   -3.4683    1.0000 </r>
       <r>   -3.4680    1.0000 </r>
       <r>   -3.4651    1.0000 </r>
       <r>   -3.4644    1.0000 </r>
       <r>   -3.4340    1.0000 </r>
       <r>   -3.3435    1.0000 </r>
       <r>   -3.3407    1.0000 </r>
       <r>   -3.3373    1.0000 </r>
       <r>   -3.1460    1.0000 </r>
       <r>   -3.0896    1.0000 </r>
       <r>   -3.0754    1.0000 </r>
       <r>   -3.0739    1.0000 </r>
       <r>   -3.0700    1.0000 </r>
       <r>   -3.0696    1.0000 </r>
       <r>   -3.0672    1.0000 </r>
       <r>   -2.9870    1.0000 </r>
       <r>   -2.9375    1.0000 </r>
       <r>   -2.9363    1.0000 </r>
       <r>   -2.9005    1.0000 </r>
       <r>   -2.8452    1.0000 </r>
       <r>   -2.8081    1.0000 </r>
       <r>   -2.7636    1.0000 </r>
       <r>   -2.7541    1.0000 </r>
       <r>   -2.7509    1.0000 </r>
       <r>   -2.7469    1.0000 </r>
       <r>   -2.7441    1.0000 </r>
       <r>   -2.7231    1.0000 </r>
       <r>   -2.7230    1.0000 </r>
       <r>   -2.6822    1.0000 </r>
       <r>   -2.6777    1.0000 </r>
       <r>   -2.6686    1.0000 </r>
       <r>   -2.6674    1.0000 </r>
       <r>   -2.6629    1.0000 </r>
       <r>   -2.5471    1.0000 </r>
       <r>   -2.5433    1.0000 </r>
       <r>   -2.5203    1.0000 </r>
       <r>   -2.5173    1.0000 </r>
       <r>   -2.5090    1.0000 </r>
       <r>   -2.4551    1.0000 </r>
       <r>   -2.4236    1.0000 </r>
       <r>   -2.4154    1.0000 </r>
       <r>   -2.3839    1.0000 </r>
       <r>   -2.3759    1.0000 </r>
       <r>   -2.3736    1.0000 </r>
       <r>   -2.3733    1.0000 </r>
       <r>   -2.3724    1.0000 </r>
       <r>   -2.3718    1.0000 </r>
       <r>   -2.3703    1.0000 </r>
       <r>   -2.3697    1.0000 </r>
       <r>   -2.3687    1.0000 </r>
       <r>   -2.3572    1.0000 </r>
       <r>   -2.3546    1.0000 </r>
       <r>   -2.3425    1.0000 </r>
       <r>   -2.3163    1.0000 </r>
       <r>   -2.2585    1.0000 </r>
       <r>   -2.2435    1.0000 </r>
       <r>   -2.2410    1.0000 </r>
       <r>   -2.2390    1.0000 </r>
       <r>   -2.2343    1.0000 </r>
       <r>   -2.2095    1.0000 </r>
       <r>   -2.1727    1.0000 </r>
       <r>   -2.1438    1.0000 </r>
       <r>   -2.1275    1.0000 </r>
       <r>   -2.0888    1.0000 </r>
       <r>   -2.0887    1.0000 </r>
       <r>   -2.0883    1.0000 </r>
       <r>   -2.0879    1.0000 </r>
       <r>   -2.0546    1.0000 </r>
       <r>   -2.0543    1.0000 </r>
       <r>   -2.0537    1.0000 </r>
       <r>   -2.0532    1.0000 </r>
       <r>   -2.0157    1.0000 </r>
       <r>   -2.0120    1.0000 </r>
       <r>   -2.0081    1.0000 </r>
       <r>   -2.0000    1.0000 </r>
       <r>   -1.9810    1.0000 </r>
       <r>   -1.9484    1.0000 </r>
       <r>   -1.9433    1.0000 </r>
       <r>   -1.9319    1.0000 </r>
       <r>   -1.9311    1.0000 </r>
       <r>   -1.8960    1.0000 </r>
       <r>   -1.8695    1.0000 </r>
       <r>   -1.8676    1.0000 </r>
       <r>   -1.8666    1.0000 </r>
       <r>   -1.8654    1.0000 </r>
       <r>   -1.8233    1.0000 </r>
       <r>   -1.8225    1.0000 </r>
       <r>   -1.8205    1.0000 </r>
       <r>   -1.8176    1.0000 </r>
       <r>   -1.8173    1.0000 </r>
       <r>   -1.8129    1.0000 </r>
       <r>   -1.7772    1.0000 </r>
       <r>   -1.7768    1.0000 </r>
       <r>   -1.7759    1.0000 </r>
       <r>   -1.7758    1.0000 </r>
       <r>   -1.7757    1.0000 </r>
       <r>   -1.7754    1.0000 </r>
       <r>   -1.7751    1.0000 </r>
       <r>   -1.7744    1.0000 </r>
       <r>   -1.7631    1.0000 </r>
       <r>   -1.7128    1.0000 </r>
       <r>   -1.7055    1.0000 </r>
       <r>   -1.6997    1.0000 </r>
       <r>   -1.6924    1.0000 </r>
       <r>   -1.6576    1.0000 </r>
       <r>   -1.6503    1.0000 </r>
       <r>   -1.6469    1.0000 </r>
       <r>   -1.6455    1.0000 </r>
       <r>   -1.6442    1.0000 </r>
       <r>   -1.6430    1.0000 </r>
       <r>   -1.6339    1.0000 </r>
       <r>   -1.6148    1.0000 </r>
       <r>   -1.6114    1.0000 </r>
       <r>   -1.6053    1.0000 </r>
       <r>   -1.6031    1.0000 </r>
       <r>   -1.5831    1.0000 </r>
       <r>   -1.5808    1.0000 </r>
       <r>   -1.5789    1.0000 </r>
       <r>   -1.5641    1.0000 </r>
       <r>   -1.5641    1.0000 </r>
       <r>   -1.5561    1.0000 </r>
       <r>   -1.5532    1.0000 </r>
       <r>   -1.5509    1.0000 </r>
       <r>   -1.4784    1.0000 </r>
       <r>   -1.4482    1.0000 </r>
       <r>   -1.4412    1.0000 </r>
       <r>   -1.4282    1.0000 </r>
       <r>   -1.3499    1.0000 </r>
       <r>   -1.3474    1.0000 </r>
       <r>   -1.3373    1.0000 </r>
       <r>   -1.3355    1.0000 </r>
       <r>   -1.2292    1.0000 </r>
       <r>   -1.2291    1.0000 </r>
       <r>   -1.2260    1.0000 </r>
       <r>   -1.2259    1.0000 </r>
       <r>   -1.2117    1.0000 </r>
       <r>   -1.2114    1.0000 </r>
       <r>   -1.2097    1.0000 </r>
       <r>   -1.2080    1.0000 </r>
       <r>   -1.1853    1.0000 </r>
       <r>   -1.0981    1.0000 </r>
       <r>   -1.0922    1.0000 </r>
       <r>   -1.0850    1.0000 </r>
       <r>   -1.0830    1.0000 </r>
       <r>   -1.0498    1.0000 </r>
       <r>   -1.0075    1.0000 </r>
       <r>   -0.9844    1.0000 </r>
       <r>   -0.9302    1.0000 </r>
       <r>   -0.8731    1.0000 </r>
       <r>   -0.8656    1.0000 </r>
       <r>   -0.8452    1.0000 </r>
       <r>   -0.7778    1.0000 </r>
       <r>   -0.7752    1.0000 </r>
       <r>   -0.7462    1.0000 </r>
       <r>   -0.7222    1.0000 </r>
       <r>   -0.7171    1.0000 </r>
       <r>   -0.7096    1.0000 </r>
       <r>   -0.7062    1.0000 </r>
       <r>   -0.7023    1.0000 </r>
       <r>   -0.6759    1.0000 </r>
       <r>   -0.6744    1.0000 </r>
       <r>   -0.6739    1.0000 </r>
       <r>   -0.6713    1.0000 </r>
       <r>   -0.6544    1.0000 </r>
       <r>   -0.6538    1.0000 </r>
       <r>   -0.6529    1.0000 </r>
       <r>   -0.6223    1.0000 </r>
       <r>   -0.5176    1.0000 </r>
       <r>   -0.5164    1.0000 </r>
       <r>   -0.5157    1.0000 </r>
       <r>   -0.5147    1.0000 </r>
       <r>   -0.4621    1.0000 </r>
       <r>   -0.4585    1.0000 </r>
       <r>   -0.4576    1.0000 </r>
       <r>   -0.4569    1.0000 </r>
       <r>   -0.4543    1.0000 </r>
       <r>   -0.4536    1.0000 </r>
       <r>   -0.4528    1.0000 </r>
       <r>   -0.4497    1.0000 </r>
       <r>   -0.4273    1.0000 </r>
       <r>   -0.3991    1.0000 </r>
       <r>   -0.3853    1.0000 </r>
       <r>   -0.3792    1.0000 </r>
       <r>   -0.3777    1.0000 </r>
       <r>   -0.3677    1.0000 </r>
       <r>   -0.3567    1.0000 </r>
       <r>   -0.3537    1.0000 </r>
       <r>   -0.3493    1.0000 </r>
       <r>   -0.3462    1.0000 </r>
       <r>   -0.3425    1.0000 </r>
       <r>   -0.3395    1.0000 </r>
       <r>   -0.3317    1.0000 </r>
       <r>   -0.3266    1.0000 </r>
       <r>   -0.3255    1.0000 </r>
       <r>   -0.3206    1.0000 </r>
       <r>   -0.2757    1.0000 </r>
       <r>   -0.2250    1.0000 </r>
       <r>   -0.2207    1.0000 </r>
       <r>   -0.0988    1.0000 </r>
       <r>   -0.0449    1.0000 </r>
       <r>    0.0265    1.0000 </r>
       <r>    0.0699    1.0000 </r>
       <r>    0.1214    1.0000 </r>
       <r>    0.1578    1.0000 </r>
       <r>    0.1583    1.0000 </r>
       <r>    0.1770    1.0000 </r>
       <r>    0.1868    1.0000 </r>
       <r>    0.2032    1.0000 </r>
       <r>    0.2129    1.0000 </r>
       <r>    0.2144    1.0000 </r>
       <r>    0.2183    1.0000 </r>
       <r>    0.2207    1.0000 </r>
       <r>    0.2403    1.0000 </r>
       <r>    0.2444    1.0000 </r>
       <r>    0.2901    1.0000 </r>
       <r>    0.3189    1.0000 </r>
       <r>    0.3226    1.0000 </r>
       <r>    0.3439    1.0000 </r>
       <r>    0.3449    1.0000 </r>
       <r>    0.3491    1.0000 </r>
       <r>    0.3502    1.0000 </r>
       <r>    0.3689    1.0000 </r>
       <r>    0.3789    1.0000 </r>
       <r>    0.3965    1.0000 </r>
       <r>    0.4550    1.0000 </r>
       <r>    0.4600    1.0000 </r>
       <r>    0.4646    1.0000 </r>
       <r>    0.4653    1.0000 </r>
       <r>    0.4659    1.0000 </r>
       <r>    0.4719    1.0000 </r>
       <r>    0.4777    1.0000 </r>
       <r>    0.4782    1.0000 </r>
       <r>    0.5554    1.0000 </r>
       <r>    0.5597    1.0000 </r>
       <r>    0.5663    1.0000 </r>
       <r>    0.5855    1.0000 </r>
       <r>    0.5900    1.0000 </r>
       <r>    0.6882    1.0000 </r>
       <r>    0.6947    1.0000 </r>
       <r>    0.7034    1.0000 </r>
       <r>    0.7071    1.0000 </r>
       <r>    0.7346    1.0000 </r>
       <r>    0.8103    1.0000 </r>
       <r>    0.8120    1.0000 </r>
       <r>    0.8434    1.0000 </r>
       <r>    0.8554    1.0000 </r>
       <r>    0.8562    1.0000 </r>
       <r>    0.8814    1.0000 </r>
       <r>    0.8846    1.0000 </r>
       <r>    0.8854    1.0000 </r>
       <r>    0.9162    1.0000 </r>
       <r>    0.9958    1.0000 </r>
       <r>    0.9977    1.0000 </r>
       <r>    0.9986    1.0000 </r>
       <r>    1.0062    1.0000 </r>
       <r>    1.0250    1.0000 </r>
       <r>    1.0338    1.0000 </r>
       <r>    1.0849    1.0000 </r>
       <r>    1.1047    1.0000 </r>
       <r>    1.2080    1.0000 </r>
       <r>    1.2134    1.0000 </r>
       <r>    1.2240    1.0000 </r>
       <r>    1.2343    1.0000 </r>
       <r>    1.2480    1.0000 </r>
       <r>    1.2505    1.0000 </r>
       <r>    1.2544    1.0000 </r>
       <r>    1.2641    1.0000 </r>
       <r>    1.3166    1.0000 </r>
       <r>    1.3190    1.0000 </r>
       <r>    1.3680    1.0000 </r>
       <r>    1.3686    1.0000 </r>
       <r>    1.4028    1.0000 </r>
       <r>    1.4048    1.0000 </r>
       <r>    1.4408    1.0000 </r>
       <r>    1.4412    1.0000 </r>
       <r>    1.5036    1.0000 </r>
       <r>    1.5056    1.0000 </r>
       <r>    1.5403    1.0000 </r>
       <r>    1.5852    1.0000 </r>
       <r>    1.5906    1.0000 </r>
       <r>    1.5919    1.0000 </r>
       <r>    1.7666    1.0000 </r>
       <r>    1.7705    1.0000 </r>
       <r>    1.8478    1.0000 </r>
       <r>    1.8559    1.0000 </r>
       <r>    1.8574    1.0000 </r>
       <r>    1.8624    1.0000 </r>
       <r>    1.9182    1.0000 </r>
       <r>    1.9290    1.0000 </r>
       <r>    1.9555    1.0000 </r>
       <r>    1.9603    1.0000 </r>
       <r>    1.9806    1.0000 </r>
       <r>    1.9815    1.0000 </r>
       <r>    2.0258    1.0000 </r>
       <r>    2.0263    1.0000 </r>
       <r>    2.0646    1.0000 </r>
       <r>    2.0684    1.0000 </r>
       <r>    2.0968    1.0000 </r>
       <r>    2.0974    1.0000 </r>
       <r>    2.2253    1.0000 </r>
       <r>    2.2309    1.0000 </r>
       <r>    2.3994    1.0000 </r>
       <r>    2.4026    1.0000 </r>
       <r>    2.4039    1.0000 </r>
       <r>    2.4058    1.0000 </r>
       <r>    5.5533    0.0000 </r>
       <r>    6.6711    0.0000 </r>
       <r>    6.6901    0.0000 </r>
       <r>    6.6929    0.0000 </r>
       <r>    6.7215    0.0000 </r>
       <r>    6.8894    0.0000 </r>
       <r>    6.9317    0.0000 </r>
       <r>    6.9997    0.0000 </r>
       <r>    7.0120    0.0000 </r>
       <r>    7.0877    0.0000 </r>
       <r>    7.0970    0.0000 </r>
       <r>    7.1628    0.0000 </r>
       <r>    7.2136    0.0000 </r>
       <r>    7.2141    0.0000 </r>
       <r>    7.2297    0.0000 </r>
       <r>    7.2560    0.0000 </r>
       <r>    7.2910    0.0000 </r>
       <r>    7.2979    0.0000 </r>
       <r>    7.3070    0.0000 </r>
       <r>    7.3294    0.0000 </r>
       <r>    7.3339    0.0000 </r>
       <r>    7.3423    0.0000 </r>
       <r>    7.3448    0.0000 </r>
       <r>    7.3519    0.0000 </r>
       <r>    7.3611    0.0000 </r>
       <r>    7.3633    0.0000 </r>
       <r>    7.3847    0.0000 </r>
       <r>    7.3886    0.0000 </r>
       <r>    7.3933    0.0000 </r>
       <r>    7.3977    0.0000 </r>
       <r>    7.4303    0.0000 </r>
       <r>    7.4316    0.0000 </r>
       <r>    7.4683    0.0000 </r>
       <r>    7.7053    0.0000 </r>
       <r>    7.7418    0.0000 </r>
       <r>    7.7459    0.0000 </r>
       <r>    7.7491    0.0000 </r>
       <r>    7.7963    0.0000 </r>
       <r>    7.8362    0.0000 </r>
       <r>    7.8607    0.0000 </r>
       <r>    7.8776    0.0000 </r>
       <r>    7.8901    0.0000 </r>
       <r>    7.9095    0.0000 </r>
       <r>    7.9197    0.0000 </r>
       <r>    7.9219    0.0000 </r>
       <r>    7.9621    0.0000 </r>
       <r>    8.0041    0.0000 </r>
       <r>    8.0804    0.0000 </r>
       <r>    8.1244    0.0000 </r>
       <r>    8.1678    0.0000 </r>
       <r>    8.1721    0.0000 </r>
       <r>    8.1760    0.0000 </r>
       <r>    8.1866    0.0000 </r>
       <r>    8.2187    0.0000 </r>
       <r>    8.2245    0.0000 </r>
       <r>    8.2249    0.0000 </r>
       <r>    8.2445    0.0000 </r>
       <r>    8.2560    0.0000 </r>
       <r>    8.2717    0.0000 </r>
       <r>    8.2888    0.0000 </r>
       <r>    8.4380    0.0000 </r>
       <r>    8.5701    0.0000 </r>
       <r>    8.5833    0.0000 </r>
       <r>    8.6002    0.0000 </r>
       <r>    8.6395    0.0000 </r>
       <r>    8.6414    0.0000 </r>
       <r>    8.6500    0.0000 </r>
       <r>    8.6672    0.0000 </r>
       <r>    8.6751    0.0000 </r>
       <r>    8.6825    0.0000 </r>
       <r>    8.6888    0.0000 </r>
       <r>    8.6893    0.0000 </r>
       <r>    8.7347    0.0000 </r>
       <r>    8.9038    0.0000 </r>
       <r>    8.9776    0.0000 </r>
       <r>    9.0018    0.0000 </r>
       <r>    9.0176    0.0000 </r>
       <r>    9.0413    0.0000 </r>
       <r>    9.0841    0.0000 </r>
       <r>    9.1269    0.0000 </r>
       <r>    9.2284    0.0000 </r>
       <r>    9.2512    0.0000 </r>
       <r>    9.2665    0.0000 </r>
       <r>    9.2683    0.0000 </r>
       <r>    9.2802    0.0000 </r>
       <r>    9.2839    0.0000 </r>
       <r>    9.2975    0.0000 </r>
       <r>    9.3006    0.0000 </r>
       <r>    9.3050    0.0000 </r>
       <r>    9.3222    0.0000 </r>
       <r>    9.3269    0.0000 </r>
       <r>    9.3291    0.0000 </r>
       <r>    9.3311    0.0000 </r>
       <r>    9.3971    0.0000 </r>
       <r>    9.4953    0.0000 </r>
       <r>    9.5283    0.0000 </r>
       <r>    9.6500    0.0000 </r>
       <r>    9.6842    0.0000 </r>
       <r>    9.6872    0.0000 </r>
       <r>    9.6903    0.0000 </r>
       <r>    9.6920    0.0000 </r>
       <r>    9.7475    0.0000 </r>
       <r>    9.9094    0.0000 </r>
       <r>   10.0789    0.0000 </r>
       <r>   10.0960    0.0000 </r>
       <r>   10.0980    0.0000 </r>
       <r>   10.1083    0.0000 </r>
       <r>   10.1501    0.0000 </r>
       <r>   10.1729    0.0000 </r>
       <r>   10.1785    0.0000 </r>
       <r>   10.1979    0.0000 </r>
       <r>   10.2000    0.0000 </r>
       <r>   10.2306    0.0000 </r>
       <r>   10.2407    0.0000 </r>
       <r>   10.2858    0.0000 </r>
       <r>   10.3125    0.0000 </r>
       <r>   10.3187    0.0000 </r>
       <r>   10.3794    0.0000 </r>
       <r>   10.3828    0.0000 </r>
       <r>   10.3903    0.0000 </r>
       <r>   10.3940    0.0000 </r>
       <r>   10.4223    0.0000 </r>
       <r>   10.4390    0.0000 </r>
       <r>   10.4469    0.0000 </r>
       <r>   10.4756    0.0000 </r>
       <r>   10.5174    0.0000 </r>
       <r>   10.5403    0.0000 </r>
       <r>   10.6313    0.0000 </r>
       <r>   10.6768    0.0000 </r>
       <r>   10.7223    0.0000 </r>
       <r>   10.7228    0.0000 </r>
       <r>   10.7272    0.0000 </r>
       <r>   10.7352    0.0000 </r>
       <r>   10.7531    0.0000 </r>
       <r>   10.7611    0.0000 </r>
       <r>   10.7694    0.0000 </r>
       <r>   10.7891    0.0000 </r>
       <r>   10.7923    0.0000 </r>
       <r>   10.7963    0.0000 </r>
       <r>   10.8164    0.0000 </r>
       <r>   10.8185    0.0000 </r>
       <r>   11.2460    0.0000 </r>
       <r>   11.2646    0.0000 </r>
       <r>   11.5461    0.0000 </r>
       <r>   11.5904    0.0000 </r>
       <r>   11.6284    0.0000 </r>
       <r>   11.6704    0.0000 </r>
       <r>   11.7408    0.0000 </r>
       <r>   11.7435    0.0000 </r>
       <r>   11.7888    0.0000 </r>
       <r>   11.8150    0.0000 </r>
       <r>   12.3901    0.0000 </r>
      </set>
      <set comment="kpoint 5">
       <r>  -17.1663    1.0000 </r>
       <r>  -15.6763    1.0000 </r>
       <r>  -15.6763    1.0000 </r>
       <r>  -15.5679    1.0000 </r>
       <r>  -15.3954    1.0000 </r>
       <r>  -15.3095    1.0000 </r>
       <r>  -15.1585    1.0000 </r>
       <r>  -15.1566    1.0000 </r>
       <r>  -15.1564    1.0000 </r>
       <r>  -15.0702    1.0000 </r>
       <r>  -14.8861    1.0000 </r>
       <r>  -14.8650    1.0000 </r>
       <r>  -14.8640    1.0000 </r>
       <r>  -14.8458    1.0000 </r>
       <r>  -14.8391    1.0000 </r>
       <r>  -14.8373    1.0000 </r>
       <r>  -14.8349    1.0000 </r>
       <r>  -14.8345    1.0000 </r>
       <r>  -14.8255    1.0000 </r>
       <r>  -14.7635    1.0000 </r>
       <r>  -14.7630    1.0000 </r>
       <r>  -14.7433    1.0000 </r>
       <r>  -14.7035    1.0000 </r>
       <r>  -14.7033    1.0000 </r>
       <r>  -14.6433    1.0000 </r>
       <r>  -14.6365    1.0000 </r>
       <r>  -14.6332    1.0000 </r>
       <r>  -14.6225    1.0000 </r>
       <r>  -14.6185    1.0000 </r>
       <r>  -14.6086    1.0000 </r>
       <r>  -14.5465    1.0000 </r>
       <r>  -14.2497    1.0000 </r>
       <r>  -14.2497    1.0000 </r>
       <r>  -14.2408    1.0000 </r>
       <r>  -13.9114    1.0000 </r>
       <r>  -13.9114    1.0000 </r>
       <r>  -13.8505    1.0000 </r>
       <r>  -13.8473    1.0000 </r>
       <r>  -13.8427    1.0000 </r>
       <r>  -13.8423    1.0000 </r>
       <r>  -13.8393    1.0000 </r>
       <r>  -13.8386    1.0000 </r>
       <r>  -13.8377    1.0000 </r>
       <r>  -13.8110    1.0000 </r>
       <r>  -13.7950    1.0000 </r>
       <r>  -13.7949    1.0000 </r>
       <r>  -13.7841    1.0000 </r>
       <r>  -13.7775    1.0000 </r>
       <r>  -13.7774    1.0000 </r>
       <r>  -13.7502    1.0000 </r>
       <r>  -13.7493    1.0000 </r>
       <r>  -13.7493    1.0000 </r>
       <r>  -13.6433    1.0000 </r>
       <r>  -13.6378    1.0000 </r>
       <r>  -13.6372    1.0000 </r>
       <r>  -13.6366    1.0000 </r>
       <r>  -13.6361    1.0000 </r>
       <r>  -13.6327    1.0000 </r>
       <r>  -13.3980    1.0000 </r>
       <r>  -13.3949    1.0000 </r>
       <r>  -13.3941    1.0000 </r>
       <r>  -13.3939    1.0000 </r>
       <r>  -13.3933    1.0000 </r>
       <r>  -13.3912    1.0000 </r>
       <r>  -13.3707    1.0000 </r>
       <r>  -13.3706    1.0000 </r>
       <r>  -13.3564    1.0000 </r>
       <r>  -13.3497    1.0000 </r>
       <r>  -13.3496    1.0000 </r>
       <r>  -13.3492    1.0000 </r>
       <r>  -13.2601    1.0000 </r>
       <r>  -13.2600    1.0000 </r>
       <r>  -13.2108    1.0000 </r>
       <r>  -13.2057    1.0000 </r>
       <r>  -13.2042    1.0000 </r>
       <r>  -13.2036    1.0000 </r>
       <r>  -13.2026    1.0000 </r>
       <r>  -13.1973    1.0000 </r>
       <r>  -12.8861    1.0000 </r>
       <r>  -12.8555    1.0000 </r>
       <r>  -12.8555    1.0000 </r>
       <r>  -12.7715    1.0000 </r>
       <r>  -12.6719    1.0000 </r>
       <r>  -12.5884    1.0000 </r>
       <r>  -12.5884    1.0000 </r>
       <r>  -12.5881    1.0000 </r>
       <r>  -12.5325    1.0000 </r>
       <r>  -12.5324    1.0000 </r>
       <r>  -12.4966    1.0000 </r>
       <r>  -12.4966    1.0000 </r>
       <r>  -12.4675    1.0000 </r>
       <r>  -12.3488    1.0000 </r>
       <r>  -12.3344    1.0000 </r>
       <r>  -12.3316    1.0000 </r>
       <r>  -12.3202    1.0000 </r>
       <r>  -12.3201    1.0000 </r>
       <r>  -12.3155    1.0000 </r>
       <r>  -12.3127    1.0000 </r>
       <r>  -12.3119    1.0000 </r>
       <r>  -12.3043    1.0000 </r>
       <r>  -12.3039    1.0000 </r>
       <r>  -12.2950    1.0000 </r>
       <r>  -12.2947    1.0000 </r>
       <r>  -12.2894    1.0000 </r>
       <r>  -12.2892    1.0000 </r>
       <r>  -12.2879    1.0000 </r>
       <r>  -12.2876    1.0000 </r>
       <r>  -12.2780    1.0000 </r>
       <r>  -12.2770    1.0000 </r>
       <r>  -12.2700    1.0000 </r>
       <r>  -12.2696    1.0000 </r>
       <r>  -12.2672    1.0000 </r>
       <r>  -12.2668    1.0000 </r>
       <r>  -12.2556    1.0000 </r>
       <r>  -12.2550    1.0000 </r>
       <r>  -12.1928    1.0000 </r>
       <r>  -12.1918    1.0000 </r>
       <r>  -12.1909    1.0000 </r>
       <r>  -12.1844    1.0000 </r>
       <r>  -12.1833    1.0000 </r>
       <r>  -12.1832    1.0000 </r>
       <r>  -12.1650    1.0000 </r>
       <r>  -12.1573    1.0000 </r>
       <r>  -12.1565    1.0000 </r>
       <r>  -12.1544    1.0000 </r>
       <r>  -12.1523    1.0000 </r>
       <r>  -12.1517    1.0000 </r>
       <r>  -12.1486    1.0000 </r>
       <r>  -12.1444    1.0000 </r>
       <r>  -12.1427    1.0000 </r>
       <r>  -12.1420    1.0000 </r>
       <r>  -12.1386    1.0000 </r>
       <r>  -12.1283    1.0000 </r>
       <r>  -12.0648    1.0000 </r>
       <r>  -12.0615    1.0000 </r>
       <r>  -12.0560    1.0000 </r>
       <r>  -11.9604    1.0000 </r>
       <r>  -11.9603    1.0000 </r>
       <r>  -11.5941    1.0000 </r>
       <r>  -11.5941    1.0000 </r>
       <r>  -11.5939    1.0000 </r>
       <r>  -11.5938    1.0000 </r>
       <r>  -11.4712    1.0000 </r>
       <r>  -11.4660    1.0000 </r>
       <r>   -8.1767    1.0000 </r>
       <r>   -7.2989    1.0000 </r>
       <r>   -7.2989    1.0000 </r>
       <r>   -6.5941    1.0000 </r>
       <r>   -6.5940    1.0000 </r>
       <r>   -6.5331    1.0000 </r>
       <r>   -6.5258    1.0000 </r>
       <r>   -6.5257    1.0000 </r>
       <r>   -6.5240    1.0000 </r>
       <r>   -6.5206    1.0000 </r>
       <r>   -6.5205    1.0000 </r>
       <r>   -6.5020    1.0000 </r>
       <r>   -6.4692    1.0000 </r>
       <r>   -6.3925    1.0000 </r>
       <r>   -6.3900    1.0000 </r>
       <r>   -6.3875    1.0000 </r>
       <r>   -6.3091    1.0000 </r>
       <r>   -6.3091    1.0000 </r>
       <r>   -6.0935    1.0000 </r>
       <r>   -6.0934    1.0000 </r>
       <r>   -6.0272    1.0000 </r>
       <r>   -6.0271    1.0000 </r>
       <r>   -6.0046    1.0000 </r>
       <r>   -5.9866    1.0000 </r>
       <r>   -5.9065    1.0000 </r>
       <r>   -5.9065    1.0000 </r>
       <r>   -5.7166    1.0000 </r>
       <r>   -5.7165    1.0000 </r>
       <r>   -5.7105    1.0000 </r>
       <r>   -5.7104    1.0000 </r>
       <r>   -5.7079    1.0000 </r>
       <r>   -5.7079    1.0000 </r>
       <r>   -5.7016    1.0000 </r>
       <r>   -5.7015    1.0000 </r>
       <r>   -5.6929    1.0000 </r>
       <r>   -5.6888    1.0000 </r>
       <r>   -5.6875    1.0000 </r>
       <r>   -5.6846    1.0000 </r>
       <r>   -5.6836    1.0000 </r>
       <r>   -5.6834    1.0000 </r>
       <r>   -5.6780    1.0000 </r>
       <r>   -5.6767    1.0000 </r>
       <r>   -5.6715    1.0000 </r>
       <r>   -5.6712    1.0000 </r>
       <r>   -5.6701    1.0000 </r>
       <r>   -5.6698    1.0000 </r>
       <r>   -5.6651    1.0000 </r>
       <r>   -5.6651    1.0000 </r>
       <r>   -5.6630    1.0000 </r>
       <r>   -5.6630    1.0000 </r>
       <r>   -5.5813    1.0000 </r>
       <r>   -5.5810    1.0000 </r>
       <r>   -5.5640    1.0000 </r>
       <r>   -5.5606    1.0000 </r>
       <r>   -5.5588    1.0000 </r>
       <r>   -5.5580    1.0000 </r>
       <r>   -5.5554    1.0000 </r>
       <r>   -5.5548    1.0000 </r>
       <r>   -5.5548    1.0000 </r>
       <r>   -5.5540    1.0000 </r>
       <r>   -5.5533    1.0000 </r>
       <r>   -5.5511    1.0000 </r>
       <r>   -5.5473    1.0000 </r>
       <r>   -5.5463    1.0000 </r>
       <r>   -5.5432    1.0000 </r>
       <r>   -5.5385    1.0000 </r>
       <r>   -5.4186    1.0000 </r>
       <r>   -5.4175    1.0000 </r>
       <r>   -5.3587    1.0000 </r>
       <r>   -5.2307    1.0000 </r>
       <r>   -5.1381    1.0000 </r>
       <r>   -5.1381    1.0000 </r>
       <r>   -4.9856    1.0000 </r>
       <r>   -4.9187    1.0000 </r>
       <r>   -4.9186    1.0000 </r>
       <r>   -4.8706    1.0000 </r>
       <r>   -4.7458    1.0000 </r>
       <r>   -4.7458    1.0000 </r>
       <r>   -4.7455    1.0000 </r>
       <r>   -4.7455    1.0000 </r>
       <r>   -4.6191    1.0000 </r>
       <r>   -4.6191    1.0000 </r>
       <r>   -4.4792    1.0000 </r>
       <r>   -4.4790    1.0000 </r>
       <r>   -4.4782    1.0000 </r>
       <r>   -4.4760    1.0000 </r>
       <r>   -4.4760    1.0000 </r>
       <r>   -4.4759    1.0000 </r>
       <r>   -4.4716    1.0000 </r>
       <r>   -4.4716    1.0000 </r>
       <r>   -4.4701    1.0000 </r>
       <r>   -4.4686    1.0000 </r>
       <r>   -4.4685    1.0000 </r>
       <r>   -4.4683    1.0000 </r>
       <r>   -4.3437    1.0000 </r>
       <r>   -4.3419    1.0000 </r>
       <r>   -4.3389    1.0000 </r>
       <r>   -4.3389    1.0000 </r>
       <r>   -4.3357    1.0000 </r>
       <r>   -4.3342    1.0000 </r>
       <r>   -4.0739    1.0000 </r>
       <r>   -4.0360    1.0000 </r>
       <r>   -3.9235    1.0000 </r>
       <r>   -3.9235    1.0000 </r>
       <r>   -3.6230    1.0000 </r>
       <r>   -3.6230    1.0000 </r>
       <r>   -3.5974    1.0000 </r>
       <r>   -3.5858    1.0000 </r>
       <r>   -3.5589    1.0000 </r>
       <r>   -3.5153    1.0000 </r>
       <r>   -3.5152    1.0000 </r>
       <r>   -3.4229    1.0000 </r>
       <r>   -3.3536    1.0000 </r>
       <r>   -3.3181    1.0000 </r>
       <r>   -3.3180    1.0000 </r>
       <r>   -3.3029    1.0000 </r>
       <r>   -3.3029    1.0000 </r>
       <r>   -3.2200    1.0000 </r>
       <r>   -3.2163    1.0000 </r>
       <r>   -3.2160    1.0000 </r>
       <r>   -3.1819    1.0000 </r>
       <r>   -3.1727    1.0000 </r>
       <r>   -3.1727    1.0000 </r>
       <r>   -3.0981    1.0000 </r>
       <r>   -3.0980    1.0000 </r>
       <r>   -3.0977    1.0000 </r>
       <r>   -3.0963    1.0000 </r>
       <r>   -3.0963    1.0000 </r>
       <r>   -3.0963    1.0000 </r>
       <r>   -3.0961    1.0000 </r>
       <r>   -3.0961    1.0000 </r>
       <r>   -3.0956    1.0000 </r>
       <r>   -3.0953    1.0000 </r>
       <r>   -3.0953    1.0000 </r>
       <r>   -3.0951    1.0000 </r>
       <r>   -3.0183    1.0000 </r>
       <r>   -3.0180    1.0000 </r>
       <r>   -2.9752    1.0000 </r>
       <r>   -2.9715    1.0000 </r>
       <r>   -2.9692    1.0000 </r>
       <r>   -2.9685    1.0000 </r>
       <r>   -2.9664    1.0000 </r>
       <r>   -2.9655    1.0000 </r>
       <r>   -2.9630    1.0000 </r>
       <r>   -2.9259    1.0000 </r>
       <r>   -2.9258    1.0000 </r>
       <r>   -2.9213    1.0000 </r>
       <r>   -2.9212    1.0000 </r>
       <r>   -2.9191    1.0000 </r>
       <r>   -2.9190    1.0000 </r>
       <r>   -2.9133    1.0000 </r>
       <r>   -2.9132    1.0000 </r>
       <r>   -2.9086    1.0000 </r>
       <r>   -2.9038    1.0000 </r>
       <r>   -2.9025    1.0000 </r>
       <r>   -2.8967    1.0000 </r>
       <r>   -2.8936    1.0000 </r>
       <r>   -2.8925    1.0000 </r>
       <r>   -2.8877    1.0000 </r>
       <r>   -2.8860    1.0000 </r>
       <r>   -2.8820    1.0000 </r>
       <r>   -2.8819    1.0000 </r>
       <r>   -2.8802    1.0000 </r>
       <r>   -2.8799    1.0000 </r>
       <r>   -2.8757    1.0000 </r>
       <r>   -2.8756    1.0000 </r>
       <r>   -2.8732    1.0000 </r>
       <r>   -2.8731    1.0000 </r>
       <r>   -2.8570    1.0000 </r>
       <r>   -2.8308    1.0000 </r>
       <r>   -2.8290    1.0000 </r>
       <r>   -2.8051    1.0000 </r>
       <r>   -2.8026    1.0000 </r>
       <r>   -2.7905    1.0000 </r>
       <r>   -2.7748    1.0000 </r>
       <r>   -2.7727    1.0000 </r>
       <r>   -2.7720    1.0000 </r>
       <r>   -2.7708    1.0000 </r>
       <r>   -2.7687    1.0000 </r>
       <r>   -2.7680    1.0000 </r>
       <r>   -2.7667    1.0000 </r>
       <r>   -2.7636    1.0000 </r>
       <r>   -2.7589    1.0000 </r>
       <r>   -2.7581    1.0000 </r>
       <r>   -2.7568    1.0000 </r>
       <r>   -2.7516    1.0000 </r>
       <r>   -2.3795    1.0000 </r>
       <r>   -2.2336    1.0000 </r>
       <r>   -2.2335    1.0000 </r>
       <r>   -2.2124    1.0000 </r>
       <r>   -2.1186    1.0000 </r>
       <r>   -2.0969    1.0000 </r>
       <r>   -2.0897    1.0000 </r>
       <r>   -2.0897    1.0000 </r>
       <r>   -1.9793    1.0000 </r>
       <r>   -1.9474    1.0000 </r>
       <r>   -1.9472    1.0000 </r>
       <r>   -1.9457    1.0000 </r>
       <r>   -1.9457    1.0000 </r>
       <r>   -1.8931    1.0000 </r>
       <r>   -1.7145    1.0000 </r>
       <r>   -1.7144    1.0000 </r>
       <r>   -1.7144    1.0000 </r>
       <r>   -1.7099    1.0000 </r>
       <r>   -1.7098    1.0000 </r>
       <r>   -1.7097    1.0000 </r>
       <r>   -1.6816    1.0000 </r>
       <r>   -1.6814    1.0000 </r>
       <r>   -1.6692    1.0000 </r>
       <r>   -1.6614    1.0000 </r>
       <r>   -1.6343    1.0000 </r>
       <r>   -1.6341    1.0000 </r>
       <r>   -1.5935    1.0000 </r>
       <r>   -1.5932    1.0000 </r>
       <r>   -1.5831    1.0000 </r>
       <r>   -1.5807    1.0000 </r>
       <r>   -1.5784    1.0000 </r>
       <r>   -1.5724    1.0000 </r>
       <r>   -1.5721    1.0000 </r>
       <r>   -1.5686    1.0000 </r>
       <r>   -1.5475    1.0000 </r>
       <r>   -1.5218    1.0000 </r>
       <r>   -1.5218    1.0000 </r>
       <r>   -1.5022    1.0000 </r>
       <r>   -1.5021    1.0000 </r>
       <r>   -1.5011    1.0000 </r>
       <r>   -1.5003    1.0000 </r>
       <r>   -1.4998    1.0000 </r>
       <r>   -1.4995    1.0000 </r>
       <r>   -1.4971    1.0000 </r>
       <r>   -1.4907    1.0000 </r>
       <r>   -1.4906    1.0000 </r>
       <r>   -1.4906    1.0000 </r>
       <r>   -1.4905    1.0000 </r>
       <r>   -1.4883    1.0000 </r>
       <r>   -1.4872    1.0000 </r>
       <r>   -1.4871    1.0000 </r>
       <r>   -1.4869    1.0000 </r>
       <r>   -1.4813    1.0000 </r>
       <r>   -1.4479    1.0000 </r>
       <r>   -1.4449    1.0000 </r>
       <r>   -1.4308    1.0000 </r>
       <r>   -1.4292    1.0000 </r>
       <r>   -1.4280    1.0000 </r>
       <r>   -1.3866    1.0000 </r>
       <r>   -1.3790    1.0000 </r>
       <r>   -1.3784    1.0000 </r>
       <r>   -1.3759    1.0000 </r>
       <r>   -1.3711    1.0000 </r>
       <r>   -1.3706    1.0000 </r>
       <r>   -1.3680    1.0000 </r>
       <r>   -1.3641    1.0000 </r>
       <r>   -1.3612    1.0000 </r>
       <r>   -1.3606    1.0000 </r>
       <r>   -1.3575    1.0000 </r>
       <r>   -1.3546    1.0000 </r>
       <r>   -1.2298    1.0000 </r>
       <r>   -1.2219    1.0000 </r>
       <r>   -1.2216    1.0000 </r>
       <r>   -1.1525    1.0000 </r>
       <r>   -1.1517    1.0000 </r>
       <r>   -1.1515    1.0000 </r>
       <r>   -1.1504    1.0000 </r>
       <r>   -1.1503    1.0000 </r>
       <r>   -1.1493    1.0000 </r>
       <r>   -1.1481    1.0000 </r>
       <r>   -1.1473    1.0000 </r>
       <r>   -1.1472    1.0000 </r>
       <r>   -1.1461    1.0000 </r>
       <r>   -1.1461    1.0000 </r>
       <r>   -1.1452    1.0000 </r>
       <r>   -1.1232    1.0000 </r>
       <r>   -1.1212    1.0000 </r>
       <r>   -1.1210    1.0000 </r>
       <r>   -1.0679    1.0000 </r>
       <r>   -1.0262    1.0000 </r>
       <r>   -1.0217    1.0000 </r>
       <r>   -1.0192    1.0000 </r>
       <r>   -1.0190    1.0000 </r>
       <r>   -1.0168    1.0000 </r>
       <r>   -1.0120    1.0000 </r>
       <r>   -1.0025    1.0000 </r>
       <r>   -1.0024    1.0000 </r>
       <r>   -0.9884    1.0000 </r>
       <r>   -0.8609    1.0000 </r>
       <r>   -0.8608    1.0000 </r>
       <r>   -0.8598    1.0000 </r>
       <r>   -0.8513    1.0000 </r>
       <r>   -0.8511    1.0000 </r>
       <r>   -0.8493    1.0000 </r>
       <r>   -0.8431    1.0000 </r>
       <r>   -0.8429    1.0000 </r>
       <r>   -0.8346    1.0000 </r>
       <r>   -0.8341    1.0000 </r>
       <r>   -0.8338    1.0000 </r>
       <r>   -0.8254    1.0000 </r>
       <r>   -0.7522    1.0000 </r>
       <r>   -0.7475    1.0000 </r>
       <r>   -0.7456    1.0000 </r>
       <r>   -0.7432    1.0000 </r>
       <r>   -0.7423    1.0000 </r>
       <r>   -0.7401    1.0000 </r>
       <r>   -0.7238    1.0000 </r>
       <r>   -0.7210    1.0000 </r>
       <r>   -0.7192    1.0000 </r>
       <r>   -0.7188    1.0000 </r>
       <r>   -0.7146    1.0000 </r>
       <r>   -0.7104    1.0000 </r>
       <r>   -0.4349    1.0000 </r>
       <r>   -0.4347    1.0000 </r>
       <r>   -0.4001    1.0000 </r>
       <r>   -0.3401    1.0000 </r>
       <r>   -0.3346    1.0000 </r>
       <r>   -0.3344    1.0000 </r>
       <r>   -0.3338    1.0000 </r>
       <r>   -0.2555    1.0000 </r>
       <r>   -0.2555    1.0000 </r>
       <r>   -0.1335    1.0000 </r>
       <r>   -0.1260    1.0000 </r>
       <r>   -0.1245    1.0000 </r>
       <r>   -0.1235    1.0000 </r>
       <r>   -0.1222    1.0000 </r>
       <r>   -0.1215    1.0000 </r>
       <r>   -0.0869    1.0000 </r>
       <r>   -0.0869    1.0000 </r>
       <r>   -0.0385    1.0000 </r>
       <r>    0.0433    1.0000 </r>
       <r>    0.0435    1.0000 </r>
       <r>    0.1765    1.0000 </r>
       <r>    0.2136    1.0000 </r>
       <r>    0.2160    1.0000 </r>
       <r>    0.2173    1.0000 </r>
       <r>    0.2175    1.0000 </r>
       <r>    0.2198    1.0000 </r>
       <r>    0.2200    1.0000 </r>
       <r>    0.2267    1.0000 </r>
       <r>    0.2268    1.0000 </r>
       <r>    0.2328    1.0000 </r>
       <r>    0.2364    1.0000 </r>
       <r>    0.2365    1.0000 </r>
       <r>    0.2393    1.0000 </r>
       <r>    0.2394    1.0000 </r>
       <r>    0.2445    1.0000 </r>
       <r>    0.2477    1.0000 </r>
       <r>    0.3470    1.0000 </r>
       <r>    0.3530    1.0000 </r>
       <r>    0.3552    1.0000 </r>
       <r>    0.3597    1.0000 </r>
       <r>    0.3598    1.0000 </r>
       <r>    0.3606    1.0000 </r>
       <r>    0.3624    1.0000 </r>
       <r>    0.3707    1.0000 </r>
       <r>    0.4284    1.0000 </r>
       <r>    0.4346    1.0000 </r>
       <r>    0.4370    1.0000 </r>
       <r>    0.4387    1.0000 </r>
       <r>    0.4400    1.0000 </r>
       <r>    0.4429    1.0000 </r>
       <r>    0.5064    1.0000 </r>
       <r>    0.5857    1.0000 </r>
       <r>    0.6414    1.0000 </r>
       <r>    0.6415    1.0000 </r>
       <r>    0.7206    1.0000 </r>
       <r>    0.7206    1.0000 </r>
       <r>    0.7447    1.0000 </r>
       <r>    0.7448    1.0000 </r>
       <r>    0.7508    1.0000 </r>
       <r>    0.7775    1.0000 </r>
       <r>    0.7832    1.0000 </r>
       <r>    0.7833    1.0000 </r>
       <r>    0.9069    1.0000 </r>
       <r>    0.9232    1.0000 </r>
       <r>    0.9260    1.0000 </r>
       <r>    0.9272    1.0000 </r>
       <r>    0.9406    1.0000 </r>
       <r>    0.9418    1.0000 </r>
       <r>    0.9469    1.0000 </r>
       <r>    0.9470    1.0000 </r>
       <r>    0.9514    1.0000 </r>
       <r>    0.9519    1.0000 </r>
       <r>    0.9523    1.0000 </r>
       <r>    0.9632    1.0000 </r>
       <r>    0.9638    1.0000 </r>
       <r>    0.9650    1.0000 </r>
       <r>    0.9668    1.0000 </r>
       <r>    1.1333    1.0000 </r>
       <r>    1.1333    1.0000 </r>
       <r>    1.1348    1.0000 </r>
       <r>    1.1349    1.0000 </r>
       <r>    1.1811    1.0000 </r>
       <r>    1.1819    1.0000 </r>
       <r>    1.1845    1.0000 </r>
       <r>    1.2582    1.0000 </r>
       <r>    1.2647    1.0000 </r>
       <r>    1.4232    1.0000 </r>
       <r>    1.4235    1.0000 </r>
       <r>    1.5020    1.0000 </r>
       <r>    1.5461    1.0000 </r>
       <r>    1.5855    1.0000 </r>
       <r>    1.5858    1.0000 </r>
       <r>    1.6193    1.0000 </r>
       <r>    1.6194    1.0000 </r>
       <r>    1.6497    1.0000 </r>
       <r>    1.6665    1.0000 </r>
       <r>    1.6674    1.0000 </r>
       <r>    1.6675    1.0000 </r>
       <r>    1.7243    1.0000 </r>
       <r>    1.7245    1.0000 </r>
       <r>    1.7263    1.0000 </r>
       <r>    1.7690    1.0000 </r>
       <r>    1.7859    1.0000 </r>
       <r>    1.7904    1.0000 </r>
       <r>    1.7922    1.0000 </r>
       <r>    1.8023    1.0000 </r>
       <r>    1.8041    1.0000 </r>
       <r>    1.8128    1.0000 </r>
       <r>    1.8135    1.0000 </r>
       <r>    1.8232    1.0000 </r>
       <r>    1.8240    1.0000 </r>
       <r>    1.8253    1.0000 </r>
       <r>    1.8277    1.0000 </r>
       <r>    1.8928    1.0000 </r>
       <r>    1.8940    1.0000 </r>
       <r>    1.8978    1.0000 </r>
       <r>    2.0494    1.0000 </r>
       <r>    2.0494    1.0000 </r>
       <r>    2.3688    1.0000 </r>
       <r>    2.3730    1.0000 </r>
       <r>    2.3770    1.0000 </r>
       <r>    2.3788    1.0000 </r>
       <r>    2.4994    1.0000 </r>
       <r>    2.5021    1.0000 </r>
       <r>    5.5459    0.0000 </r>
       <r>    6.5234    0.0000 </r>
       <r>    6.5235    0.0000 </r>
       <r>    6.7450    0.0000 </r>
       <r>    6.7666    0.0000 </r>
       <r>    6.7840    0.0000 </r>
       <r>    6.8608    0.0000 </r>
       <r>    6.8630    0.0000 </r>
       <r>    6.8690    0.0000 </r>
       <r>    7.1396    0.0000 </r>
       <r>    7.1847    0.0000 </r>
       <r>    7.1848    0.0000 </r>
       <r>    7.1894    0.0000 </r>
       <r>    7.1895    0.0000 </r>
       <r>    7.2990    0.0000 </r>
       <r>    7.2991    0.0000 </r>
       <r>    7.3167    0.0000 </r>
       <r>    7.3170    0.0000 </r>
       <r>    7.3681    0.0000 </r>
       <r>    7.4374    0.0000 </r>
       <r>    7.4375    0.0000 </r>
       <r>    7.5254    0.0000 </r>
       <r>    7.5255    0.0000 </r>
       <r>    7.5770    0.0000 </r>
       <r>    7.5851    0.0000 </r>
       <r>    7.5851    0.0000 </r>
       <r>    7.5990    0.0000 </r>
       <r>    7.6332    0.0000 </r>
       <r>    7.6333    0.0000 </r>
       <r>    7.6404    0.0000 </r>
       <r>    7.6949    0.0000 </r>
       <r>    7.6965    0.0000 </r>
       <r>    7.7171    0.0000 </r>
       <r>    7.7223    0.0000 </r>
       <r>    7.7270    0.0000 </r>
       <r>    7.7272    0.0000 </r>
       <r>    7.7426    0.0000 </r>
       <r>    7.7443    0.0000 </r>
       <r>    7.7514    0.0000 </r>
       <r>    7.7537    0.0000 </r>
       <r>    7.7557    0.0000 </r>
       <r>    7.7571    0.0000 </r>
       <r>    7.8173    0.0000 </r>
       <r>    7.8196    0.0000 </r>
       <r>    7.8199    0.0000 </r>
       <r>    8.0312    0.0000 </r>
       <r>    8.0924    0.0000 </r>
       <r>    8.0925    0.0000 </r>
       <r>    8.1019    0.0000 </r>
       <r>    8.1536    0.0000 </r>
       <r>    8.1536    0.0000 </r>
       <r>    8.1891    0.0000 </r>
       <r>    8.1892    0.0000 </r>
       <r>    8.2170    0.0000 </r>
       <r>    8.2242    0.0000 </r>
       <r>    8.2243    0.0000 </r>
       <r>    8.2289    0.0000 </r>
       <r>    8.3192    0.0000 </r>
       <r>    8.3220    0.0000 </r>
       <r>    8.3251    0.0000 </r>
       <r>    8.3315    0.0000 </r>
       <r>    8.3407    0.0000 </r>
       <r>    8.3429    0.0000 </r>
       <r>    8.3434    0.0000 </r>
       <r>    8.3479    0.0000 </r>
       <r>    8.3503    0.0000 </r>
       <r>    8.3613    0.0000 </r>
       <r>    8.3629    0.0000 </r>
       <r>    8.3647    0.0000 </r>
       <r>    8.3674    0.0000 </r>
       <r>    8.3694    0.0000 </r>
       <r>    8.8681    0.0000 </r>
       <r>    8.9247    0.0000 </r>
       <r>    8.9250    0.0000 </r>
       <r>    9.0871    0.0000 </r>
       <r>    9.0876    0.0000 </r>
       <r>    9.1083    0.0000 </r>
       <r>    9.1084    0.0000 </r>
       <r>    9.1341    0.0000 </r>
       <r>    9.1430    0.0000 </r>
       <r>    9.1433    0.0000 </r>
       <r>    9.1696    0.0000 </r>
       <r>    9.1764    0.0000 </r>
       <r>    9.1991    0.0000 </r>
       <r>    9.2004    0.0000 </r>
       <r>    9.2259    0.0000 </r>
       <r>    9.2275    0.0000 </r>
       <r>    9.2421    0.0000 </r>
       <r>    9.2750    0.0000 </r>
       <r>    9.3185    0.0000 </r>
       <r>    9.3193    0.0000 </r>
       <r>    9.3899    0.0000 </r>
       <r>    9.3904    0.0000 </r>
       <r>    9.3917    0.0000 </r>
       <r>    9.4637    0.0000 </r>
       <r>    9.6125    0.0000 </r>
       <r>    9.6133    0.0000 </r>
       <r>    9.6856    0.0000 </r>
       <r>    9.7765    0.0000 </r>
       <r>    9.7767    0.0000 </r>
       <r>    9.7943    0.0000 </r>
       <r>    9.7944    0.0000 </r>
       <r>    9.8026    0.0000 </r>
       <r>    9.9507    0.0000 </r>
       <r>    9.9525    0.0000 </r>
       <r>    9.9535    0.0000 </r>
       <r>    9.9768    0.0000 </r>
       <r>    9.9795    0.0000 </r>
       <r>    9.9811    0.0000 </r>
       <r>   10.0850    0.0000 </r>
       <r>   10.1349    0.0000 </r>
       <r>   10.1352    0.0000 </r>
       <r>   10.1497    0.0000 </r>
       <r>   10.1499    0.0000 </r>
       <r>   10.1704    0.0000 </r>
       <r>   10.1855    0.0000 </r>
       <r>   10.1858    0.0000 </r>
       <r>   10.1923    0.0000 </r>
       <r>   10.2063    0.0000 </r>
       <r>   10.2067    0.0000 </r>
       <r>   10.2977    0.0000 </r>
       <r>   10.5564    0.0000 </r>
       <r>   10.6252    0.0000 </r>
       <r>   10.6254    0.0000 </r>
       <r>   10.6450    0.0000 </r>
       <r>   10.6452    0.0000 </r>
       <r>   10.6648    0.0000 </r>
       <r>   10.8087    0.0000 </r>
       <r>   10.8152    0.0000 </r>
       <r>   10.8157    0.0000 </r>
       <r>   10.8188    0.0000 </r>
       <r>   10.8200    0.0000 </r>
       <r>   10.8208    0.0000 </r>
       <r>   11.3050    0.0000 </r>
       <r>   11.3514    0.0000 </r>
       <r>   11.3725    0.0000 </r>
       <r>   11.4323    0.0000 </r>
       <r>   11.4831    0.0000 </r>
       <r>   11.4901    0.0000 </r>
       <r>   11.5021    0.0000 </r>
       <r>   11.5240    0.0000 </r>
       <r>   11.5674    0.0000 </r>
       <r>   11.5826    0.0000 </r>
       <r>   11.6469    0.0000 </r>
       <r>   11.7003    0.0000 </r>
       <r>   11.7161    0.0000 </r>
       <r>   11.7485    0.0000 </r>
       <r>   11.7675    0.0000 </r>
       <r>   11.8086    0.0000 </r>
       <r>   11.8250    0.0000 </r>
       <r>   11.8406    0.0000 </r>
       <r>   11.8804    0.0000 </r>
      </set>
      <set comment="kpoint 6">
       <r>  -17.1660    1.0000 </r>
       <r>  -15.7430    1.0000 </r>
       <r>  -15.6887    1.0000 </r>
       <r>  -15.4120    1.0000 </r>
       <r>  -15.2834    1.0000 </r>
       <r>  -15.2748    1.0000 </r>
       <r>  -15.2421    1.0000 </r>
       <r>  -15.2043    1.0000 </r>
       <r>  -15.1416    1.0000 </r>
       <r>  -15.0834    1.0000 </r>
       <r>  -15.0471    1.0000 </r>
       <r>  -15.0339    1.0000 </r>
       <r>  -15.0154    1.0000 </r>
       <r>  -14.9850    1.0000 </r>
       <r>  -14.9832    1.0000 </r>
       <r>  -14.9060    1.0000 </r>
       <r>  -14.8989    1.0000 </r>
       <r>  -14.8523    1.0000 </r>
       <r>  -14.7594    1.0000 </r>
       <r>  -14.7559    1.0000 </r>
       <r>  -14.6145    1.0000 </r>
       <r>  -14.5660    1.0000 </r>
       <r>  -14.5389    1.0000 </r>
       <r>  -14.4658    1.0000 </r>
       <r>  -14.4624    1.0000 </r>
       <r>  -14.4602    1.0000 </r>
       <r>  -14.4591    1.0000 </r>
       <r>  -14.4216    1.0000 </r>
       <r>  -14.4023    1.0000 </r>
       <r>  -14.3959    1.0000 </r>
       <r>  -14.3847    1.0000 </r>
       <r>  -14.3349    1.0000 </r>
       <r>  -14.2472    1.0000 </r>
       <r>  -14.2460    1.0000 </r>
       <r>  -14.2437    1.0000 </r>
       <r>  -14.2422    1.0000 </r>
       <r>  -14.2074    1.0000 </r>
       <r>  -14.2065    1.0000 </r>
       <r>  -14.1681    1.0000 </r>
       <r>  -14.1493    1.0000 </r>
       <r>  -14.1057    1.0000 </r>
       <r>  -14.0340    1.0000 </r>
       <r>  -13.9976    1.0000 </r>
       <r>  -13.9973    1.0000 </r>
       <r>  -13.9392    1.0000 </r>
       <r>  -13.7793    1.0000 </r>
       <r>  -13.7416    1.0000 </r>
       <r>  -13.7399    1.0000 </r>
       <r>  -13.7122    1.0000 </r>
       <r>  -13.7110    1.0000 </r>
       <r>  -13.7021    1.0000 </r>
       <r>  -13.6803    1.0000 </r>
       <r>  -13.6572    1.0000 </r>
       <r>  -13.6551    1.0000 </r>
       <r>  -13.5965    1.0000 </r>
       <r>  -13.5335    1.0000 </r>
       <r>  -13.5321    1.0000 </r>
       <r>  -13.5212    1.0000 </r>
       <r>  -13.5155    1.0000 </r>
       <r>  -13.5019    1.0000 </r>
       <r>  -13.3575    1.0000 </r>
       <r>  -13.3334    1.0000 </r>
       <r>  -13.2538    1.0000 </r>
       <r>  -13.2219    1.0000 </r>
       <r>  -13.1077    1.0000 </r>
       <r>  -13.0679    1.0000 </r>
       <r>  -13.0636    1.0000 </r>
       <r>  -13.0620    1.0000 </r>
       <r>  -13.0611    1.0000 </r>
       <r>  -13.0326    1.0000 </r>
       <r>  -13.0264    1.0000 </r>
       <r>  -13.0229    1.0000 </r>
       <r>  -13.0163    1.0000 </r>
       <r>  -12.9709    1.0000 </r>
       <r>  -12.9230    1.0000 </r>
       <r>  -12.8944    1.0000 </r>
       <r>  -12.8919    1.0000 </r>
       <r>  -12.8888    1.0000 </r>
       <r>  -12.8881    1.0000 </r>
       <r>  -12.8805    1.0000 </r>
       <r>  -12.8782    1.0000 </r>
       <r>  -12.8774    1.0000 </r>
       <r>  -12.8749    1.0000 </r>
       <r>  -12.8656    1.0000 </r>
       <r>  -12.8597    1.0000 </r>
       <r>  -12.8560    1.0000 </r>
       <r>  -12.8504    1.0000 </r>
       <r>  -12.8500    1.0000 </r>
       <r>  -12.7193    1.0000 </r>
       <r>  -12.7150    1.0000 </r>
       <r>  -12.7146    1.0000 </r>
       <r>  -12.7106    1.0000 </r>
       <r>  -12.6816    1.0000 </r>
       <r>  -12.6086    1.0000 </r>
       <r>  -12.5983    1.0000 </r>
       <r>  -12.5764    1.0000 </r>
       <r>  -12.5728    1.0000 </r>
       <r>  -12.5512    1.0000 </r>
       <r>  -12.5328    1.0000 </r>
       <r>  -12.4981    1.0000 </r>
       <r>  -12.4351    1.0000 </r>
       <r>  -12.4293    1.0000 </r>
       <r>  -12.4228    1.0000 </r>
       <r>  -12.4217    1.0000 </r>
       <r>  -12.3418    1.0000 </r>
       <r>  -12.3383    1.0000 </r>
       <r>  -12.3213    1.0000 </r>
       <r>  -12.3170    1.0000 </r>
       <r>  -12.2463    1.0000 </r>
       <r>  -12.2448    1.0000 </r>
       <r>  -12.2367    1.0000 </r>
       <r>  -12.2323    1.0000 </r>
       <r>  -12.2190    1.0000 </r>
       <r>  -12.2180    1.0000 </r>
       <r>  -12.2081    1.0000 </r>
       <r>  -12.2052    1.0000 </r>
       <r>  -12.1764    1.0000 </r>
       <r>  -12.1762    1.0000 </r>
       <r>  -12.1700    1.0000 </r>
       <r>  -12.1698    1.0000 </r>
       <r>  -12.0958    1.0000 </r>
       <r>  -12.0956    1.0000 </r>
       <r>  -12.0880    1.0000 </r>
       <r>  -12.0877    1.0000 </r>
       <r>  -12.0866    1.0000 </r>
       <r>  -12.0842    1.0000 </r>
       <r>  -11.9507    1.0000 </r>
       <r>  -11.9480    1.0000 </r>
       <r>  -11.9464    1.0000 </r>
       <r>  -11.9435    1.0000 </r>
       <r>  -11.8180    1.0000 </r>
       <r>  -11.8129    1.0000 </r>
       <r>  -11.8078    1.0000 </r>
       <r>  -11.8076    1.0000 </r>
       <r>  -11.8041    1.0000 </r>
       <r>  -11.8035    1.0000 </r>
       <r>  -11.7850    1.0000 </r>
       <r>  -11.7847    1.0000 </r>
       <r>  -11.7795    1.0000 </r>
       <r>  -11.7793    1.0000 </r>
       <r>  -11.6697    1.0000 </r>
       <r>  -11.6679    1.0000 </r>
       <r>  -11.6644    1.0000 </r>
       <r>  -11.6563    1.0000 </r>
       <r>   -8.1624    1.0000 </r>
       <r>   -7.2498    1.0000 </r>
       <r>   -7.2353    1.0000 </r>
       <r>   -6.7831    1.0000 </r>
       <r>   -6.6995    1.0000 </r>
       <r>   -6.6787    1.0000 </r>
       <r>   -6.4258    1.0000 </r>
       <r>   -6.4019    1.0000 </r>
       <r>   -6.3172    1.0000 </r>
       <r>   -6.3087    1.0000 </r>
       <r>   -6.3057    1.0000 </r>
       <r>   -6.3038    1.0000 </r>
       <r>   -6.2979    1.0000 </r>
       <r>   -6.2835    1.0000 </r>
       <r>   -6.2754    1.0000 </r>
       <r>   -6.2746    1.0000 </r>
       <r>   -6.2685    1.0000 </r>
       <r>   -6.2683    1.0000 </r>
       <r>   -6.2154    1.0000 </r>
       <r>   -6.2131    1.0000 </r>
       <r>   -6.2109    1.0000 </r>
       <r>   -6.2073    1.0000 </r>
       <r>   -6.1950    1.0000 </r>
       <r>   -6.1918    1.0000 </r>
       <r>   -6.1593    1.0000 </r>
       <r>   -6.1585    1.0000 </r>
       <r>   -6.1499    1.0000 </r>
       <r>   -6.1488    1.0000 </r>
       <r>   -6.0742    1.0000 </r>
       <r>   -6.0696    1.0000 </r>
       <r>   -5.9350    1.0000 </r>
       <r>   -5.9277    1.0000 </r>
       <r>   -5.9107    1.0000 </r>
       <r>   -5.9033    1.0000 </r>
       <r>   -5.8366    1.0000 </r>
       <r>   -5.7895    1.0000 </r>
       <r>   -5.7821    1.0000 </r>
       <r>   -5.7693    1.0000 </r>
       <r>   -5.7685    1.0000 </r>
       <r>   -5.7655    1.0000 </r>
       <r>   -5.7614    1.0000 </r>
       <r>   -5.7588    1.0000 </r>
       <r>   -5.7584    1.0000 </r>
       <r>   -5.7580    1.0000 </r>
       <r>   -5.7561    1.0000 </r>
       <r>   -5.7504    1.0000 </r>
       <r>   -5.7348    1.0000 </r>
       <r>   -5.6802    1.0000 </r>
       <r>   -5.6516    1.0000 </r>
       <r>   -5.6391    1.0000 </r>
       <r>   -5.6252    1.0000 </r>
       <r>   -5.6221    1.0000 </r>
       <r>   -5.6205    1.0000 </r>
       <r>   -5.6183    1.0000 </r>
       <r>   -5.2291    1.0000 </r>
       <r>   -5.2267    1.0000 </r>
       <r>   -5.2245    1.0000 </r>
       <r>   -5.2241    1.0000 </r>
       <r>   -5.2235    1.0000 </r>
       <r>   -5.2195    1.0000 </r>
       <r>   -5.2190    1.0000 </r>
       <r>   -5.2189    1.0000 </r>
       <r>   -5.2181    1.0000 </r>
       <r>   -5.2174    1.0000 </r>
       <r>   -5.2172    1.0000 </r>
       <r>   -5.2167    1.0000 </r>
       <r>   -5.1064    1.0000 </r>
       <r>   -5.0950    1.0000 </r>
       <r>   -5.0940    1.0000 </r>
       <r>   -5.0906    1.0000 </r>
       <r>   -5.0892    1.0000 </r>
       <r>   -5.0879    1.0000 </r>
       <r>   -5.0863    1.0000 </r>
       <r>   -5.0840    1.0000 </r>
       <r>   -5.0084    1.0000 </r>
       <r>   -4.9190    1.0000 </r>
       <r>   -4.8269    1.0000 </r>
       <r>   -4.5974    1.0000 </r>
       <r>   -4.5428    1.0000 </r>
       <r>   -4.5347    1.0000 </r>
       <r>   -4.4750    1.0000 </r>
       <r>   -4.4723    1.0000 </r>
       <r>   -4.4717    1.0000 </r>
       <r>   -4.4710    1.0000 </r>
       <r>   -4.4706    1.0000 </r>
       <r>   -4.4693    1.0000 </r>
       <r>   -4.4680    1.0000 </r>
       <r>   -4.4678    1.0000 </r>
       <r>   -4.3455    1.0000 </r>
       <r>   -4.3424    1.0000 </r>
       <r>   -4.3396    1.0000 </r>
       <r>   -4.3367    1.0000 </r>
       <r>   -4.3118    1.0000 </r>
       <r>   -4.1904    1.0000 </r>
       <r>   -4.0919    1.0000 </r>
       <r>   -4.0876    1.0000 </r>
       <r>   -4.0873    1.0000 </r>
       <r>   -4.0841    1.0000 </r>
       <r>   -4.0828    1.0000 </r>
       <r>   -4.0745    1.0000 </r>
       <r>   -4.0744    1.0000 </r>
       <r>   -4.0713    1.0000 </r>
       <r>   -4.0701    1.0000 </r>
       <r>   -4.0357    1.0000 </r>
       <r>   -4.0246    1.0000 </r>
       <r>   -3.9512    1.0000 </r>
       <r>   -3.9499    1.0000 </r>
       <r>   -3.9466    1.0000 </r>
       <r>   -3.9459    1.0000 </r>
       <r>   -3.9074    1.0000 </r>
       <r>   -3.8631    1.0000 </r>
       <r>   -3.7743    1.0000 </r>
       <r>   -3.6226    1.0000 </r>
       <r>   -3.6201    1.0000 </r>
       <r>   -3.6153    1.0000 </r>
       <r>   -3.6139    1.0000 </r>
       <r>   -3.6045    1.0000 </r>
       <r>   -3.6034    1.0000 </r>
       <r>   -3.5982    1.0000 </r>
       <r>   -3.5977    1.0000 </r>
       <r>   -3.5945    1.0000 </r>
       <r>   -3.4819    1.0000 </r>
       <r>   -3.4786    1.0000 </r>
       <r>   -3.4750    1.0000 </r>
       <r>   -3.4718    1.0000 </r>
       <r>   -3.4688    1.0000 </r>
       <r>   -3.4678    1.0000 </r>
       <r>   -3.4673    1.0000 </r>
       <r>   -3.4656    1.0000 </r>
       <r>   -3.4650    1.0000 </r>
       <r>   -3.3894    1.0000 </r>
       <r>   -3.3574    1.0000 </r>
       <r>   -3.3421    1.0000 </r>
       <r>   -3.3384    1.0000 </r>
       <r>   -3.3383    1.0000 </r>
       <r>   -3.3144    1.0000 </r>
       <r>   -3.3068    1.0000 </r>
       <r>   -3.1464    1.0000 </r>
       <r>   -3.0896    1.0000 </r>
       <r>   -3.0772    1.0000 </r>
       <r>   -3.0728    1.0000 </r>
       <r>   -3.0722    1.0000 </r>
       <r>   -3.0660    1.0000 </r>
       <r>   -3.0020    1.0000 </r>
       <r>   -2.9998    1.0000 </r>
       <r>   -2.9864    1.0000 </r>
       <r>   -2.9395    1.0000 </r>
       <r>   -2.9365    1.0000 </r>
       <r>   -2.8454    1.0000 </r>
       <r>   -2.7636    1.0000 </r>
       <r>   -2.7602    1.0000 </r>
       <r>   -2.7516    1.0000 </r>
       <r>   -2.7276    1.0000 </r>
       <r>   -2.7234    1.0000 </r>
       <r>   -2.6736    1.0000 </r>
       <r>   -2.6721    1.0000 </r>
       <r>   -2.6689    1.0000 </r>
       <r>   -2.6495    1.0000 </r>
       <r>   -2.6132    1.0000 </r>
       <r>   -2.5455    1.0000 </r>
       <r>   -2.5452    1.0000 </r>
       <r>   -2.5425    1.0000 </r>
       <r>   -2.5146    1.0000 </r>
       <r>   -2.4622    1.0000 </r>
       <r>   -2.3913    1.0000 </r>
       <r>   -2.3858    1.0000 </r>
       <r>   -2.3770    1.0000 </r>
       <r>   -2.3746    1.0000 </r>
       <r>   -2.3729    1.0000 </r>
       <r>   -2.3717    1.0000 </r>
       <r>   -2.3715    1.0000 </r>
       <r>   -2.3703    1.0000 </r>
       <r>   -2.3700    1.0000 </r>
       <r>   -2.3680    1.0000 </r>
       <r>   -2.3660    1.0000 </r>
       <r>   -2.3414    1.0000 </r>
       <r>   -2.2704    1.0000 </r>
       <r>   -2.2630    1.0000 </r>
       <r>   -2.2561    1.0000 </r>
       <r>   -2.2442    1.0000 </r>
       <r>   -2.2411    1.0000 </r>
       <r>   -2.2402    1.0000 </r>
       <r>   -2.2372    1.0000 </r>
       <r>   -2.2369    1.0000 </r>
       <r>   -2.2059    1.0000 </r>
       <r>   -2.1940    1.0000 </r>
       <r>   -2.1931    1.0000 </r>
       <r>   -2.1629    1.0000 </r>
       <r>   -2.1501    1.0000 </r>
       <r>   -2.1429    1.0000 </r>
       <r>   -2.1241    1.0000 </r>
       <r>   -2.0975    1.0000 </r>
       <r>   -2.0911    1.0000 </r>
       <r>   -2.0909    1.0000 </r>
       <r>   -2.0855    1.0000 </r>
       <r>   -2.0854    1.0000 </r>
       <r>   -2.0576    1.0000 </r>
       <r>   -2.0572    1.0000 </r>
       <r>   -2.0509    1.0000 </r>
       <r>   -2.0507    1.0000 </r>
       <r>   -2.0079    1.0000 </r>
       <r>   -1.9631    1.0000 </r>
       <r>   -1.9441    1.0000 </r>
       <r>   -1.9423    1.0000 </r>
       <r>   -1.9348    1.0000 </r>
       <r>   -1.9315    1.0000 </r>
       <r>   -1.9311    1.0000 </r>
       <r>   -1.9062    1.0000 </r>
       <r>   -1.9050    1.0000 </r>
       <r>   -1.8975    1.0000 </r>
       <r>   -1.8957    1.0000 </r>
       <r>   -1.8629    1.0000 </r>
       <r>   -1.8603    1.0000 </r>
       <r>   -1.8596    1.0000 </r>
       <r>   -1.8590    1.0000 </r>
       <r>   -1.8582    1.0000 </r>
       <r>   -1.8575    1.0000 </r>
       <r>   -1.8565    1.0000 </r>
       <r>   -1.8551    1.0000 </r>
       <r>   -1.8516    1.0000 </r>
       <r>   -1.7783    1.0000 </r>
       <r>   -1.7783    1.0000 </r>
       <r>   -1.7777    1.0000 </r>
       <r>   -1.7775    1.0000 </r>
       <r>   -1.7741    1.0000 </r>
       <r>   -1.7739    1.0000 </r>
       <r>   -1.7727    1.0000 </r>
       <r>   -1.7726    1.0000 </r>
       <r>   -1.7463    1.0000 </r>
       <r>   -1.7435    1.0000 </r>
       <r>   -1.7420    1.0000 </r>
       <r>   -1.7373    1.0000 </r>
       <r>   -1.7111    1.0000 </r>
       <r>   -1.7053    1.0000 </r>
       <r>   -1.6627    1.0000 </r>
       <r>   -1.6489    1.0000 </r>
       <r>   -1.6461    1.0000 </r>
       <r>   -1.6438    1.0000 </r>
       <r>   -1.6404    1.0000 </r>
       <r>   -1.6228    1.0000 </r>
       <r>   -1.6099    1.0000 </r>
       <r>   -1.6066    1.0000 </r>
       <r>   -1.5851    1.0000 </r>
       <r>   -1.5837    1.0000 </r>
       <r>   -1.5795    1.0000 </r>
       <r>   -1.5574    1.0000 </r>
       <r>   -1.5549    1.0000 </r>
       <r>   -1.5500    1.0000 </r>
       <r>   -1.4508    1.0000 </r>
       <r>   -1.4442    1.0000 </r>
       <r>   -1.4410    1.0000 </r>
       <r>   -1.4314    1.0000 </r>
       <r>   -1.2548    1.0000 </r>
       <r>   -1.2525    1.0000 </r>
       <r>   -1.2355    1.0000 </r>
       <r>   -1.2344    1.0000 </r>
       <r>   -1.2263    1.0000 </r>
       <r>   -1.2239    1.0000 </r>
       <r>   -1.2206    1.0000 </r>
       <r>   -1.2068    1.0000 </r>
       <r>   -1.2065    1.0000 </r>
       <r>   -1.2061    1.0000 </r>
       <r>   -1.2058    1.0000 </r>
       <r>   -1.1911    1.0000 </r>
       <r>   -1.1885    1.0000 </r>
       <r>   -1.1826    1.0000 </r>
       <r>   -1.1710    1.0000 </r>
       <r>   -1.1488    1.0000 </r>
       <r>   -1.1160    1.0000 </r>
       <r>   -1.0899    1.0000 </r>
       <r>   -1.0870    1.0000 </r>
       <r>   -1.0851    1.0000 </r>
       <r>   -1.0781    1.0000 </r>
       <r>   -1.0539    1.0000 </r>
       <r>   -1.0093    1.0000 </r>
       <r>   -0.9283    1.0000 </r>
       <r>   -0.9139    1.0000 </r>
       <r>   -0.9109    1.0000 </r>
       <r>   -0.9093    1.0000 </r>
       <r>   -0.9005    1.0000 </r>
       <r>   -0.8547    1.0000 </r>
       <r>   -0.8441    1.0000 </r>
       <r>   -0.8217    1.0000 </r>
       <r>   -0.7759    1.0000 </r>
       <r>   -0.7081    1.0000 </r>
       <r>   -0.6859    1.0000 </r>
       <r>   -0.6847    1.0000 </r>
       <r>   -0.6527    1.0000 </r>
       <r>   -0.5968    1.0000 </r>
       <r>   -0.5946    1.0000 </r>
       <r>   -0.5912    1.0000 </r>
       <r>   -0.5228    1.0000 </r>
       <r>   -0.5178    1.0000 </r>
       <r>   -0.5173    1.0000 </r>
       <r>   -0.5150    1.0000 </r>
       <r>   -0.5139    1.0000 </r>
       <r>   -0.4616    1.0000 </r>
       <r>   -0.4578    1.0000 </r>
       <r>   -0.4574    1.0000 </r>
       <r>   -0.4565    1.0000 </r>
       <r>   -0.4534    1.0000 </r>
       <r>   -0.4528    1.0000 </r>
       <r>   -0.4528    1.0000 </r>
       <r>   -0.4488    1.0000 </r>
       <r>   -0.4030    1.0000 </r>
       <r>   -0.3849    1.0000 </r>
       <r>   -0.3836    1.0000 </r>
       <r>   -0.3548    1.0000 </r>
       <r>   -0.3518    1.0000 </r>
       <r>   -0.3492    1.0000 </r>
       <r>   -0.3463    1.0000 </r>
       <r>   -0.3447    1.0000 </r>
       <r>   -0.3305    1.0000 </r>
       <r>   -0.3270    1.0000 </r>
       <r>   -0.3248    1.0000 </r>
       <r>   -0.3199    1.0000 </r>
       <r>   -0.2756    1.0000 </r>
       <r>   -0.2622    1.0000 </r>
       <r>   -0.2574    1.0000 </r>
       <r>   -0.2564    1.0000 </r>
       <r>   -0.2560    1.0000 </r>
       <r>   -0.2552    1.0000 </r>
       <r>   -0.2459    1.0000 </r>
       <r>   -0.2269    1.0000 </r>
       <r>   -0.2215    1.0000 </r>
       <r>   -0.2150    1.0000 </r>
       <r>   -0.2091    1.0000 </r>
       <r>   -0.1406    1.0000 </r>
       <r>   -0.1396    1.0000 </r>
       <r>   -0.0450    1.0000 </r>
       <r>   -0.0075    1.0000 </r>
       <r>    0.0023    1.0000 </r>
       <r>    0.0101    1.0000 </r>
       <r>    0.0113    1.0000 </r>
       <r>    0.0181    1.0000 </r>
       <r>    0.0185    1.0000 </r>
       <r>    0.0336    1.0000 </r>
       <r>    0.0365    1.0000 </r>
       <r>    0.0745    1.0000 </r>
       <r>    0.1872    1.0000 </r>
       <r>    0.2885    1.0000 </r>
       <r>    0.3192    1.0000 </r>
       <r>    0.3435    1.0000 </r>
       <r>    0.3455    1.0000 </r>
       <r>    0.3487    1.0000 </r>
       <r>    0.3507    1.0000 </r>
       <r>    0.3746    1.0000 </r>
       <r>    0.3968    1.0000 </r>
       <r>    0.4529    1.0000 </r>
       <r>    0.4741    1.0000 </r>
       <r>    0.4799    1.0000 </r>
       <r>    0.4890    1.0000 </r>
       <r>    0.5106    1.0000 </r>
       <r>    0.5572    1.0000 </r>
       <r>    0.5587    1.0000 </r>
       <r>    0.5662    1.0000 </r>
       <r>    0.5868    1.0000 </r>
       <r>    0.5887    1.0000 </r>
       <r>    0.5967    1.0000 </r>
       <r>    0.6202    1.0000 </r>
       <r>    0.6359    1.0000 </r>
       <r>    0.6561    1.0000 </r>
       <r>    0.6941    1.0000 </r>
       <r>    0.7035    1.0000 </r>
       <r>    0.7341    1.0000 </r>
       <r>    0.7364    1.0000 </r>
       <r>    0.8552    1.0000 </r>
       <r>    0.8563    1.0000 </r>
       <r>    0.8569    1.0000 </r>
       <r>    0.8631    1.0000 </r>
       <r>    0.8643    1.0000 </r>
       <r>    0.8648    1.0000 </r>
       <r>    0.8687    1.0000 </r>
       <r>    0.8744    1.0000 </r>
       <r>    0.8763    1.0000 </r>
       <r>    0.8775    1.0000 </r>
       <r>    0.8837    1.0000 </r>
       <r>    0.8858    1.0000 </r>
       <r>    0.8953    1.0000 </r>
       <r>    0.8965    1.0000 </r>
       <r>    0.9057    1.0000 </r>
       <r>    0.9091    1.0000 </r>
       <r>    0.9939    1.0000 </r>
       <r>    1.0030    1.0000 </r>
       <r>    1.0588    1.0000 </r>
       <r>    1.0659    1.0000 </r>
       <r>    1.0775    1.0000 </r>
       <r>    1.0797    1.0000 </r>
       <r>    1.0941    1.0000 </r>
       <r>    1.0947    1.0000 </r>
       <r>    1.1085    1.0000 </r>
       <r>    1.1103    1.0000 </r>
       <r>    1.1181    1.0000 </r>
       <r>    1.2575    1.0000 </r>
       <r>    1.2630    1.0000 </r>
       <r>    1.3110    1.0000 </r>
       <r>    1.4350    1.0000 </r>
       <r>    1.4538    1.0000 </r>
       <r>    1.4566    1.0000 </r>
       <r>    1.4709    1.0000 </r>
       <r>    1.6005    1.0000 </r>
       <r>    1.6026    1.0000 </r>
       <r>    1.6049    1.0000 </r>
       <r>    1.6064    1.0000 </r>
       <r>    1.6160    1.0000 </r>
       <r>    1.6256    1.0000 </r>
       <r>    1.6573    1.0000 </r>
       <r>    1.6680    1.0000 </r>
       <r>    1.7138    1.0000 </r>
       <r>    1.7147    1.0000 </r>
       <r>    1.7687    1.0000 </r>
       <r>    1.7730    1.0000 </r>
       <r>    1.8461    1.0000 </r>
       <r>    1.8519    1.0000 </r>
       <r>    1.8566    1.0000 </r>
       <r>    1.8616    1.0000 </r>
       <r>    1.8662    1.0000 </r>
       <r>    1.8703    1.0000 </r>
       <r>    1.8776    1.0000 </r>
       <r>    1.8787    1.0000 </r>
       <r>    1.9906    1.0000 </r>
       <r>    2.0036    1.0000 </r>
       <r>    2.1888    1.0000 </r>
       <r>    2.1904    1.0000 </r>
       <r>    2.1973    1.0000 </r>
       <r>    2.1986    1.0000 </r>
       <r>    2.2081    1.0000 </r>
       <r>    2.2109    1.0000 </r>
       <r>    2.3781    1.0000 </r>
       <r>    2.3838    1.0000 </r>
       <r>    2.3892    1.0000 </r>
       <r>    2.3896    1.0000 </r>
       <r>    5.5464    0.0000 </r>
       <r>    6.6591    0.0000 </r>
       <r>    6.6755    0.0000 </r>
       <r>    6.6831    0.0000 </r>
       <r>    6.7933    0.0000 </r>
       <r>    6.8858    0.0000 </r>
       <r>    6.9412    0.0000 </r>
       <r>    7.0093    0.0000 </r>
       <r>    7.0226    0.0000 </r>
       <r>    7.0457    0.0000 </r>
       <r>    7.0546    0.0000 </r>
       <r>    7.0762    0.0000 </r>
       <r>    7.0868    0.0000 </r>
       <r>    7.1078    0.0000 </r>
       <r>    7.1170    0.0000 </r>
       <r>    7.1456    0.0000 </r>
       <r>    7.1474    0.0000 </r>
       <r>    7.2568    0.0000 </r>
       <r>    7.2654    0.0000 </r>
       <r>    7.2656    0.0000 </r>
       <r>    7.2861    0.0000 </r>
       <r>    7.2869    0.0000 </r>
       <r>    7.4418    0.0000 </r>
       <r>    7.4576    0.0000 </r>
       <r>    7.4658    0.0000 </r>
       <r>    7.4811    0.0000 </r>
       <r>    7.4893    0.0000 </r>
       <r>    7.5707    0.0000 </r>
       <r>    7.5754    0.0000 </r>
       <r>    7.6367    0.0000 </r>
       <r>    7.6483    0.0000 </r>
       <r>    7.6620    0.0000 </r>
       <r>    7.6645    0.0000 </r>
       <r>    7.6663    0.0000 </r>
       <r>    7.6672    0.0000 </r>
       <r>    7.6834    0.0000 </r>
       <r>    7.7171    0.0000 </r>
       <r>    7.7329    0.0000 </r>
       <r>    7.7348    0.0000 </r>
       <r>    7.7953    0.0000 </r>
       <r>    7.8471    0.0000 </r>
       <r>    7.8815    0.0000 </r>
       <r>    7.8994    0.0000 </r>
       <r>    7.9711    0.0000 </r>
       <r>    7.9779    0.0000 </r>
       <r>    8.0045    0.0000 </r>
       <r>    8.0078    0.0000 </r>
       <r>    8.0970    0.0000 </r>
       <r>    8.0996    0.0000 </r>
       <r>    8.1131    0.0000 </r>
       <r>    8.2083    0.0000 </r>
       <r>    8.2296    0.0000 </r>
       <r>    8.2533    0.0000 </r>
       <r>    8.2892    0.0000 </r>
       <r>    8.3390    0.0000 </r>
       <r>    8.3413    0.0000 </r>
       <r>    8.3683    0.0000 </r>
       <r>    8.4745    0.0000 </r>
       <r>    8.4826    0.0000 </r>
       <r>    8.4916    0.0000 </r>
       <r>    8.4946    0.0000 </r>
       <r>    8.4975    0.0000 </r>
       <r>    8.5092    0.0000 </r>
       <r>    8.5098    0.0000 </r>
       <r>    8.5121    0.0000 </r>
       <r>    8.5337    0.0000 </r>
       <r>    8.5698    0.0000 </r>
       <r>    8.6006    0.0000 </r>
       <r>    8.6274    0.0000 </r>
       <r>    8.7873    0.0000 </r>
       <r>    8.8298    0.0000 </r>
       <r>    8.9034    0.0000 </r>
       <r>    8.9112    0.0000 </r>
       <r>    8.9302    0.0000 </r>
       <r>    9.0004    0.0000 </r>
       <r>    9.0077    0.0000 </r>
       <r>    9.0118    0.0000 </r>
       <r>    9.0201    0.0000 </r>
       <r>    9.0206    0.0000 </r>
       <r>    9.0238    0.0000 </r>
       <r>    9.0309    0.0000 </r>
       <r>    9.1318    0.0000 </r>
       <r>    9.1446    0.0000 </r>
       <r>    9.1619    0.0000 </r>
       <r>    9.1662    0.0000 </r>
       <r>    9.1855    0.0000 </r>
       <r>    9.2088    0.0000 </r>
       <r>    9.2091    0.0000 </r>
       <r>    9.2140    0.0000 </r>
       <r>    9.3692    0.0000 </r>
       <r>    9.4071    0.0000 </r>
       <r>    9.4129    0.0000 </r>
       <r>    9.4323    0.0000 </r>
       <r>    9.4447    0.0000 </r>
       <r>    9.4492    0.0000 </r>
       <r>    9.5845    0.0000 </r>
       <r>    9.6022    0.0000 </r>
       <r>    9.6035    0.0000 </r>
       <r>    9.6061    0.0000 </r>
       <r>    9.6077    0.0000 </r>
       <r>    9.6389    0.0000 </r>
       <r>    9.6655    0.0000 </r>
       <r>    9.7115    0.0000 </r>
       <r>    9.7135    0.0000 </r>
       <r>    9.7136    0.0000 </r>
       <r>    9.7291    0.0000 </r>
       <r>    9.7695    0.0000 </r>
       <r>    9.7873    0.0000 </r>
       <r>    9.8361    0.0000 </r>
       <r>    9.8367    0.0000 </r>
       <r>    9.9245    0.0000 </r>
       <r>    9.9268    0.0000 </r>
       <r>    9.9649    0.0000 </r>
       <r>    9.9700    0.0000 </r>
       <r>    9.9721    0.0000 </r>
       <r>   10.0347    0.0000 </r>
       <r>   10.0724    0.0000 </r>
       <r>   10.1148    0.0000 </r>
       <r>   10.1334    0.0000 </r>
       <r>   10.3109    0.0000 </r>
       <r>   10.3472    0.0000 </r>
       <r>   10.4276    0.0000 </r>
       <r>   10.4280    0.0000 </r>
       <r>   10.5260    0.0000 </r>
       <r>   10.5267    0.0000 </r>
       <r>   10.5493    0.0000 </r>
       <r>   10.5555    0.0000 </r>
       <r>   10.8977    0.0000 </r>
       <r>   11.0001    0.0000 </r>
       <r>   11.2072    0.0000 </r>
       <r>   11.2110    0.0000 </r>
       <r>   11.2920    0.0000 </r>
       <r>   11.4114    0.0000 </r>
       <r>   11.4173    0.0000 </r>
       <r>   11.4357    0.0000 </r>
       <r>   11.4417    0.0000 </r>
       <r>   11.5068    0.0000 </r>
       <r>   11.5367    0.0000 </r>
       <r>   11.5537    0.0000 </r>
       <r>   11.5852    0.0000 </r>
       <r>   11.5925    0.0000 </r>
       <r>   11.5968    0.0000 </r>
       <r>   11.6099    0.0000 </r>
       <r>   11.6254    0.0000 </r>
       <r>   11.6645    0.0000 </r>
       <r>   11.7311    0.0000 </r>
       <r>   11.8126    0.0000 </r>
       <r>   11.8822    0.0000 </r>
       <r>   11.9149    0.0000 </r>
       <r>   11.9489    0.0000 </r>
       <r>   11.9777    0.0000 </r>
       <r>   12.0016    0.0000 </r>
      </set>
      <set comment="kpoint 7">
       <r>  -17.1660    1.0000 </r>
       <r>  -15.7430    1.0000 </r>
       <r>  -15.6886    1.0000 </r>
       <r>  -15.4120    1.0000 </r>
       <r>  -15.2834    1.0000 </r>
       <r>  -15.2747    1.0000 </r>
       <r>  -15.2423    1.0000 </r>
       <r>  -15.2043    1.0000 </r>
       <r>  -15.1417    1.0000 </r>
       <r>  -15.0834    1.0000 </r>
       <r>  -15.0471    1.0000 </r>
       <r>  -15.0337    1.0000 </r>
       <r>  -15.0154    1.0000 </r>
       <r>  -14.9848    1.0000 </r>
       <r>  -14.9836    1.0000 </r>
       <r>  -14.9060    1.0000 </r>
       <r>  -14.8988    1.0000 </r>
       <r>  -14.8523    1.0000 </r>
       <r>  -14.7584    1.0000 </r>
       <r>  -14.7569    1.0000 </r>
       <r>  -14.6145    1.0000 </r>
       <r>  -14.5660    1.0000 </r>
       <r>  -14.5389    1.0000 </r>
       <r>  -14.4661    1.0000 </r>
       <r>  -14.4625    1.0000 </r>
       <r>  -14.4605    1.0000 </r>
       <r>  -14.4584    1.0000 </r>
       <r>  -14.4217    1.0000 </r>
       <r>  -14.4024    1.0000 </r>
       <r>  -14.3958    1.0000 </r>
       <r>  -14.3847    1.0000 </r>
       <r>  -14.3349    1.0000 </r>
       <r>  -14.2486    1.0000 </r>
       <r>  -14.2455    1.0000 </r>
       <r>  -14.2436    1.0000 </r>
       <r>  -14.2412    1.0000 </r>
       <r>  -14.2075    1.0000 </r>
       <r>  -14.2064    1.0000 </r>
       <r>  -14.1681    1.0000 </r>
       <r>  -14.1493    1.0000 </r>
       <r>  -14.1057    1.0000 </r>
       <r>  -14.0341    1.0000 </r>
       <r>  -13.9992    1.0000 </r>
       <r>  -13.9955    1.0000 </r>
       <r>  -13.9393    1.0000 </r>
       <r>  -13.7793    1.0000 </r>
       <r>  -13.7414    1.0000 </r>
       <r>  -13.7398    1.0000 </r>
       <r>  -13.7125    1.0000 </r>
       <r>  -13.7111    1.0000 </r>
       <r>  -13.7021    1.0000 </r>
       <r>  -13.6803    1.0000 </r>
       <r>  -13.6572    1.0000 </r>
       <r>  -13.6551    1.0000 </r>
       <r>  -13.5966    1.0000 </r>
       <r>  -13.5327    1.0000 </r>
       <r>  -13.5325    1.0000 </r>
       <r>  -13.5213    1.0000 </r>
       <r>  -13.5164    1.0000 </r>
       <r>  -13.5019    1.0000 </r>
       <r>  -13.3575    1.0000 </r>
       <r>  -13.3334    1.0000 </r>
       <r>  -13.2537    1.0000 </r>
       <r>  -13.2219    1.0000 </r>
       <r>  -13.1077    1.0000 </r>
       <r>  -13.0682    1.0000 </r>
       <r>  -13.0636    1.0000 </r>
       <r>  -13.0622    1.0000 </r>
       <r>  -13.0605    1.0000 </r>
       <r>  -13.0327    1.0000 </r>
       <r>  -13.0263    1.0000 </r>
       <r>  -13.0230    1.0000 </r>
       <r>  -13.0163    1.0000 </r>
       <r>  -12.9709    1.0000 </r>
       <r>  -12.9229    1.0000 </r>
       <r>  -12.8937    1.0000 </r>
       <r>  -12.8917    1.0000 </r>
       <r>  -12.8898    1.0000 </r>
       <r>  -12.8880    1.0000 </r>
       <r>  -12.8810    1.0000 </r>
       <r>  -12.8782    1.0000 </r>
       <r>  -12.8771    1.0000 </r>
       <r>  -12.8743    1.0000 </r>
       <r>  -12.8656    1.0000 </r>
       <r>  -12.8597    1.0000 </r>
       <r>  -12.8560    1.0000 </r>
       <r>  -12.8504    1.0000 </r>
       <r>  -12.8500    1.0000 </r>
       <r>  -12.7192    1.0000 </r>
       <r>  -12.7155    1.0000 </r>
       <r>  -12.7142    1.0000 </r>
       <r>  -12.7108    1.0000 </r>
       <r>  -12.6815    1.0000 </r>
       <r>  -12.6087    1.0000 </r>
       <r>  -12.5980    1.0000 </r>
       <r>  -12.5764    1.0000 </r>
       <r>  -12.5731    1.0000 </r>
       <r>  -12.5512    1.0000 </r>
       <r>  -12.5328    1.0000 </r>
       <r>  -12.4982    1.0000 </r>
       <r>  -12.4351    1.0000 </r>
       <r>  -12.4284    1.0000 </r>
       <r>  -12.4229    1.0000 </r>
       <r>  -12.4217    1.0000 </r>
       <r>  -12.3419    1.0000 </r>
       <r>  -12.3381    1.0000 </r>
       <r>  -12.3213    1.0000 </r>
       <r>  -12.3170    1.0000 </r>
       <r>  -12.2462    1.0000 </r>
       <r>  -12.2452    1.0000 </r>
       <r>  -12.2367    1.0000 </r>
       <r>  -12.2322    1.0000 </r>
       <r>  -12.2191    1.0000 </r>
       <r>  -12.2174    1.0000 </r>
       <r>  -12.2082    1.0000 </r>
       <r>  -12.2054    1.0000 </r>
       <r>  -12.1782    1.0000 </r>
       <r>  -12.1751    1.0000 </r>
       <r>  -12.1699    1.0000 </r>
       <r>  -12.1698    1.0000 </r>
       <r>  -12.0972    1.0000 </r>
       <r>  -12.0963    1.0000 </r>
       <r>  -12.0916    1.0000 </r>
       <r>  -12.0880    1.0000 </r>
       <r>  -12.0842    1.0000 </r>
       <r>  -12.0813    1.0000 </r>
       <r>  -11.9507    1.0000 </r>
       <r>  -11.9479    1.0000 </r>
       <r>  -11.9464    1.0000 </r>
       <r>  -11.9434    1.0000 </r>
       <r>  -11.8169    1.0000 </r>
       <r>  -11.8137    1.0000 </r>
       <r>  -11.8077    1.0000 </r>
       <r>  -11.8073    1.0000 </r>
       <r>  -11.8040    1.0000 </r>
       <r>  -11.8034    1.0000 </r>
       <r>  -11.7851    1.0000 </r>
       <r>  -11.7848    1.0000 </r>
       <r>  -11.7796    1.0000 </r>
       <r>  -11.7793    1.0000 </r>
       <r>  -11.6691    1.0000 </r>
       <r>  -11.6680    1.0000 </r>
       <r>  -11.6649    1.0000 </r>
       <r>  -11.6564    1.0000 </r>
       <r>   -8.1624    1.0000 </r>
       <r>   -7.2498    1.0000 </r>
       <r>   -7.2352    1.0000 </r>
       <r>   -6.7831    1.0000 </r>
       <r>   -6.6996    1.0000 </r>
       <r>   -6.6786    1.0000 </r>
       <r>   -6.4258    1.0000 </r>
       <r>   -6.4019    1.0000 </r>
       <r>   -6.3172    1.0000 </r>
       <r>   -6.3086    1.0000 </r>
       <r>   -6.3055    1.0000 </r>
       <r>   -6.3037    1.0000 </r>
       <r>   -6.2979    1.0000 </r>
       <r>   -6.2835    1.0000 </r>
       <r>   -6.2755    1.0000 </r>
       <r>   -6.2749    1.0000 </r>
       <r>   -6.2686    1.0000 </r>
       <r>   -6.2684    1.0000 </r>
       <r>   -6.2155    1.0000 </r>
       <r>   -6.2131    1.0000 </r>
       <r>   -6.2109    1.0000 </r>
       <r>   -6.2072    1.0000 </r>
       <r>   -6.1950    1.0000 </r>
       <r>   -6.1919    1.0000 </r>
       <r>   -6.1590    1.0000 </r>
       <r>   -6.1586    1.0000 </r>
       <r>   -6.1531    1.0000 </r>
       <r>   -6.1465    1.0000 </r>
       <r>   -6.0724    1.0000 </r>
       <r>   -6.0706    1.0000 </r>
       <r>   -5.9350    1.0000 </r>
       <r>   -5.9276    1.0000 </r>
       <r>   -5.9107    1.0000 </r>
       <r>   -5.9034    1.0000 </r>
       <r>   -5.8366    1.0000 </r>
       <r>   -5.7894    1.0000 </r>
       <r>   -5.7809    1.0000 </r>
       <r>   -5.7693    1.0000 </r>
       <r>   -5.7685    1.0000 </r>
       <r>   -5.7654    1.0000 </r>
       <r>   -5.7614    1.0000 </r>
       <r>   -5.7587    1.0000 </r>
       <r>   -5.7585    1.0000 </r>
       <r>   -5.7580    1.0000 </r>
       <r>   -5.7562    1.0000 </r>
       <r>   -5.7505    1.0000 </r>
       <r>   -5.7347    1.0000 </r>
       <r>   -5.6802    1.0000 </r>
       <r>   -5.6516    1.0000 </r>
       <r>   -5.6391    1.0000 </r>
       <r>   -5.6245    1.0000 </r>
       <r>   -5.6233    1.0000 </r>
       <r>   -5.6207    1.0000 </r>
       <r>   -5.6182    1.0000 </r>
       <r>   -5.2290    1.0000 </r>
       <r>   -5.2268    1.0000 </r>
       <r>   -5.2245    1.0000 </r>
       <r>   -5.2241    1.0000 </r>
       <r>   -5.2235    1.0000 </r>
       <r>   -5.2196    1.0000 </r>
       <r>   -5.2190    1.0000 </r>
       <r>   -5.2189    1.0000 </r>
       <r>   -5.2180    1.0000 </r>
       <r>   -5.2174    1.0000 </r>
       <r>   -5.2172    1.0000 </r>
       <r>   -5.2168    1.0000 </r>
       <r>   -5.1064    1.0000 </r>
       <r>   -5.0968    1.0000 </r>
       <r>   -5.0950    1.0000 </r>
       <r>   -5.0907    1.0000 </r>
       <r>   -5.0892    1.0000 </r>
       <r>   -5.0877    1.0000 </r>
       <r>   -5.0861    1.0000 </r>
       <r>   -5.0838    1.0000 </r>
       <r>   -5.0084    1.0000 </r>
       <r>   -4.9190    1.0000 </r>
       <r>   -4.8269    1.0000 </r>
       <r>   -4.5974    1.0000 </r>
       <r>   -4.5428    1.0000 </r>
       <r>   -4.5347    1.0000 </r>
       <r>   -4.4750    1.0000 </r>
       <r>   -4.4723    1.0000 </r>
       <r>   -4.4718    1.0000 </r>
       <r>   -4.4710    1.0000 </r>
       <r>   -4.4705    1.0000 </r>
       <r>   -4.4694    1.0000 </r>
       <r>   -4.4680    1.0000 </r>
       <r>   -4.4678    1.0000 </r>
       <r>   -4.3442    1.0000 </r>
       <r>   -4.3416    1.0000 </r>
       <r>   -4.3397    1.0000 </r>
       <r>   -4.3361    1.0000 </r>
       <r>   -4.3118    1.0000 </r>
       <r>   -4.1904    1.0000 </r>
       <r>   -4.0919    1.0000 </r>
       <r>   -4.0875    1.0000 </r>
       <r>   -4.0873    1.0000 </r>
       <r>   -4.0841    1.0000 </r>
       <r>   -4.0828    1.0000 </r>
       <r>   -4.0746    1.0000 </r>
       <r>   -4.0745    1.0000 </r>
       <r>   -4.0713    1.0000 </r>
       <r>   -4.0701    1.0000 </r>
       <r>   -4.0357    1.0000 </r>
       <r>   -4.0246    1.0000 </r>
       <r>   -3.9510    1.0000 </r>
       <r>   -3.9498    1.0000 </r>
       <r>   -3.9469    1.0000 </r>
       <r>   -3.9452    1.0000 </r>
       <r>   -3.9074    1.0000 </r>
       <r>   -3.8631    1.0000 </r>
       <r>   -3.7743    1.0000 </r>
       <r>   -3.6225    1.0000 </r>
       <r>   -3.6202    1.0000 </r>
       <r>   -3.6153    1.0000 </r>
       <r>   -3.6140    1.0000 </r>
       <r>   -3.6045    1.0000 </r>
       <r>   -3.6034    1.0000 </r>
       <r>   -3.5981    1.0000 </r>
       <r>   -3.5977    1.0000 </r>
       <r>   -3.5945    1.0000 </r>
       <r>   -3.4801    1.0000 </r>
       <r>   -3.4783    1.0000 </r>
       <r>   -3.4772    1.0000 </r>
       <r>   -3.4744    1.0000 </r>
       <r>   -3.4688    1.0000 </r>
       <r>   -3.4678    1.0000 </r>
       <r>   -3.4672    1.0000 </r>
       <r>   -3.4655    1.0000 </r>
       <r>   -3.4650    1.0000 </r>
       <r>   -3.3892    1.0000 </r>
       <r>   -3.3577    1.0000 </r>
       <r>   -3.3422    1.0000 </r>
       <r>   -3.3391    1.0000 </r>
       <r>   -3.3361    1.0000 </r>
       <r>   -3.3144    1.0000 </r>
       <r>   -3.3068    1.0000 </r>
       <r>   -3.1464    1.0000 </r>
       <r>   -3.0896    1.0000 </r>
       <r>   -3.0773    1.0000 </r>
       <r>   -3.0727    1.0000 </r>
       <r>   -3.0722    1.0000 </r>
       <r>   -3.0660    1.0000 </r>
       <r>   -3.0021    1.0000 </r>
       <r>   -2.9996    1.0000 </r>
       <r>   -2.9864    1.0000 </r>
       <r>   -2.9398    1.0000 </r>
       <r>   -2.9383    1.0000 </r>
       <r>   -2.8454    1.0000 </r>
       <r>   -2.7636    1.0000 </r>
       <r>   -2.7603    1.0000 </r>
       <r>   -2.7515    1.0000 </r>
       <r>   -2.7276    1.0000 </r>
       <r>   -2.7234    1.0000 </r>
       <r>   -2.6736    1.0000 </r>
       <r>   -2.6721    1.0000 </r>
       <r>   -2.6688    1.0000 </r>
       <r>   -2.6495    1.0000 </r>
       <r>   -2.6133    1.0000 </r>
       <r>   -2.5458    1.0000 </r>
       <r>   -2.5425    1.0000 </r>
       <r>   -2.5422    1.0000 </r>
       <r>   -2.5147    1.0000 </r>
       <r>   -2.4622    1.0000 </r>
       <r>   -2.3910    1.0000 </r>
       <r>   -2.3858    1.0000 </r>
       <r>   -2.3772    1.0000 </r>
       <r>   -2.3746    1.0000 </r>
       <r>   -2.3730    1.0000 </r>
       <r>   -2.3715    1.0000 </r>
       <r>   -2.3715    1.0000 </r>
       <r>   -2.3704    1.0000 </r>
       <r>   -2.3700    1.0000 </r>
       <r>   -2.3680    1.0000 </r>
       <r>   -2.3659    1.0000 </r>
       <r>   -2.3415    1.0000 </r>
       <r>   -2.2704    1.0000 </r>
       <r>   -2.2640    1.0000 </r>
       <r>   -2.2566    1.0000 </r>
       <r>   -2.2473    1.0000 </r>
       <r>   -2.2418    1.0000 </r>
       <r>   -2.2397    1.0000 </r>
       <r>   -2.2379    1.0000 </r>
       <r>   -2.2356    1.0000 </r>
       <r>   -2.2059    1.0000 </r>
       <r>   -2.1941    1.0000 </r>
       <r>   -2.1932    1.0000 </r>
       <r>   -2.1629    1.0000 </r>
       <r>   -2.1500    1.0000 </r>
       <r>   -2.1429    1.0000 </r>
       <r>   -2.1241    1.0000 </r>
       <r>   -2.0975    1.0000 </r>
       <r>   -2.0910    1.0000 </r>
       <r>   -2.0907    1.0000 </r>
       <r>   -2.0855    1.0000 </r>
       <r>   -2.0853    1.0000 </r>
       <r>   -2.0576    1.0000 </r>
       <r>   -2.0573    1.0000 </r>
       <r>   -2.0511    1.0000 </r>
       <r>   -2.0508    1.0000 </r>
       <r>   -2.0078    1.0000 </r>
       <r>   -1.9628    1.0000 </r>
       <r>   -1.9433    1.0000 </r>
       <r>   -1.9428    1.0000 </r>
       <r>   -1.9348    1.0000 </r>
       <r>   -1.9319    1.0000 </r>
       <r>   -1.9291    1.0000 </r>
       <r>   -1.9058    1.0000 </r>
       <r>   -1.9051    1.0000 </r>
       <r>   -1.8974    1.0000 </r>
       <r>   -1.8958    1.0000 </r>
       <r>   -1.8629    1.0000 </r>
       <r>   -1.8603    1.0000 </r>
       <r>   -1.8596    1.0000 </r>
       <r>   -1.8589    1.0000 </r>
       <r>   -1.8582    1.0000 </r>
       <r>   -1.8575    1.0000 </r>
       <r>   -1.8565    1.0000 </r>
       <r>   -1.8551    1.0000 </r>
       <r>   -1.8517    1.0000 </r>
       <r>   -1.7784    1.0000 </r>
       <r>   -1.7783    1.0000 </r>
       <r>   -1.7776    1.0000 </r>
       <r>   -1.7775    1.0000 </r>
       <r>   -1.7741    1.0000 </r>
       <r>   -1.7738    1.0000 </r>
       <r>   -1.7727    1.0000 </r>
       <r>   -1.7726    1.0000 </r>
       <r>   -1.7470    1.0000 </r>
       <r>   -1.7417    1.0000 </r>
       <r>   -1.7411    1.0000 </r>
       <r>   -1.7397    1.0000 </r>
       <r>   -1.7111    1.0000 </r>
       <r>   -1.7053    1.0000 </r>
       <r>   -1.6626    1.0000 </r>
       <r>   -1.6468    1.0000 </r>
       <r>   -1.6457    1.0000 </r>
       <r>   -1.6444    1.0000 </r>
       <r>   -1.6399    1.0000 </r>
       <r>   -1.6229    1.0000 </r>
       <r>   -1.6095    1.0000 </r>
       <r>   -1.6070    1.0000 </r>
       <r>   -1.5849    1.0000 </r>
       <r>   -1.5837    1.0000 </r>
       <r>   -1.5794    1.0000 </r>
       <r>   -1.5574    1.0000 </r>
       <r>   -1.5551    1.0000 </r>
       <r>   -1.5500    1.0000 </r>
       <r>   -1.4507    1.0000 </r>
       <r>   -1.4443    1.0000 </r>
       <r>   -1.4410    1.0000 </r>
       <r>   -1.4343    1.0000 </r>
       <r>   -1.2546    1.0000 </r>
       <r>   -1.2519    1.0000 </r>
       <r>   -1.2358    1.0000 </r>
       <r>   -1.2349    1.0000 </r>
       <r>   -1.2263    1.0000 </r>
       <r>   -1.2238    1.0000 </r>
       <r>   -1.2207    1.0000 </r>
       <r>   -1.2066    1.0000 </r>
       <r>   -1.2062    1.0000 </r>
       <r>   -1.2060    1.0000 </r>
       <r>   -1.2058    1.0000 </r>
       <r>   -1.1917    1.0000 </r>
       <r>   -1.1880    1.0000 </r>
       <r>   -1.1829    1.0000 </r>
       <r>   -1.1712    1.0000 </r>
       <r>   -1.1489    1.0000 </r>
       <r>   -1.1159    1.0000 </r>
       <r>   -1.0891    1.0000 </r>
       <r>   -1.0886    1.0000 </r>
       <r>   -1.0829    1.0000 </r>
       <r>   -1.0753    1.0000 </r>
       <r>   -1.0538    1.0000 </r>
       <r>   -1.0092    1.0000 </r>
       <r>   -0.9293    1.0000 </r>
       <r>   -0.9135    1.0000 </r>
       <r>   -0.9110    1.0000 </r>
       <r>   -0.9087    1.0000 </r>
       <r>   -0.9004    1.0000 </r>
       <r>   -0.8550    1.0000 </r>
       <r>   -0.8441    1.0000 </r>
       <r>   -0.8216    1.0000 </r>
       <r>   -0.7759    1.0000 </r>
       <r>   -0.7081    1.0000 </r>
       <r>   -0.6859    1.0000 </r>
       <r>   -0.6847    1.0000 </r>
       <r>   -0.6527    1.0000 </r>
       <r>   -0.5968    1.0000 </r>
       <r>   -0.5946    1.0000 </r>
       <r>   -0.5913    1.0000 </r>
       <r>   -0.5228    1.0000 </r>
       <r>   -0.5178    1.0000 </r>
       <r>   -0.5175    1.0000 </r>
       <r>   -0.5150    1.0000 </r>
       <r>   -0.5140    1.0000 </r>
       <r>   -0.4616    1.0000 </r>
       <r>   -0.4578    1.0000 </r>
       <r>   -0.4575    1.0000 </r>
       <r>   -0.4565    1.0000 </r>
       <r>   -0.4533    1.0000 </r>
       <r>   -0.4528    1.0000 </r>
       <r>   -0.4528    1.0000 </r>
       <r>   -0.4487    1.0000 </r>
       <r>   -0.4029    1.0000 </r>
       <r>   -0.3897    1.0000 </r>
       <r>   -0.3820    1.0000 </r>
       <r>   -0.3547    1.0000 </r>
       <r>   -0.3519    1.0000 </r>
       <r>   -0.3492    1.0000 </r>
       <r>   -0.3463    1.0000 </r>
       <r>   -0.3445    1.0000 </r>
       <r>   -0.3297    1.0000 </r>
       <r>   -0.3268    1.0000 </r>
       <r>   -0.3250    1.0000 </r>
       <r>   -0.3205    1.0000 </r>
       <r>   -0.2756    1.0000 </r>
       <r>   -0.2632    1.0000 </r>
       <r>   -0.2572    1.0000 </r>
       <r>   -0.2567    1.0000 </r>
       <r>   -0.2564    1.0000 </r>
       <r>   -0.2540    1.0000 </r>
       <r>   -0.2460    1.0000 </r>
       <r>   -0.2283    1.0000 </r>
       <r>   -0.2243    1.0000 </r>
       <r>   -0.2153    1.0000 </r>
       <r>   -0.2090    1.0000 </r>
       <r>   -0.1406    1.0000 </r>
       <r>   -0.1396    1.0000 </r>
       <r>   -0.0450    1.0000 </r>
       <r>   -0.0061    1.0000 </r>
       <r>    0.0016    1.0000 </r>
       <r>    0.0080    1.0000 </r>
       <r>    0.0123    1.0000 </r>
       <r>    0.0183    1.0000 </r>
       <r>    0.0189    1.0000 </r>
       <r>    0.0344    1.0000 </r>
       <r>    0.0360    1.0000 </r>
       <r>    0.0744    1.0000 </r>
       <r>    0.1872    1.0000 </r>
       <r>    0.2886    1.0000 </r>
       <r>    0.3192    1.0000 </r>
       <r>    0.3434    1.0000 </r>
       <r>    0.3454    1.0000 </r>
       <r>    0.3488    1.0000 </r>
       <r>    0.3507    1.0000 </r>
       <r>    0.3746    1.0000 </r>
       <r>    0.3969    1.0000 </r>
       <r>    0.4528    1.0000 </r>
       <r>    0.4765    1.0000 </r>
       <r>    0.4820    1.0000 </r>
       <r>    0.4898    1.0000 </r>
       <r>    0.5092    1.0000 </r>
       <r>    0.5574    1.0000 </r>
       <r>    0.5589    1.0000 </r>
       <r>    0.5662    1.0000 </r>
       <r>    0.5867    1.0000 </r>
       <r>    0.5886    1.0000 </r>
       <r>    0.5966    1.0000 </r>
       <r>    0.6202    1.0000 </r>
       <r>    0.6359    1.0000 </r>
       <r>    0.6561    1.0000 </r>
       <r>    0.6936    1.0000 </r>
       <r>    0.7091    1.0000 </r>
       <r>    0.7339    1.0000 </r>
       <r>    0.7365    1.0000 </r>
       <r>    0.8546    1.0000 </r>
       <r>    0.8552    1.0000 </r>
       <r>    0.8569    1.0000 </r>
       <r>    0.8630    1.0000 </r>
       <r>    0.8637    1.0000 </r>
       <r>    0.8665    1.0000 </r>
       <r>    0.8686    1.0000 </r>
       <r>    0.8745    1.0000 </r>
       <r>    0.8767    1.0000 </r>
       <r>    0.8774    1.0000 </r>
       <r>    0.8836    1.0000 </r>
       <r>    0.8859    1.0000 </r>
       <r>    0.8954    1.0000 </r>
       <r>    0.8966    1.0000 </r>
       <r>    0.9057    1.0000 </r>
       <r>    0.9090    1.0000 </r>
       <r>    0.9947    1.0000 </r>
       <r>    0.9969    1.0000 </r>
       <r>    1.0603    1.0000 </r>
       <r>    1.0654    1.0000 </r>
       <r>    1.0778    1.0000 </r>
       <r>    1.0791    1.0000 </r>
       <r>    1.0936    1.0000 </r>
       <r>    1.0947    1.0000 </r>
       <r>    1.1080    1.0000 </r>
       <r>    1.1117    1.0000 </r>
       <r>    1.1180    1.0000 </r>
       <r>    1.2574    1.0000 </r>
       <r>    1.2632    1.0000 </r>
       <r>    1.3109    1.0000 </r>
       <r>    1.4362    1.0000 </r>
       <r>    1.4540    1.0000 </r>
       <r>    1.4546    1.0000 </r>
       <r>    1.4709    1.0000 </r>
       <r>    1.6006    1.0000 </r>
       <r>    1.6021    1.0000 </r>
       <r>    1.6051    1.0000 </r>
       <r>    1.6063    1.0000 </r>
       <r>    1.6162    1.0000 </r>
       <r>    1.6259    1.0000 </r>
       <r>    1.6575    1.0000 </r>
       <r>    1.6679    1.0000 </r>
       <r>    1.7136    1.0000 </r>
       <r>    1.7142    1.0000 </r>
       <r>    1.7686    1.0000 </r>
       <r>    1.7737    1.0000 </r>
       <r>    1.8445    1.0000 </r>
       <r>    1.8509    1.0000 </r>
       <r>    1.8561    1.0000 </r>
       <r>    1.8629    1.0000 </r>
       <r>    1.8657    1.0000 </r>
       <r>    1.8707    1.0000 </r>
       <r>    1.8776    1.0000 </r>
       <r>    1.8811    1.0000 </r>
       <r>    1.9905    1.0000 </r>
       <r>    2.0035    1.0000 </r>
       <r>    2.1887    1.0000 </r>
       <r>    2.1903    1.0000 </r>
       <r>    2.1963    1.0000 </r>
       <r>    2.1991    1.0000 </r>
       <r>    2.2083    1.0000 </r>
       <r>    2.2111    1.0000 </r>
       <r>    2.3791    1.0000 </r>
       <r>    2.3828    1.0000 </r>
       <r>    2.3891    1.0000 </r>
       <r>    2.3895    1.0000 </r>
       <r>    5.5464    0.0000 </r>
       <r>    6.6590    0.0000 </r>
       <r>    6.6755    0.0000 </r>
       <r>    6.6833    0.0000 </r>
       <r>    6.7933    0.0000 </r>
       <r>    6.8857    0.0000 </r>
       <r>    6.9412    0.0000 </r>
       <r>    7.0093    0.0000 </r>
       <r>    7.0225    0.0000 </r>
       <r>    7.0462    0.0000 </r>
       <r>    7.0550    0.0000 </r>
       <r>    7.0762    0.0000 </r>
       <r>    7.0868    0.0000 </r>
       <r>    7.1082    0.0000 </r>
       <r>    7.1175    0.0000 </r>
       <r>    7.1442    0.0000 </r>
       <r>    7.1462    0.0000 </r>
       <r>    7.2569    0.0000 </r>
       <r>    7.2653    0.0000 </r>
       <r>    7.2659    0.0000 </r>
       <r>    7.2867    0.0000 </r>
       <r>    7.2869    0.0000 </r>
       <r>    7.4416    0.0000 </r>
       <r>    7.4579    0.0000 </r>
       <r>    7.4660    0.0000 </r>
       <r>    7.4809    0.0000 </r>
       <r>    7.4892    0.0000 </r>
       <r>    7.5707    0.0000 </r>
       <r>    7.5754    0.0000 </r>
       <r>    7.6366    0.0000 </r>
       <r>    7.6484    0.0000 </r>
       <r>    7.6601    0.0000 </r>
       <r>    7.6644    0.0000 </r>
       <r>    7.6663    0.0000 </r>
       <r>    7.6682    0.0000 </r>
       <r>    7.6849    0.0000 </r>
       <r>    7.7173    0.0000 </r>
       <r>    7.7338    0.0000 </r>
       <r>    7.7358    0.0000 </r>
       <r>    7.7953    0.0000 </r>
       <r>    7.8471    0.0000 </r>
       <r>    7.8813    0.0000 </r>
       <r>    7.8992    0.0000 </r>
       <r>    7.9714    0.0000 </r>
       <r>    7.9781    0.0000 </r>
       <r>    8.0030    0.0000 </r>
       <r>    8.0062    0.0000 </r>
       <r>    8.0967    0.0000 </r>
       <r>    8.0998    0.0000 </r>
       <r>    8.1132    0.0000 </r>
       <r>    8.2083    0.0000 </r>
       <r>    8.2296    0.0000 </r>
       <r>    8.2533    0.0000 </r>
       <r>    8.2893    0.0000 </r>
       <r>    8.3391    0.0000 </r>
       <r>    8.3413    0.0000 </r>
       <r>    8.3682    0.0000 </r>
       <r>    8.4741    0.0000 </r>
       <r>    8.4828    0.0000 </r>
       <r>    8.4914    0.0000 </r>
       <r>    8.4941    0.0000 </r>
       <r>    8.4981    0.0000 </r>
       <r>    8.5088    0.0000 </r>
       <r>    8.5096    0.0000 </r>
       <r>    8.5109    0.0000 </r>
       <r>    8.5353    0.0000 </r>
       <r>    8.5699    0.0000 </r>
       <r>    8.6007    0.0000 </r>
       <r>    8.6272    0.0000 </r>
       <r>    8.7873    0.0000 </r>
       <r>    8.8299    0.0000 </r>
       <r>    8.9034    0.0000 </r>
       <r>    8.9112    0.0000 </r>
       <r>    8.9301    0.0000 </r>
       <r>    9.0003    0.0000 </r>
       <r>    9.0077    0.0000 </r>
       <r>    9.0119    0.0000 </r>
       <r>    9.0202    0.0000 </r>
       <r>    9.0203    0.0000 </r>
       <r>    9.0241    0.0000 </r>
       <r>    9.0311    0.0000 </r>
       <r>    9.1314    0.0000 </r>
       <r>    9.1442    0.0000 </r>
       <r>    9.1636    0.0000 </r>
       <r>    9.1653    0.0000 </r>
       <r>    9.1856    0.0000 </r>
       <r>    9.2084    0.0000 </r>
       <r>    9.2096    0.0000 </r>
       <r>    9.2135    0.0000 </r>
       <r>    9.3697    0.0000 </r>
       <r>    9.4069    0.0000 </r>
       <r>    9.4128    0.0000 </r>
       <r>    9.4324    0.0000 </r>
       <r>    9.4448    0.0000 </r>
       <r>    9.4492    0.0000 </r>
       <r>    9.5850    0.0000 </r>
       <r>    9.6027    0.0000 </r>
       <r>    9.6040    0.0000 </r>
       <r>    9.6064    0.0000 </r>
       <r>    9.6082    0.0000 </r>
       <r>    9.6388    0.0000 </r>
       <r>    9.6656    0.0000 </r>
       <r>    9.7115    0.0000 </r>
       <r>    9.7132    0.0000 </r>
       <r>    9.7135    0.0000 </r>
       <r>    9.7298    0.0000 </r>
       <r>    9.7697    0.0000 </r>
       <r>    9.7872    0.0000 </r>
       <r>    9.8360    0.0000 </r>
       <r>    9.8365    0.0000 </r>
       <r>    9.9244    0.0000 </r>
       <r>    9.9270    0.0000 </r>
       <r>    9.9647    0.0000 </r>
       <r>    9.9697    0.0000 </r>
       <r>    9.9725    0.0000 </r>
       <r>   10.0346    0.0000 </r>
       <r>   10.0715    0.0000 </r>
       <r>   10.1149    0.0000 </r>
       <r>   10.1335    0.0000 </r>
       <r>   10.3107    0.0000 </r>
       <r>   10.3468    0.0000 </r>
       <r>   10.4278    0.0000 </r>
       <r>   10.4280    0.0000 </r>
       <r>   10.5261    0.0000 </r>
       <r>   10.5270    0.0000 </r>
       <r>   10.5491    0.0000 </r>
       <r>   10.5533    0.0000 </r>
       <r>   10.8978    0.0000 </r>
       <r>   10.9992    0.0000 </r>
       <r>   11.2082    0.0000 </r>
       <r>   11.2116    0.0000 </r>
       <r>   11.2943    0.0000 </r>
       <r>   11.4155    0.0000 </r>
       <r>   11.4219    0.0000 </r>
       <r>   11.4356    0.0000 </r>
       <r>   11.4699    0.0000 </r>
       <r>   11.5043    0.0000 </r>
       <r>   11.5226    0.0000 </r>
       <r>   11.5572    0.0000 </r>
       <r>   11.5701    0.0000 </r>
       <r>   11.5914    0.0000 </r>
       <r>   11.5916    0.0000 </r>
       <r>   11.6089    0.0000 </r>
       <r>   11.6400    0.0000 </r>
       <r>   11.6691    0.0000 </r>
       <r>   11.7390    0.0000 </r>
       <r>   11.7917    0.0000 </r>
       <r>   11.8515    0.0000 </r>
       <r>   11.8930    0.0000 </r>
       <r>   11.9507    0.0000 </r>
       <r>   12.0103    0.0000 </r>
       <r>   12.0555    0.0000 </r>
      </set>
      <set comment="kpoint 8">
       <r>  -17.1660    1.0000 </r>
       <r>  -15.7430    1.0000 </r>
       <r>  -15.6887    1.0000 </r>
       <r>  -15.4122    1.0000 </r>
       <r>  -15.2832    1.0000 </r>
       <r>  -15.2754    1.0000 </r>
       <r>  -15.2414    1.0000 </r>
       <r>  -15.2045    1.0000 </r>
       <r>  -15.1414    1.0000 </r>
       <r>  -15.0833    1.0000 </r>
       <r>  -15.0470    1.0000 </r>
       <r>  -15.0358    1.0000 </r>
       <r>  -15.0135    1.0000 </r>
       <r>  -14.9847    1.0000 </r>
       <r>  -14.9835    1.0000 </r>
       <r>  -14.9062    1.0000 </r>
       <r>  -14.8989    1.0000 </r>
       <r>  -14.8523    1.0000 </r>
       <r>  -14.7588    1.0000 </r>
       <r>  -14.7567    1.0000 </r>
       <r>  -14.6146    1.0000 </r>
       <r>  -14.5661    1.0000 </r>
       <r>  -14.5390    1.0000 </r>
       <r>  -14.4668    1.0000 </r>
       <r>  -14.4620    1.0000 </r>
       <r>  -14.4601    1.0000 </r>
       <r>  -14.4584    1.0000 </r>
       <r>  -14.4217    1.0000 </r>
       <r>  -14.4022    1.0000 </r>
       <r>  -14.3957    1.0000 </r>
       <r>  -14.3847    1.0000 </r>
       <r>  -14.3350    1.0000 </r>
       <r>  -14.2504    1.0000 </r>
       <r>  -14.2445    1.0000 </r>
       <r>  -14.2425    1.0000 </r>
       <r>  -14.2417    1.0000 </r>
       <r>  -14.2073    1.0000 </r>
       <r>  -14.2064    1.0000 </r>
       <r>  -14.1681    1.0000 </r>
       <r>  -14.1493    1.0000 </r>
       <r>  -14.1057    1.0000 </r>
       <r>  -14.0340    1.0000 </r>
       <r>  -13.9997    1.0000 </r>
       <r>  -13.9954    1.0000 </r>
       <r>  -13.9392    1.0000 </r>
       <r>  -13.7793    1.0000 </r>
       <r>  -13.7418    1.0000 </r>
       <r>  -13.7409    1.0000 </r>
       <r>  -13.7113    1.0000 </r>
       <r>  -13.7106    1.0000 </r>
       <r>  -13.7024    1.0000 </r>
       <r>  -13.6806    1.0000 </r>
       <r>  -13.6569    1.0000 </r>
       <r>  -13.6548    1.0000 </r>
       <r>  -13.5965    1.0000 </r>
       <r>  -13.5365    1.0000 </r>
       <r>  -13.5327    1.0000 </r>
       <r>  -13.5174    1.0000 </r>
       <r>  -13.5157    1.0000 </r>
       <r>  -13.5018    1.0000 </r>
       <r>  -13.3575    1.0000 </r>
       <r>  -13.3334    1.0000 </r>
       <r>  -13.2538    1.0000 </r>
       <r>  -13.2219    1.0000 </r>
       <r>  -13.1077    1.0000 </r>
       <r>  -13.0679    1.0000 </r>
       <r>  -13.0642    1.0000 </r>
       <r>  -13.0618    1.0000 </r>
       <r>  -13.0605    1.0000 </r>
       <r>  -13.0327    1.0000 </r>
       <r>  -13.0262    1.0000 </r>
       <r>  -13.0229    1.0000 </r>
       <r>  -13.0162    1.0000 </r>
       <r>  -12.9710    1.0000 </r>
       <r>  -12.9230    1.0000 </r>
       <r>  -12.8944    1.0000 </r>
       <r>  -12.8923    1.0000 </r>
       <r>  -12.8897    1.0000 </r>
       <r>  -12.8881    1.0000 </r>
       <r>  -12.8798    1.0000 </r>
       <r>  -12.8774    1.0000 </r>
       <r>  -12.8769    1.0000 </r>
       <r>  -12.8756    1.0000 </r>
       <r>  -12.8655    1.0000 </r>
       <r>  -12.8597    1.0000 </r>
       <r>  -12.8560    1.0000 </r>
       <r>  -12.8505    1.0000 </r>
       <r>  -12.8500    1.0000 </r>
       <r>  -12.7193    1.0000 </r>
       <r>  -12.7154    1.0000 </r>
       <r>  -12.7144    1.0000 </r>
       <r>  -12.7103    1.0000 </r>
       <r>  -12.6816    1.0000 </r>
       <r>  -12.6087    1.0000 </r>
       <r>  -12.5983    1.0000 </r>
       <r>  -12.5766    1.0000 </r>
       <r>  -12.5730    1.0000 </r>
       <r>  -12.5509    1.0000 </r>
       <r>  -12.5327    1.0000 </r>
       <r>  -12.4980    1.0000 </r>
       <r>  -12.4351    1.0000 </r>
       <r>  -12.4310    1.0000 </r>
       <r>  -12.4217    1.0000 </r>
       <r>  -12.4214    1.0000 </r>
       <r>  -12.3418    1.0000 </r>
       <r>  -12.3387    1.0000 </r>
       <r>  -12.3216    1.0000 </r>
       <r>  -12.3171    1.0000 </r>
       <r>  -12.2466    1.0000 </r>
       <r>  -12.2447    1.0000 </r>
       <r>  -12.2369    1.0000 </r>
       <r>  -12.2323    1.0000 </r>
       <r>  -12.2183    1.0000 </r>
       <r>  -12.2176    1.0000 </r>
       <r>  -12.2078    1.0000 </r>
       <r>  -12.2049    1.0000 </r>
       <r>  -12.1798    1.0000 </r>
       <r>  -12.1745    1.0000 </r>
       <r>  -12.1701    1.0000 </r>
       <r>  -12.1699    1.0000 </r>
       <r>  -12.1007    1.0000 </r>
       <r>  -12.0942    1.0000 </r>
       <r>  -12.0879    1.0000 </r>
       <r>  -12.0857    1.0000 </r>
       <r>  -12.0841    1.0000 </r>
       <r>  -12.0828    1.0000 </r>
       <r>  -11.9508    1.0000 </r>
       <r>  -11.9478    1.0000 </r>
       <r>  -11.9464    1.0000 </r>
       <r>  -11.9433    1.0000 </r>
       <r>  -11.8170    1.0000 </r>
       <r>  -11.8142    1.0000 </r>
       <r>  -11.8082    1.0000 </r>
       <r>  -11.8075    1.0000 </r>
       <r>  -11.8045    1.0000 </r>
       <r>  -11.8038    1.0000 </r>
       <r>  -11.7850    1.0000 </r>
       <r>  -11.7845    1.0000 </r>
       <r>  -11.7793    1.0000 </r>
       <r>  -11.7790    1.0000 </r>
       <r>  -11.6742    1.0000 </r>
       <r>  -11.6675    1.0000 </r>
       <r>  -11.6603    1.0000 </r>
       <r>  -11.6566    1.0000 </r>
       <r>   -8.1624    1.0000 </r>
       <r>   -7.2498    1.0000 </r>
       <r>   -7.2352    1.0000 </r>
       <r>   -6.7831    1.0000 </r>
       <r>   -6.6995    1.0000 </r>
       <r>   -6.6786    1.0000 </r>
       <r>   -6.4259    1.0000 </r>
       <r>   -6.4019    1.0000 </r>
       <r>   -6.3173    1.0000 </r>
       <r>   -6.3089    1.0000 </r>
       <r>   -6.3059    1.0000 </r>
       <r>   -6.3041    1.0000 </r>
       <r>   -6.2980    1.0000 </r>
       <r>   -6.2836    1.0000 </r>
       <r>   -6.2752    1.0000 </r>
       <r>   -6.2743    1.0000 </r>
       <r>   -6.2683    1.0000 </r>
       <r>   -6.2680    1.0000 </r>
       <r>   -6.2155    1.0000 </r>
       <r>   -6.2131    1.0000 </r>
       <r>   -6.2109    1.0000 </r>
       <r>   -6.2072    1.0000 </r>
       <r>   -6.1950    1.0000 </r>
       <r>   -6.1919    1.0000 </r>
       <r>   -6.1630    1.0000 </r>
       <r>   -6.1587    1.0000 </r>
       <r>   -6.1481    1.0000 </r>
       <r>   -6.1455    1.0000 </r>
       <r>   -6.0736    1.0000 </r>
       <r>   -6.0710    1.0000 </r>
       <r>   -5.9353    1.0000 </r>
       <r>   -5.9279    1.0000 </r>
       <r>   -5.9105    1.0000 </r>
       <r>   -5.9031    1.0000 </r>
       <r>   -5.8366    1.0000 </r>
       <r>   -5.7923    1.0000 </r>
       <r>   -5.7804    1.0000 </r>
       <r>   -5.7696    1.0000 </r>
       <r>   -5.7686    1.0000 </r>
       <r>   -5.7655    1.0000 </r>
       <r>   -5.7615    1.0000 </r>
       <r>   -5.7587    1.0000 </r>
       <r>   -5.7584    1.0000 </r>
       <r>   -5.7577    1.0000 </r>
       <r>   -5.7561    1.0000 </r>
       <r>   -5.7503    1.0000 </r>
       <r>   -5.7347    1.0000 </r>
       <r>   -5.6802    1.0000 </r>
       <r>   -5.6516    1.0000 </r>
       <r>   -5.6390    1.0000 </r>
       <r>   -5.6261    1.0000 </r>
       <r>   -5.6236    1.0000 </r>
       <r>   -5.6193    1.0000 </r>
       <r>   -5.6171    1.0000 </r>
       <r>   -5.2290    1.0000 </r>
       <r>   -5.2267    1.0000 </r>
       <r>   -5.2244    1.0000 </r>
       <r>   -5.2240    1.0000 </r>
       <r>   -5.2234    1.0000 </r>
       <r>   -5.2196    1.0000 </r>
       <r>   -5.2191    1.0000 </r>
       <r>   -5.2189    1.0000 </r>
       <r>   -5.2180    1.0000 </r>
       <r>   -5.2174    1.0000 </r>
       <r>   -5.2171    1.0000 </r>
       <r>   -5.2168    1.0000 </r>
       <r>   -5.1064    1.0000 </r>
       <r>   -5.0949    1.0000 </r>
       <r>   -5.0943    1.0000 </r>
       <r>   -5.0917    1.0000 </r>
       <r>   -5.0888    1.0000 </r>
       <r>   -5.0878    1.0000 </r>
       <r>   -5.0858    1.0000 </r>
       <r>   -5.0815    1.0000 </r>
       <r>   -5.0084    1.0000 </r>
       <r>   -4.9190    1.0000 </r>
       <r>   -4.8269    1.0000 </r>
       <r>   -4.5974    1.0000 </r>
       <r>   -4.5428    1.0000 </r>
       <r>   -4.5347    1.0000 </r>
       <r>   -4.4751    1.0000 </r>
       <r>   -4.4724    1.0000 </r>
       <r>   -4.4719    1.0000 </r>
       <r>   -4.4709    1.0000 </r>
       <r>   -4.4705    1.0000 </r>
       <r>   -4.4694    1.0000 </r>
       <r>   -4.4680    1.0000 </r>
       <r>   -4.4678    1.0000 </r>
       <r>   -4.3464    1.0000 </r>
       <r>   -4.3423    1.0000 </r>
       <r>   -4.3402    1.0000 </r>
       <r>   -4.3379    1.0000 </r>
       <r>   -4.3118    1.0000 </r>
       <r>   -4.1905    1.0000 </r>
       <r>   -4.0919    1.0000 </r>
       <r>   -4.0877    1.0000 </r>
       <r>   -4.0875    1.0000 </r>
       <r>   -4.0843    1.0000 </r>
       <r>   -4.0829    1.0000 </r>
       <r>   -4.0744    1.0000 </r>
       <r>   -4.0743    1.0000 </r>
       <r>   -4.0712    1.0000 </r>
       <r>   -4.0700    1.0000 </r>
       <r>   -4.0357    1.0000 </r>
       <r>   -4.0246    1.0000 </r>
       <r>   -3.9527    1.0000 </r>
       <r>   -3.9502    1.0000 </r>
       <r>   -3.9466    1.0000 </r>
       <r>   -3.9447    1.0000 </r>
       <r>   -3.9074    1.0000 </r>
       <r>   -3.8631    1.0000 </r>
       <r>   -3.7744    1.0000 </r>
       <r>   -3.6226    1.0000 </r>
       <r>   -3.6203    1.0000 </r>
       <r>   -3.6155    1.0000 </r>
       <r>   -3.6141    1.0000 </r>
       <r>   -3.6043    1.0000 </r>
       <r>   -3.6032    1.0000 </r>
       <r>   -3.5979    1.0000 </r>
       <r>   -3.5974    1.0000 </r>
       <r>   -3.5943    1.0000 </r>
       <r>   -3.4813    1.0000 </r>
       <r>   -3.4792    1.0000 </r>
       <r>   -3.4730    1.0000 </r>
       <r>   -3.4715    1.0000 </r>
       <r>   -3.4688    1.0000 </r>
       <r>   -3.4679    1.0000 </r>
       <r>   -3.4671    1.0000 </r>
       <r>   -3.4656    1.0000 </r>
       <r>   -3.4650    1.0000 </r>
       <r>   -3.3902    1.0000 </r>
       <r>   -3.3565    1.0000 </r>
       <r>   -3.3420    1.0000 </r>
       <r>   -3.3407    1.0000 </r>
       <r>   -3.3375    1.0000 </r>
       <r>   -3.3144    1.0000 </r>
       <r>   -3.3071    1.0000 </r>
       <r>   -3.1464    1.0000 </r>
       <r>   -3.0896    1.0000 </r>
       <r>   -3.0772    1.0000 </r>
       <r>   -3.0727    1.0000 </r>
       <r>   -3.0722    1.0000 </r>
       <r>   -3.0660    1.0000 </r>
       <r>   -3.0028    1.0000 </r>
       <r>   -2.9993    1.0000 </r>
       <r>   -2.9863    1.0000 </r>
       <r>   -2.9376    1.0000 </r>
       <r>   -2.9364    1.0000 </r>
       <r>   -2.8454    1.0000 </r>
       <r>   -2.7636    1.0000 </r>
       <r>   -2.7601    1.0000 </r>
       <r>   -2.7516    1.0000 </r>
       <r>   -2.7275    1.0000 </r>
       <r>   -2.7234    1.0000 </r>
       <r>   -2.6736    1.0000 </r>
       <r>   -2.6722    1.0000 </r>
       <r>   -2.6689    1.0000 </r>
       <r>   -2.6495    1.0000 </r>
       <r>   -2.6130    1.0000 </r>
       <r>   -2.5486    1.0000 </r>
       <r>   -2.5445    1.0000 </r>
       <r>   -2.5424    1.0000 </r>
       <r>   -2.5146    1.0000 </r>
       <r>   -2.4622    1.0000 </r>
       <r>   -2.3909    1.0000 </r>
       <r>   -2.3858    1.0000 </r>
       <r>   -2.3771    1.0000 </r>
       <r>   -2.3745    1.0000 </r>
       <r>   -2.3729    1.0000 </r>
       <r>   -2.3715    1.0000 </r>
       <r>   -2.3715    1.0000 </r>
       <r>   -2.3703    1.0000 </r>
       <r>   -2.3699    1.0000 </r>
       <r>   -2.3680    1.0000 </r>
       <r>   -2.3658    1.0000 </r>
       <r>   -2.3425    1.0000 </r>
       <r>   -2.2704    1.0000 </r>
       <r>   -2.2633    1.0000 </r>
       <r>   -2.2555    1.0000 </r>
       <r>   -2.2436    1.0000 </r>
       <r>   -2.2412    1.0000 </r>
       <r>   -2.2392    1.0000 </r>
       <r>   -2.2357    1.0000 </r>
       <r>   -2.2345    1.0000 </r>
       <r>   -2.2059    1.0000 </r>
       <r>   -2.1946    1.0000 </r>
       <r>   -2.1931    1.0000 </r>
       <r>   -2.1630    1.0000 </r>
       <r>   -2.1503    1.0000 </r>
       <r>   -2.1430    1.0000 </r>
       <r>   -2.1242    1.0000 </r>
       <r>   -2.0974    1.0000 </r>
       <r>   -2.0913    1.0000 </r>
       <r>   -2.0911    1.0000 </r>
       <r>   -2.0857    1.0000 </r>
       <r>   -2.0855    1.0000 </r>
       <r>   -2.0574    1.0000 </r>
       <r>   -2.0569    1.0000 </r>
       <r>   -2.0508    1.0000 </r>
       <r>   -2.0505    1.0000 </r>
       <r>   -2.0080    1.0000 </r>
       <r>   -1.9634    1.0000 </r>
       <r>   -1.9484    1.0000 </r>
       <r>   -1.9434    1.0000 </r>
       <r>   -1.9320    1.0000 </r>
       <r>   -1.9312    1.0000 </r>
       <r>   -1.9301    1.0000 </r>
       <r>   -1.9076    1.0000 </r>
       <r>   -1.9041    1.0000 </r>
       <r>   -1.8977    1.0000 </r>
       <r>   -1.8957    1.0000 </r>
       <r>   -1.8629    1.0000 </r>
       <r>   -1.8602    1.0000 </r>
       <r>   -1.8596    1.0000 </r>
       <r>   -1.8590    1.0000 </r>
       <r>   -1.8582    1.0000 </r>
       <r>   -1.8575    1.0000 </r>
       <r>   -1.8565    1.0000 </r>
       <r>   -1.8551    1.0000 </r>
       <r>   -1.8521    1.0000 </r>
       <r>   -1.7786    1.0000 </r>
       <r>   -1.7783    1.0000 </r>
       <r>   -1.7776    1.0000 </r>
       <r>   -1.7775    1.0000 </r>
       <r>   -1.7742    1.0000 </r>
       <r>   -1.7739    1.0000 </r>
       <r>   -1.7727    1.0000 </r>
       <r>   -1.7726    1.0000 </r>
       <r>   -1.7464    1.0000 </r>
       <r>   -1.7427    1.0000 </r>
       <r>   -1.7413    1.0000 </r>
       <r>   -1.7382    1.0000 </r>
       <r>   -1.7111    1.0000 </r>
       <r>   -1.7053    1.0000 </r>
       <r>   -1.6627    1.0000 </r>
       <r>   -1.6498    1.0000 </r>
       <r>   -1.6456    1.0000 </r>
       <r>   -1.6441    1.0000 </r>
       <r>   -1.6429    1.0000 </r>
       <r>   -1.6231    1.0000 </r>
       <r>   -1.6096    1.0000 </r>
       <r>   -1.6075    1.0000 </r>
       <r>   -1.5848    1.0000 </r>
       <r>   -1.5840    1.0000 </r>
       <r>   -1.5798    1.0000 </r>
       <r>   -1.5574    1.0000 </r>
       <r>   -1.5546    1.0000 </r>
       <r>   -1.5497    1.0000 </r>
       <r>   -1.4507    1.0000 </r>
       <r>   -1.4442    1.0000 </r>
       <r>   -1.4413    1.0000 </r>
       <r>   -1.4283    1.0000 </r>
       <r>   -1.2565    1.0000 </r>
       <r>   -1.2523    1.0000 </r>
       <r>   -1.2349    1.0000 </r>
       <r>   -1.2348    1.0000 </r>
       <r>   -1.2263    1.0000 </r>
       <r>   -1.2240    1.0000 </r>
       <r>   -1.2207    1.0000 </r>
       <r>   -1.2066    1.0000 </r>
       <r>   -1.2064    1.0000 </r>
       <r>   -1.2061    1.0000 </r>
       <r>   -1.2057    1.0000 </r>
       <r>   -1.1913    1.0000 </r>
       <r>   -1.1875    1.0000 </r>
       <r>   -1.1828    1.0000 </r>
       <r>   -1.1711    1.0000 </r>
       <r>   -1.1488    1.0000 </r>
       <r>   -1.1157    1.0000 </r>
       <r>   -1.0946    1.0000 </r>
       <r>   -1.0886    1.0000 </r>
       <r>   -1.0812    1.0000 </r>
       <r>   -1.0795    1.0000 </r>
       <r>   -1.0538    1.0000 </r>
       <r>   -1.0093    1.0000 </r>
       <r>   -0.9292    1.0000 </r>
       <r>   -0.9138    1.0000 </r>
       <r>   -0.9100    1.0000 </r>
       <r>   -0.9089    1.0000 </r>
       <r>   -0.9006    1.0000 </r>
       <r>   -0.8548    1.0000 </r>
       <r>   -0.8441    1.0000 </r>
       <r>   -0.8218    1.0000 </r>
       <r>   -0.7760    1.0000 </r>
       <r>   -0.7080    1.0000 </r>
       <r>   -0.6858    1.0000 </r>
       <r>   -0.6847    1.0000 </r>
       <r>   -0.6526    1.0000 </r>
       <r>   -0.5978    1.0000 </r>
       <r>   -0.5936    1.0000 </r>
       <r>   -0.5912    1.0000 </r>
       <r>   -0.5227    1.0000 </r>
       <r>   -0.5178    1.0000 </r>
       <r>   -0.5172    1.0000 </r>
       <r>   -0.5150    1.0000 </r>
       <r>   -0.5139    1.0000 </r>
       <r>   -0.4617    1.0000 </r>
       <r>   -0.4579    1.0000 </r>
       <r>   -0.4576    1.0000 </r>
       <r>   -0.4565    1.0000 </r>
       <r>   -0.4535    1.0000 </r>
       <r>   -0.4528    1.0000 </r>
       <r>   -0.4527    1.0000 </r>
       <r>   -0.4488    1.0000 </r>
       <r>   -0.4030    1.0000 </r>
       <r>   -0.3853    1.0000 </r>
       <r>   -0.3792    1.0000 </r>
       <r>   -0.3547    1.0000 </r>
       <r>   -0.3517    1.0000 </r>
       <r>   -0.3491    1.0000 </r>
       <r>   -0.3462    1.0000 </r>
       <r>   -0.3446    1.0000 </r>
       <r>   -0.3312    1.0000 </r>
       <r>   -0.3262    1.0000 </r>
       <r>   -0.3252    1.0000 </r>
       <r>   -0.3203    1.0000 </r>
       <r>   -0.2755    1.0000 </r>
       <r>   -0.2626    1.0000 </r>
       <r>   -0.2575    1.0000 </r>
       <r>   -0.2564    1.0000 </r>
       <r>   -0.2558    1.0000 </r>
       <r>   -0.2543    1.0000 </r>
       <r>   -0.2459    1.0000 </r>
       <r>   -0.2241    1.0000 </r>
       <r>   -0.2206    1.0000 </r>
       <r>   -0.2150    1.0000 </r>
       <r>   -0.2094    1.0000 </r>
       <r>   -0.1404    1.0000 </r>
       <r>   -0.1394    1.0000 </r>
       <r>   -0.0450    1.0000 </r>
       <r>   -0.0047    1.0000 </r>
       <r>    0.0008    1.0000 </r>
       <r>    0.0090    1.0000 </r>
       <r>    0.0121    1.0000 </r>
       <r>    0.0150    1.0000 </r>
       <r>    0.0174    1.0000 </r>
       <r>    0.0353    1.0000 </r>
       <r>    0.0369    1.0000 </r>
       <r>    0.0743    1.0000 </r>
       <r>    0.1871    1.0000 </r>
       <r>    0.2886    1.0000 </r>
       <r>    0.3192    1.0000 </r>
       <r>    0.3434    1.0000 </r>
       <r>    0.3455    1.0000 </r>
       <r>    0.3488    1.0000 </r>
       <r>    0.3507    1.0000 </r>
       <r>    0.3746    1.0000 </r>
       <r>    0.3968    1.0000 </r>
       <r>    0.4528    1.0000 </r>
       <r>    0.4719    1.0000 </r>
       <r>    0.4778    1.0000 </r>
       <r>    0.4894    1.0000 </r>
       <r>    0.5106    1.0000 </r>
       <r>    0.5570    1.0000 </r>
       <r>    0.5585    1.0000 </r>
       <r>    0.5663    1.0000 </r>
       <r>    0.5870    1.0000 </r>
       <r>    0.5889    1.0000 </r>
       <r>    0.5967    1.0000 </r>
       <r>    0.6203    1.0000 </r>
       <r>    0.6360    1.0000 </r>
       <r>    0.6562    1.0000 </r>
       <r>    0.6885    1.0000 </r>
       <r>    0.7038    1.0000 </r>
       <r>    0.7339    1.0000 </r>
       <r>    0.7365    1.0000 </r>
       <r>    0.8550    1.0000 </r>
       <r>    0.8566    1.0000 </r>
       <r>    0.8567    1.0000 </r>
       <r>    0.8626    1.0000 </r>
       <r>    0.8647    1.0000 </r>
       <r>    0.8662    1.0000 </r>
       <r>    0.8687    1.0000 </r>
       <r>    0.8744    1.0000 </r>
       <r>    0.8748    1.0000 </r>
       <r>    0.8774    1.0000 </r>
       <r>    0.8840    1.0000 </r>
       <r>    0.8861    1.0000 </r>
       <r>    0.8955    1.0000 </r>
       <r>    0.8968    1.0000 </r>
       <r>    0.9056    1.0000 </r>
       <r>    0.9091    1.0000 </r>
       <r>    0.9958    1.0000 </r>
       <r>    1.0062    1.0000 </r>
       <r>    1.0599    1.0000 </r>
       <r>    1.0636    1.0000 </r>
       <r>    1.0775    1.0000 </r>
       <r>    1.0797    1.0000 </r>
       <r>    1.0937    1.0000 </r>
       <r>    1.0946    1.0000 </r>
       <r>    1.1092    1.0000 </r>
       <r>    1.1111    1.0000 </r>
       <r>    1.1179    1.0000 </r>
       <r>    1.2575    1.0000 </r>
       <r>    1.2631    1.0000 </r>
       <r>    1.3110    1.0000 </r>
       <r>    1.4360    1.0000 </r>
       <r>    1.4538    1.0000 </r>
       <r>    1.4564    1.0000 </r>
       <r>    1.4706    1.0000 </r>
       <r>    1.6002    1.0000 </r>
       <r>    1.6027    1.0000 </r>
       <r>    1.6057    1.0000 </r>
       <r>    1.6061    1.0000 </r>
       <r>    1.6161    1.0000 </r>
       <r>    1.6260    1.0000 </r>
       <r>    1.6574    1.0000 </r>
       <r>    1.6679    1.0000 </r>
       <r>    1.7140    1.0000 </r>
       <r>    1.7147    1.0000 </r>
       <r>    1.7685    1.0000 </r>
       <r>    1.7710    1.0000 </r>
       <r>    1.8472    1.0000 </r>
       <r>    1.8486    1.0000 </r>
       <r>    1.8546    1.0000 </r>
       <r>    1.8629    1.0000 </r>
       <r>    1.8665    1.0000 </r>
       <r>    1.8704    1.0000 </r>
       <r>    1.8787    1.0000 </r>
       <r>    1.8801    1.0000 </r>
       <r>    1.9905    1.0000 </r>
       <r>    2.0037    1.0000 </r>
       <r>    2.1888    1.0000 </r>
       <r>    2.1905    1.0000 </r>
       <r>    2.1971    1.0000 </r>
       <r>    2.1998    1.0000 </r>
       <r>    2.2080    1.0000 </r>
       <r>    2.2109    1.0000 </r>
       <r>    2.3819    1.0000 </r>
       <r>    2.3823    1.0000 </r>
       <r>    2.3866    1.0000 </r>
       <r>    2.3896    1.0000 </r>
       <r>    5.5464    0.0000 </r>
       <r>    6.6591    0.0000 </r>
       <r>    6.6755    0.0000 </r>
       <r>    6.6832    0.0000 </r>
       <r>    6.7933    0.0000 </r>
       <r>    6.8859    0.0000 </r>
       <r>    6.9414    0.0000 </r>
       <r>    7.0092    0.0000 </r>
       <r>    7.0225    0.0000 </r>
       <r>    7.0447    0.0000 </r>
       <r>    7.0546    0.0000 </r>
       <r>    7.0762    0.0000 </r>
       <r>    7.0866    0.0000 </r>
       <r>    7.1091    0.0000 </r>
       <r>    7.1159    0.0000 </r>
       <r>    7.1468    0.0000 </r>
       <r>    7.1473    0.0000 </r>
       <r>    7.2567    0.0000 </r>
       <r>    7.2659    0.0000 </r>
       <r>    7.2661    0.0000 </r>
       <r>    7.2859    0.0000 </r>
       <r>    7.2866    0.0000 </r>
       <r>    7.4418    0.0000 </r>
       <r>    7.4579    0.0000 </r>
       <r>    7.4660    0.0000 </r>
       <r>    7.4811    0.0000 </r>
       <r>    7.4893    0.0000 </r>
       <r>    7.5706    0.0000 </r>
       <r>    7.5754    0.0000 </r>
       <r>    7.6365    0.0000 </r>
       <r>    7.6460    0.0000 </r>
       <r>    7.6614    0.0000 </r>
       <r>    7.6643    0.0000 </r>
       <r>    7.6660    0.0000 </r>
       <r>    7.6680    0.0000 </r>
       <r>    7.6839    0.0000 </r>
       <r>    7.7170    0.0000 </r>
       <r>    7.7316    0.0000 </r>
       <r>    7.7350    0.0000 </r>
       <r>    7.7952    0.0000 </r>
       <r>    7.8474    0.0000 </r>
       <r>    7.8813    0.0000 </r>
       <r>    7.8994    0.0000 </r>
       <r>    7.9724    0.0000 </r>
       <r>    7.9764    0.0000 </r>
       <r>    8.0068    0.0000 </r>
       <r>    8.0075    0.0000 </r>
       <r>    8.0983    0.0000 </r>
       <r>    8.0995    0.0000 </r>
       <r>    8.1131    0.0000 </r>
       <r>    8.2082    0.0000 </r>
       <r>    8.2296    0.0000 </r>
       <r>    8.2534    0.0000 </r>
       <r>    8.2890    0.0000 </r>
       <r>    8.3390    0.0000 </r>
       <r>    8.3415    0.0000 </r>
       <r>    8.3685    0.0000 </r>
       <r>    8.4739    0.0000 </r>
       <r>    8.4842    0.0000 </r>
       <r>    8.4913    0.0000 </r>
       <r>    8.4947    0.0000 </r>
       <r>    8.4975    0.0000 </r>
       <r>    8.5074    0.0000 </r>
       <r>    8.5108    0.0000 </r>
       <r>    8.5120    0.0000 </r>
       <r>    8.5340    0.0000 </r>
       <r>    8.5691    0.0000 </r>
       <r>    8.6003    0.0000 </r>
       <r>    8.6282    0.0000 </r>
       <r>    8.7871    0.0000 </r>
       <r>    8.8299    0.0000 </r>
       <r>    8.9034    0.0000 </r>
       <r>    8.9110    0.0000 </r>
       <r>    8.9302    0.0000 </r>
       <r>    9.0004    0.0000 </r>
       <r>    9.0077    0.0000 </r>
       <r>    9.0119    0.0000 </r>
       <r>    9.0199    0.0000 </r>
       <r>    9.0205    0.0000 </r>
       <r>    9.0241    0.0000 </r>
       <r>    9.0310    0.0000 </r>
       <r>    9.1307    0.0000 </r>
       <r>    9.1460    0.0000 </r>
       <r>    9.1628    0.0000 </r>
       <r>    9.1667    0.0000 </r>
       <r>    9.1851    0.0000 </r>
       <r>    9.2085    0.0000 </r>
       <r>    9.2092    0.0000 </r>
       <r>    9.2126    0.0000 </r>
       <r>    9.3694    0.0000 </r>
       <r>    9.4069    0.0000 </r>
       <r>    9.4131    0.0000 </r>
       <r>    9.4323    0.0000 </r>
       <r>    9.4448    0.0000 </r>
       <r>    9.4492    0.0000 </r>
       <r>    9.5848    0.0000 </r>
       <r>    9.5996    0.0000 </r>
       <r>    9.6033    0.0000 </r>
       <r>    9.6062    0.0000 </r>
       <r>    9.6080    0.0000 </r>
       <r>    9.6388    0.0000 </r>
       <r>    9.6656    0.0000 </r>
       <r>    9.7116    0.0000 </r>
       <r>    9.7137    0.0000 </r>
       <r>    9.7140    0.0000 </r>
       <r>    9.7299    0.0000 </r>
       <r>    9.7691    0.0000 </r>
       <r>    9.7865    0.0000 </r>
       <r>    9.8355    0.0000 </r>
       <r>    9.8367    0.0000 </r>
       <r>    9.9242    0.0000 </r>
       <r>    9.9267    0.0000 </r>
       <r>    9.9645    0.0000 </r>
       <r>    9.9701    0.0000 </r>
       <r>    9.9728    0.0000 </r>
       <r>   10.0344    0.0000 </r>
       <r>   10.0726    0.0000 </r>
       <r>   10.1157    0.0000 </r>
       <r>   10.1334    0.0000 </r>
       <r>   10.3105    0.0000 </r>
       <r>   10.3467    0.0000 </r>
       <r>   10.4281    0.0000 </r>
       <r>   10.4284    0.0000 </r>
       <r>   10.5255    0.0000 </r>
       <r>   10.5267    0.0000 </r>
       <r>   10.5508    0.0000 </r>
       <r>   10.5559    0.0000 </r>
       <r>   10.8984    0.0000 </r>
       <r>   11.0002    0.0000 </r>
       <r>   11.2080    0.0000 </r>
       <r>   11.2113    0.0000 </r>
       <r>   11.2967    0.0000 </r>
       <r>   11.4125    0.0000 </r>
       <r>   11.4178    0.0000 </r>
       <r>   11.4330    0.0000 </r>
       <r>   11.4483    0.0000 </r>
       <r>   11.5167    0.0000 </r>
       <r>   11.5395    0.0000 </r>
       <r>   11.5656    0.0000 </r>
       <r>   11.5833    0.0000 </r>
       <r>   11.5869    0.0000 </r>
       <r>   11.5962    0.0000 </r>
       <r>   11.6145    0.0000 </r>
       <r>   11.6467    0.0000 </r>
       <r>   11.6653    0.0000 </r>
       <r>   11.7427    0.0000 </r>
       <r>   11.8148    0.0000 </r>
       <r>   11.8847    0.0000 </r>
       <r>   11.9339    0.0000 </r>
       <r>   11.9517    0.0000 </r>
       <r>   11.9807    0.0000 </r>
       <r>   12.0284    0.0000 </r>
      </set>
     </set>
    </set>
   </array>
  </eigenvalues>
  <separator name="orbital magnetization" >
   <v name="MAGDIPOLOUT">      0.00000000      0.00000000      0.00000000</v>
  </separator>
  <dos>
   <i name="efermi">      2.78916972 </i>
   <total>
    <array>
     <dimension dim="1">gridpoints</dimension>
     <dimension dim="2">spin</dimension>
     <field>energy</field>
     <field>total</field>
     <field>integrated</field>
     <set>
      <set comment="spin 1">
       <r>   -18.7783     0.0000     0.0000 </r>
       <r>   -18.6695     0.0000     0.0000 </r>
       <r>   -18.5606     0.0000     0.0000 </r>
       <r>   -18.4518     0.0000     0.0000 </r>
       <r>   -18.3429     0.0000     0.0000 </r>
       <r>   -18.2340     0.0000     0.0000 </r>
       <r>   -18.1252     0.0000     0.0000 </r>
       <r>   -18.0163     0.0000     0.0000 </r>
       <r>   -17.9075     0.0000     0.0000 </r>
       <r>   -17.7986     0.0000     0.0000 </r>
       <r>   -17.6898     0.0000     0.0000 </r>
       <r>   -17.5809     0.0000     0.0000 </r>
       <r>   -17.4720     0.0000     0.0000 </r>
       <r>   -17.3632     0.4552     0.0496 </r>
       <r>   -17.2543    15.4851     1.7352 </r>
       <r>   -17.1455     2.4319     2.0000 </r>
       <r>   -17.0366     0.0003     2.0000 </r>
       <r>   -16.9278     0.0000     2.0000 </r>
       <r>   -16.8189     0.0000     2.0000 </r>
       <r>   -16.7100     0.0000     2.0000 </r>
       <r>   -16.6012     0.0000     2.0000 </r>
       <r>   -16.4923     0.0000     2.0000 </r>
       <r>   -16.3835     0.0000     2.0000 </r>
       <r>   -16.2746     0.0000     2.0000 </r>
       <r>   -16.1657     0.0000     2.0000 </r>
       <r>   -16.0569     0.0000     2.0000 </r>
       <r>   -15.9480     0.0000     2.0000 </r>
       <r>   -15.8392     0.5082     2.0553 </r>
       <r>   -15.7303    22.3052     4.4834 </r>
       <r>   -15.6215    14.3264     6.0430 </r>
       <r>   -15.5126     4.0753     6.4866 </r>
       <r>   -15.4037    10.6804     7.6492 </r>
       <r>   -15.2949    23.8797    10.2487 </r>
       <r>   -15.1860    44.9781    15.1450 </r>
       <r>   -15.0772    44.4098    19.9793 </r>
       <r>   -14.9683    56.1073    26.0871 </r>
       <r>   -14.8594    60.6250    32.6866 </r>
       <r>   -14.7506    61.9690    39.4324 </r>
       <r>   -14.6417    36.6102    43.4177 </r>
       <r>   -14.5329    54.0575    49.3023 </r>
       <r>   -14.4240    69.8688    56.9081 </r>
       <r>   -14.3152    59.5581    63.3915 </r>
       <r>   -14.2063    76.0515    71.6703 </r>
       <r>   -14.0974    58.2669    78.0131 </r>
       <r>   -13.9886    35.1705    81.8417 </r>
       <r>   -13.8797    36.4921    85.8142 </r>
       <r>   -13.7709    69.2151    93.3488 </r>
       <r>   -13.6620   111.2192   105.4559 </r>
       <r>   -13.5531    67.3676   112.7894 </r>
       <r>   -13.4443    58.1137   119.1156 </r>
       <r>   -13.3354    64.0341   126.0862 </r>
       <r>   -13.2266    50.1228   131.5424 </r>
       <r>   -13.1177    40.6943   135.9724 </r>
       <r>   -13.0089    97.7653   146.6149 </r>
       <r>   -12.9000    88.0949   156.2047 </r>
       <r>   -12.7911   149.2460   172.4514 </r>
       <r>   -12.6823    59.5918   178.9384 </r>
       <r>   -12.5734    71.6732   186.7406 </r>
       <r>   -12.4646    82.4214   195.7129 </r>
       <r>   -12.3557    74.5021   203.8230 </r>
       <r>   -12.2469   164.5580   221.7365 </r>
       <r>   -12.1380   201.5870   243.6809 </r>
       <r>   -12.0291   116.8787   256.4041 </r>
       <r>   -11.9203    56.4764   262.5520 </r>
       <r>   -11.8114    63.8054   269.4977 </r>
       <r>   -11.7026    94.4906   279.7838 </r>
       <r>   -11.5937    55.8749   285.8662 </r>
       <r>   -11.4848    13.3678   287.3214 </r>
       <r>   -11.3760     6.1925   287.9955 </r>
       <r>   -11.2671     0.0413   288.0000 </r>
       <r>   -11.1583     0.0000   288.0000 </r>
       <r>   -11.0494     0.0000   288.0000 </r>
       <r>   -10.9406     0.0000   288.0000 </r>
       <r>   -10.8317     0.0000   288.0000 </r>
       <r>   -10.7228     0.0000   288.0000 </r>
       <r>   -10.6140     0.0000   288.0000 </r>
       <r>   -10.5051     0.0000   288.0000 </r>
       <r>   -10.3963     0.0000   288.0000 </r>
       <r>   -10.2874     0.0000   288.0000 </r>
       <r>   -10.1785     0.0000   288.0000 </r>
       <r>   -10.0697     0.0000   288.0000 </r>
       <r>    -9.9608     0.0000   288.0000 </r>
       <r>    -9.8520     0.0000   288.0000 </r>
       <r>    -9.7431     0.0000   288.0000 </r>
       <r>    -9.6343     0.0000   288.0000 </r>
       <r>    -9.5254     0.0000   288.0000 </r>
       <r>    -9.4165     0.0000   288.0000 </r>
       <r>    -9.3077     0.0000   288.0000 </r>
       <r>    -9.1988     0.0000   288.0000 </r>
       <r>    -9.0900     0.0000   288.0000 </r>
       <r>    -8.9811     0.0000   288.0000 </r>
       <r>    -8.8723     0.0000   288.0000 </r>
       <r>    -8.7634     0.0000   288.0000 </r>
       <r>    -8.6545     0.0000   288.0000 </r>
       <r>    -8.5457     0.0000   288.0000 </r>
       <r>    -8.4368     0.4216   288.0459 </r>
       <r>    -8.3280    15.2871   289.7100 </r>
       <r>    -8.2191     2.6635   290.0000 </r>
       <r>    -8.1102     0.0003   290.0000 </r>
       <r>    -8.0014     0.0000   290.0000 </r>
       <r>    -7.8925     0.0000   290.0000 </r>
       <r>    -7.7837     0.0000   290.0000 </r>
       <r>    -7.6748     0.0000   290.0000 </r>
       <r>    -7.5660     0.0000   290.0000 </r>
       <r>    -7.4571     0.0013   290.0001 </r>
       <r>    -7.3482     3.3641   290.3664 </r>
       <r>    -7.2394    29.3229   293.5584 </r>
       <r>    -7.1305     4.0561   293.9999 </r>
       <r>    -7.0217     0.0006   294.0000 </r>
       <r>    -6.9128     0.0052   294.0006 </r>
       <r>    -6.8039     5.3420   294.5821 </r>
       <r>    -6.6951    21.8481   296.9604 </r>
       <r>    -6.5862    22.3509   299.3935 </r>
       <r>    -6.4774    34.9599   303.1992 </r>
       <r>    -6.3685    42.2590   307.7994 </r>
       <r>    -6.2597   125.1315   321.4210 </r>
       <r>    -6.1508   131.7479   335.7628 </r>
       <r>    -6.0419    64.7081   342.8068 </r>
       <r>    -5.9331    41.6891   347.3450 </r>
       <r>    -5.8242    61.4081   354.0298 </r>
       <r>    -5.7154   174.6759   373.0446 </r>
       <r>    -5.6065   174.6281   392.0543 </r>
       <r>    -5.4977    87.3995   401.5685 </r>
       <r>    -5.3888    12.6009   402.9402 </r>
       <r>    -5.2799    14.2032   404.4863 </r>
       <r>    -5.1711   152.4022   421.0765 </r>
       <r>    -5.0622   108.9855   432.9405 </r>
       <r>    -4.9534    40.7804   437.3797 </r>
       <r>    -4.8445    27.8232   440.4085 </r>
       <r>    -4.7356    21.2673   442.7236 </r>
       <r>    -4.6268    15.9250   444.4572 </r>
       <r>    -4.5179    52.2195   450.1417 </r>
       <r>    -4.4091   150.8888   466.5672 </r>
       <r>    -4.3002    95.7629   476.9918 </r>
       <r>    -4.1914    31.6655   480.4388 </r>
       <r>    -4.0825    67.2821   487.7630 </r>
       <r>    -3.9736    94.4847   498.0484 </r>
       <r>    -3.8648    68.9468   505.5538 </r>
       <r>    -3.7559    22.8477   508.0410 </r>
       <r>    -3.6471    30.4302   511.3536 </r>
       <r>    -3.5382   121.4191   524.5710 </r>
       <r>    -3.4293   129.4515   538.6629 </r>
       <r>    -3.3205    81.9150   547.5800 </r>
       <r>    -3.2116    39.6008   551.8908 </r>
       <r>    -3.1028    77.6828   560.3472 </r>
       <r>    -2.9939   116.2719   573.0044 </r>
       <r>    -2.8851   142.1143   588.4747 </r>
       <r>    -2.7762   120.9791   601.6442 </r>
       <r>    -2.6673   125.8361   615.3425 </r>
       <r>    -2.5585    51.8517   620.9870 </r>
       <r>    -2.4496    63.9028   627.9433 </r>
       <r>    -2.3408   153.3171   644.6331 </r>
       <r>    -2.2319   125.0834   658.2495 </r>
       <r>    -2.1231   114.2066   670.6818 </r>
       <r>    -2.0142   148.8533   686.8857 </r>
       <r>    -1.9053   132.2818   701.2856 </r>
       <r>    -1.7965   180.7227   720.9587 </r>
       <r>    -1.6876   192.2996   741.8921 </r>
       <r>    -1.5788   188.8266   762.4474 </r>
       <r>    -1.4699   168.5307   780.7933 </r>
       <r>    -1.3610   101.3525   791.8264 </r>
       <r>    -1.2522    78.6779   800.3911 </r>
       <r>    -1.1433   191.7281   821.2622 </r>
       <r>    -1.0345   129.1861   835.3252 </r>
       <r>    -0.9256    83.0654   844.3675 </r>
       <r>    -0.8168   111.0565   856.4569 </r>
       <r>    -0.7079   111.6953   868.6159 </r>
       <r>    -0.5990   100.6725   879.5749 </r>
       <r>    -0.4902    80.8553   888.3766 </r>
       <r>    -0.3813   173.6224   907.2768 </r>
       <r>    -0.2725   180.4169   926.9167 </r>
       <r>    -0.1636    96.8925   937.4642 </r>
       <r>    -0.0547    46.9785   942.5782 </r>
       <r>     0.0541    82.9418   951.6071 </r>
       <r>     0.1630    50.9393   957.1522 </r>
       <r>     0.2718   126.9126   970.9677 </r>
       <r>     0.3807   129.4600   985.0604 </r>
       <r>     0.4895   110.5469   997.0944 </r>
       <r>     0.5984   101.1247  1008.1026 </r>
       <r>     0.7073    95.6870  1018.5189 </r>
       <r>     0.8161    70.9271  1026.2399 </r>
       <r>     0.9250   155.1129  1043.1252 </r>
       <r>     1.0338    90.9402  1053.0248 </r>
       <r>     1.1427    93.6048  1063.2144 </r>
       <r>     1.2515    82.0933  1072.1509 </r>
       <r>     1.3604    87.1379  1081.6366 </r>
       <r>     1.4693    70.4954  1089.3106 </r>
       <r>     1.5781    57.8691  1095.6101 </r>
       <r>     1.6870    73.3069  1103.5902 </r>
       <r>     1.7958    59.6342  1110.0818 </r>
       <r>     1.9047   116.1994  1122.7311 </r>
       <r>     2.0136    80.3932  1131.4825 </r>
       <r>     2.1224    47.2684  1136.6281 </r>
       <r>     2.2313    44.9632  1141.5227 </r>
       <r>     2.3401    21.8845  1143.9050 </r>
       <r>     2.4490    61.3594  1150.5845 </r>
       <r>     2.5578    12.4689  1151.9418 </r>
       <r>     2.6667     0.5346  1152.0000 </r>
       <r>     2.7756     0.0000  1152.0000 </r>
       <r>     2.8844     0.0000  1152.0000 </r>
       <r>     2.9933     0.0000  1152.0000 </r>
       <r>     3.1021     0.0000  1152.0000 </r>
       <r>     3.2110     0.0000  1152.0000 </r>
       <r>     3.3199     0.0000  1152.0000 </r>
       <r>     3.4287     0.0000  1152.0000 </r>
       <r>     3.5376     0.0000  1152.0000 </r>
       <r>     3.6464     0.0000  1152.0000 </r>
       <r>     3.7553     0.0000  1152.0000 </r>
       <r>     3.8641     0.0000  1152.0000 </r>
       <r>     3.9730     0.0000  1152.0000 </r>
       <r>     4.0819     0.0000  1152.0000 </r>
       <r>     4.1907     0.0000  1152.0000 </r>
       <r>     4.2996     0.0000  1152.0000 </r>
       <r>     4.4084     0.0000  1152.0000 </r>
       <r>     4.5173     0.0005  1152.0001 </r>
       <r>     4.6261     3.1417  1152.3421 </r>
       <r>     4.7350    14.9152  1153.9657 </r>
       <r>     4.8439     0.3152  1154.0000 </r>
       <r>     4.9527     0.0000  1154.0000 </r>
       <r>     5.0616     0.0000  1154.0000 </r>
       <r>     5.1704     0.0000  1154.0000 </r>
       <r>     5.2793     0.0000  1154.0000 </r>
       <r>     5.3882     0.0000  1154.0000 </r>
       <r>     5.4970     0.0000  1154.0000 </r>
       <r>     5.6059     0.0000  1154.0000 </r>
       <r>     5.7147     0.0000  1154.0000 </r>
       <r>     5.8236     0.4513  1154.0491 </r>
       <r>     5.9324    13.9510  1155.5678 </r>
       <r>     6.0413     3.9677  1155.9997 </r>
       <r>     6.1502     0.0025  1156.0000 </r>
       <r>     6.2590     0.0000  1156.0000 </r>
       <r>     6.3679     0.0041  1156.0004 </r>
       <r>     6.4767     3.7024  1156.4035 </r>
       <r>     6.5856    11.5288  1157.6585 </r>
       <r>     6.6945    37.8331  1161.7769 </r>
       <r>     6.8033     7.0745  1162.5470 </r>
       <r>     6.9122    21.8027  1164.9204 </r>
       <r>     7.0210    39.0347  1169.1697 </r>
       <r>     7.1299    69.9343  1176.7826 </r>
       <r>     7.2387    66.0844  1183.9764 </r>
       <r>     7.3476   101.8295  1195.0614 </r>
       <r>     7.4565    94.2879  1205.3254 </r>
       <r>     7.5653    46.3964  1210.3760 </r>
       <r>     7.6742    67.6647  1217.7418 </r>
       <r>     7.7830    92.5908  1227.8211 </r>
       <r>     7.8919    87.9034  1237.3901 </r>
       <r>     8.0008    82.4508  1246.3655 </r>
       <r>     8.1096    49.9926  1251.8076 </r>
       <r>     8.2185    76.2101  1260.1037 </r>
       <r>     8.3273    72.9871  1268.0489 </r>
       <r>     8.4362    56.2466  1274.1718 </r>
       <r>     8.5450    84.3636  1283.3555 </r>
       <r>     8.6539    66.7885  1290.6260 </r>
       <r>     8.7628    45.5621  1295.5858 </r>
       <r>     8.8716    23.5029  1298.1442 </r>
       <r>     8.9805    46.7501  1303.2334 </r>
       <r>     9.0893    69.6992  1310.8207 </r>
       <r>     9.1982    71.3017  1318.5825 </r>
       <r>     9.3070    99.7322  1329.4391 </r>
       <r>     9.4159    67.4839  1336.7853 </r>
       <r>     9.5248    42.1832  1341.3773 </r>
       <r>     9.6336    67.5167  1348.7270 </r>
       <r>     9.7425    70.7483  1356.4285 </r>
       <r>     9.8513    39.2255  1360.6985 </r>
       <r>     9.9602    40.2245  1365.0773 </r>
       <r>    10.0691    45.4353  1370.0233 </r>
       <r>    10.1779    85.8496  1379.3687 </r>
       <r>    10.2868    61.6958  1386.0848 </r>
       <r>    10.3956    57.1898  1392.3104 </r>
       <r>    10.5045    72.9064  1400.2468 </r>
       <r>    10.6133    63.9635  1407.2098 </r>
       <r>    10.7222    43.2841  1411.9216 </r>
       <r>    10.8311    73.1850  1419.8884 </r>
       <r>    10.9399    35.3660  1423.7383 </r>
       <r>    11.0488    13.6078  1425.2196 </r>
       <r>    11.1576     1.3881  1425.3707 </r>
       <r>    11.2665    24.2117  1428.0063 </r>
       <r>    11.3754    18.5027  1430.0205 </r>
       <r>    11.4842    34.9957  1433.8301 </r>
       <r>    11.5931    50.0478  1439.2782 </r>
       <r>    11.7019    52.8341  1445.0296 </r>
       <r>    11.8108    46.2536  1450.0647 </r>
       <r>    11.9196    27.4834  1453.0565 </r>
       <r>    12.0285    14.2603  1454.6088 </r>
       <r>    12.1374     7.4813  1455.4232 </r>
       <r>    12.2462     1.6592  1455.6038 </r>
       <r>    12.3551     1.6398  1455.7823 </r>
       <r>    12.4639     1.9420  1455.9937 </r>
       <r>    12.5728     0.0575  1456.0000 </r>
       <r>    12.6816     0.0000  1456.0000 </r>
       <r>    12.7905     0.0000  1456.0000 </r>
       <r>    12.8994     0.0000  1456.0000 </r>
       <r>    13.0082     0.0000  1456.0000 </r>
       <r>    13.1171     0.0000  1456.0000 </r>
       <r>    13.2259     0.0000  1456.0000 </r>
       <r>    13.3348     0.0000  1456.0000 </r>
       <r>    13.4437     0.0000  1456.0000 </r>
       <r>    13.5525     0.0000  1456.0000 </r>
       <r>    13.6614     0.0000  1456.0000 </r>
       <r>    13.7702     0.0000  1456.0000 </r>
       <r>    13.8791     0.0000  1456.0000 </r>
      </set>
      <set comment="spin 2">
       <r>   -18.7783     0.0000     0.0000 </r>
       <r>   -18.6695     0.0000     0.0000 </r>
       <r>   -18.5606     0.0000     0.0000 </r>
       <r>   -18.4518     0.0000     0.0000 </r>
       <r>   -18.3429     0.0000     0.0000 </r>
       <r>   -18.2340     0.0000     0.0000 </r>
       <r>   -18.1252     0.0000     0.0000 </r>
       <r>   -18.0163     0.0000     0.0000 </r>
       <r>   -17.9075     0.0000     0.0000 </r>
       <r>   -17.7986     0.0000     0.0000 </r>
       <r>   -17.6898     0.0000     0.0000 </r>
       <r>   -17.5809     0.0000     0.0000 </r>
       <r>   -17.4720     0.0000     0.0000 </r>
       <r>   -17.3632     0.0000     0.0000 </r>
       <r>   -17.2543     0.1158     0.0126 </r>
       <r>   -17.1455    13.1205     1.4409 </r>
       <r>   -17.0366     5.1340     1.9998 </r>
       <r>   -16.9278     0.0023     2.0000 </r>
       <r>   -16.8189     0.0000     2.0000 </r>
       <r>   -16.7100     0.0000     2.0000 </r>
       <r>   -16.6012     0.0000     2.0000 </r>
       <r>   -16.4923     0.0000     2.0000 </r>
       <r>   -16.3835     0.0000     2.0000 </r>
       <r>   -16.2746     0.0000     2.0000 </r>
       <r>   -16.1657     0.0000     2.0000 </r>
       <r>   -16.0569     0.0000     2.0000 </r>
       <r>   -15.9480     0.0000     2.0000 </r>
       <r>   -15.8392     0.0455     2.0050 </r>
       <r>   -15.7303    11.0209     3.2047 </r>
       <r>   -15.6215    25.0519     5.9318 </r>
       <r>   -15.5126     5.0084     6.4770 </r>
       <r>   -15.4037     9.9930     7.5648 </r>
       <r>   -15.2949    21.5392     9.9095 </r>
       <r>   -15.1860    47.2505    15.0531 </r>
       <r>   -15.0772    42.2288    19.6501 </r>
       <r>   -14.9683    58.6986    26.0399 </r>
       <r>   -14.8594    59.7700    32.5463 </r>
       <r>   -14.7506    61.8084    39.2747 </r>
       <r>   -14.6417    37.1504    43.3188 </r>
       <r>   -14.5329    52.3436    49.0168 </r>
       <r>   -14.4240    71.6900    56.8208 </r>
       <r>   -14.3152    59.2392    63.2695 </r>
       <r>   -14.2063    76.5159    71.5989 </r>
       <r>   -14.0974    57.9115    77.9030 </r>
       <r>   -13.9886    35.3572    81.7519 </r>
       <r>   -13.8797    36.5298    85.7285 </r>
       <r>   -13.7709    68.3144    93.1651 </r>
       <r>   -13.6620   112.2119   105.3802 </r>
       <r>   -13.5531    67.3058   112.7070 </r>
       <r>   -13.4443    58.6389   119.0903 </r>
       <r>   -13.3354    62.9865   125.9469 </r>
       <r>   -13.2266    50.5628   131.4511 </r>
       <r>   -13.1177    41.1178   135.9271 </r>
       <r>   -13.0089    97.5580   146.5471 </r>
       <r>   -12.9000    87.0225   156.0202 </r>
       <r>   -12.7911   150.7131   172.4265 </r>
       <r>   -12.6823    59.2482   178.8762 </r>
       <r>   -12.5734    71.7614   186.6880 </r>
       <r>   -12.4646    82.2333   195.6397 </r>
       <r>   -12.3557    74.6954   203.7709 </r>
       <r>   -12.2469   164.8100   221.7118 </r>
       <r>   -12.1380   201.5060   243.6474 </r>
       <r>   -12.0291   117.0698   256.3914 </r>
       <r>   -11.9203    56.4296   262.5342 </r>
       <r>   -11.8114    63.8061   269.4800 </r>
       <r>   -11.7026    94.6408   279.7824 </r>
       <r>   -11.5937    55.8536   285.8625 </r>
       <r>   -11.4848    13.3992   287.3211 </r>
       <r>   -11.3760     6.1948   287.9955 </r>
       <r>   -11.2671     0.0414   288.0000 </r>
       <r>   -11.1583     0.0000   288.0000 </r>
       <r>   -11.0494     0.0000   288.0000 </r>
       <r>   -10.9406     0.0000   288.0000 </r>
       <r>   -10.8317     0.0000   288.0000 </r>
       <r>   -10.7228     0.0000   288.0000 </r>
       <r>   -10.6140     0.0000   288.0000 </r>
       <r>   -10.5051     0.0000   288.0000 </r>
       <r>   -10.3963     0.0000   288.0000 </r>
       <r>   -10.2874     0.0000   288.0000 </r>
       <r>   -10.1785     0.0000   288.0000 </r>
       <r>   -10.0697     0.0000   288.0000 </r>
       <r>    -9.9608     0.0000   288.0000 </r>
       <r>    -9.8520     0.0000   288.0000 </r>
       <r>    -9.7431     0.0000   288.0000 </r>
       <r>    -9.6343     0.0000   288.0000 </r>
       <r>    -9.5254     0.0000   288.0000 </r>
       <r>    -9.4165     0.0000   288.0000 </r>
       <r>    -9.3077     0.0000   288.0000 </r>
       <r>    -9.1988     0.0000   288.0000 </r>
       <r>    -9.0900     0.0000   288.0000 </r>
       <r>    -8.9811     0.0000   288.0000 </r>
       <r>    -8.8723     0.0000   288.0000 </r>
       <r>    -8.7634     0.0000   288.0000 </r>
       <r>    -8.6545     0.0000   288.0000 </r>
       <r>    -8.5457     0.0000   288.0000 </r>
       <r>    -8.4368     0.0000   288.0000 </r>
       <r>    -8.3280     0.0001   288.0000 </r>
       <r>    -8.2191     1.2769   288.1390 </r>
       <r>    -8.1102    15.9901   289.8797 </r>
       <r>    -8.0014     1.1054   290.0000 </r>
       <r>    -7.8925     0.0000   290.0000 </r>
       <r>    -7.7837     0.0000   290.0000 </r>
       <r>    -7.6748     0.0000   290.0000 </r>
       <r>    -7.5660     0.0000   290.0000 </r>
       <r>    -7.4571     0.0000   290.0000 </r>
       <r>    -7.3482     0.7951   290.0866 </r>
       <r>    -7.2394    22.7032   292.5580 </r>
       <r>    -7.1305    13.2205   293.9971 </r>
       <r>    -7.0217     0.0262   294.0000 </r>
       <r>    -6.9128     0.0017   294.0002 </r>
       <r>    -6.8039     3.8465   294.4189 </r>
       <r>    -6.6951    21.8644   296.7990 </r>
       <r>    -6.5862    22.1663   299.2120 </r>
       <r>    -6.4774    34.3870   302.9553 </r>
       <r>    -6.3685    43.1150   307.6487 </r>
       <r>    -6.2597   125.0335   321.2596 </r>
       <r>    -6.1508   132.7103   335.7062 </r>
       <r>    -6.0419    64.8592   342.7667 </r>
       <r>    -5.9331    41.8431   347.3216 </r>
       <r>    -5.8242    60.0225   353.8555 </r>
       <r>    -5.7154   174.0353   372.8007 </r>
       <r>    -5.6065   176.3289   391.9955 </r>
       <r>    -5.4977    87.9337   401.5678 </r>
       <r>    -5.3888    12.1648   402.8921 </r>
       <r>    -5.2799    14.0439   404.4208 </r>
       <r>    -5.1711   151.3637   420.8980 </r>
       <r>    -5.0622   107.5102   432.6014 </r>
       <r>    -4.9534    42.5687   437.2353 </r>
       <r>    -4.8445    28.2406   440.3095 </r>
       <r>    -4.7356    22.0985   442.7151 </r>
       <r>    -4.6268    13.9864   444.2377 </r>
       <r>    -4.5179    51.7734   449.8736 </r>
       <r>    -4.4091   153.1346   466.5436 </r>
       <r>    -4.3002    84.8207   475.7770 </r>
       <r>    -4.1914    22.9174   478.2717 </r>
       <r>    -4.0825    74.7836   486.4125 </r>
       <r>    -3.9736   105.2493   497.8698 </r>
       <r>    -3.8648    69.6762   505.4546 </r>
       <r>    -3.7559    21.7694   507.8244 </r>
       <r>    -3.6471    28.5612   510.9335 </r>
       <r>    -3.5382   121.6409   524.1751 </r>
       <r>    -3.4293   128.8419   538.2005 </r>
       <r>    -3.3205    78.9764   546.7978 </r>
       <r>    -3.2116    44.6590   551.6593 </r>
       <r>    -3.1028    73.3798   559.6472 </r>
       <r>    -2.9939   121.0895   572.8288 </r>
       <r>    -2.8851   140.0518   588.0746 </r>
       <r>    -2.7762   111.6479   600.2284 </r>
       <r>    -2.6673   134.2304   614.8404 </r>
       <r>    -2.5585    53.8238   620.6996 </r>
       <r>    -2.4496    63.6747   627.6311 </r>
       <r>    -2.3408   152.2096   644.2003 </r>
       <r>    -2.2319   125.0635   657.8145 </r>
       <r>    -2.1231   116.0341   670.4458 </r>
       <r>    -2.0142   141.5930   685.8593 </r>
       <r>    -1.9053   131.9803   700.2264 </r>
       <r>    -1.7965   185.1852   720.3853 </r>
       <r>    -1.6876   191.0767   741.1856 </r>
       <r>    -1.5788   192.9073   762.1851 </r>
       <r>    -1.4699   167.6886   780.4393 </r>
       <r>    -1.3610   101.5794   791.4971 </r>
       <r>    -1.2522    76.9865   799.8777 </r>
       <r>    -1.1433   191.5572   820.7302 </r>
       <r>    -1.0345   129.3251   834.8083 </r>
       <r>    -0.9256    77.7855   843.2759 </r>
       <r>    -0.8168   118.6453   856.1914 </r>
       <r>    -0.7079   106.1460   867.7462 </r>
       <r>    -0.5990   104.5697   879.1295 </r>
       <r>    -0.4902    82.1950   888.0771 </r>
       <r>    -0.3813   169.6521   906.5451 </r>
       <r>    -0.2725   184.4492   926.6239 </r>
       <r>    -0.1636    98.3533   937.3304 </r>
       <r>    -0.0547    46.5534   942.3981 </r>
       <r>     0.0541    77.1860   950.8005 </r>
       <r>     0.1630    54.9677   956.7841 </r>
       <r>     0.2718   127.1321   970.6235 </r>
       <r>     0.3807   126.3943   984.3825 </r>
       <r>     0.4895   112.6295   996.6432 </r>
       <r>     0.5984   102.0250  1007.7494 </r>
       <r>     0.7073    95.4274  1018.1375 </r>
       <r>     0.8161    73.1079  1026.0958 </r>
       <r>     0.9250   154.9778  1042.9664 </r>
       <r>     1.0338    90.4516  1052.8128 </r>
       <r>     1.1427    93.4859  1062.9895 </r>
       <r>     1.2515    80.3460  1071.7358 </r>
       <r>     1.3604    89.9628  1081.5290 </r>
       <r>     1.4693    69.1968  1089.0616 </r>
       <r>     1.5781    57.6526  1095.3376 </r>
       <r>     1.6870    74.9784  1103.4996 </r>
       <r>     1.7958    59.5064  1109.9773 </r>
       <r>     1.9047   116.4812  1122.6573 </r>
       <r>     2.0136    79.9476  1131.3602 </r>
       <r>     2.1224    48.1913  1136.6062 </r>
       <r>     2.2313    44.6480  1141.4665 </r>
       <r>     2.3401    22.0613  1143.8681 </r>
       <r>     2.4490    61.5546  1150.5688 </r>
       <r>     2.5578    12.6100  1151.9415 </r>
       <r>     2.6667     0.5374  1152.0000 </r>
       <r>     2.7756     0.0000  1152.0000 </r>
       <r>     2.8844     0.0000  1152.0000 </r>
       <r>     2.9933     0.0000  1152.0000 </r>
       <r>     3.1021     0.0000  1152.0000 </r>
       <r>     3.2110     0.0000  1152.0000 </r>
       <r>     3.3199     0.0000  1152.0000 </r>
       <r>     3.4287     0.0000  1152.0000 </r>
       <r>     3.5376     0.0000  1152.0000 </r>
       <r>     3.6464     0.0000  1152.0000 </r>
       <r>     3.7553     0.0000  1152.0000 </r>
       <r>     3.8641     0.0000  1152.0000 </r>
       <r>     3.9730     0.0000  1152.0000 </r>
       <r>     4.0819     0.0000  1152.0000 </r>
       <r>     4.1907     0.0000  1152.0000 </r>
       <r>     4.2996     0.0000  1152.0000 </r>
       <r>     4.4084     0.0000  1152.0000 </r>
       <r>     4.5173     0.0000  1152.0000 </r>
       <r>     4.6261     0.0000  1152.0000 </r>
       <r>     4.7350     0.0000  1152.0000 </r>
       <r>     4.8439     0.0000  1152.0000 </r>
       <r>     4.9527     0.0000  1152.0000 </r>
       <r>     5.0616     0.0000  1152.0000 </r>
       <r>     5.1704     0.0000  1152.0000 </r>
       <r>     5.2793     0.0000  1152.0000 </r>
       <r>     5.3882     0.0000  1152.0000 </r>
       <r>     5.4970     1.2712  1152.1384 </r>
       <r>     5.6059    16.0591  1153.8865 </r>
       <r>     5.7147     1.0422  1154.0000 </r>
       <r>     5.8236     0.0000  1154.0000 </r>
       <r>     5.9324     0.0000  1154.0000 </r>
       <r>     6.0413     0.0000  1154.0000 </r>
       <r>     6.1502     0.0000  1154.0000 </r>
       <r>     6.2590     0.0000  1154.0000 </r>
       <r>     6.3679     0.0000  1154.0000 </r>
       <r>     6.4767     0.8543  1154.0930 </r>
       <r>     6.5856     8.2307  1154.9890 </r>
       <r>     6.6945    30.8284  1158.3449 </r>
       <r>     6.8033    34.5984  1162.1112 </r>
       <r>     6.9122    23.7958  1164.7016 </r>
       <r>     7.0210    36.8140  1168.7091 </r>
       <r>     7.1299    71.1654  1176.4560 </r>
       <r>     7.2387    63.8921  1183.4112 </r>
       <r>     7.3476   102.7687  1194.5984 </r>
       <r>     7.4565    92.0378  1204.6174 </r>
       <r>     7.5653    50.7535  1210.1424 </r>
       <r>     7.6742    65.6556  1217.2895 </r>
       <r>     7.7830    92.9070  1227.4032 </r>
       <r>     7.8919    87.8886  1236.9706 </r>
       <r>     8.0008    82.0548  1245.9029 </r>
       <r>     8.1096    49.1813  1251.2567 </r>
       <r>     8.2185    73.2660  1259.2323 </r>
       <r>     8.3273    77.7055  1267.6912 </r>
       <r>     8.4362    54.7931  1273.6558 </r>
       <r>     8.5450    85.0239  1282.9114 </r>
       <r>     8.6539    67.0099  1290.2059 </r>
       <r>     8.7628    45.0995  1295.1154 </r>
       <r>     8.8716    19.5726  1297.2460 </r>
       <r>     8.9805    45.5878  1302.2086 </r>
       <r>     9.0893    71.1884  1309.9581 </r>
       <r>     9.1982    72.1260  1317.8096 </r>
       <r>     9.3070    90.9894  1327.7145 </r>
       <r>     9.4159    70.5648  1335.3960 </r>
       <r>     9.5248    47.2408  1340.5386 </r>
       <r>     9.6336    59.9089  1347.0601 </r>
       <r>     9.7425    77.6914  1355.5175 </r>
       <r>     9.8513    43.5010  1360.2529 </r>
       <r>     9.9602    40.1458  1364.6231 </r>
       <r>    10.0691    43.6341  1369.3730 </r>
       <r>    10.1779    86.6678  1378.8075 </r>
       <r>    10.2868    61.8968  1385.5455 </r>
       <r>    10.3956    59.8838  1392.0643 </r>
       <r>    10.5045    71.8351  1399.8841 </r>
       <r>    10.6133    65.3644  1406.9996 </r>
       <r>    10.7222    43.5743  1411.7430 </r>
       <r>    10.8311    72.5600  1419.6417 </r>
       <r>    10.9399    35.3250  1423.4872 </r>
       <r>    11.0488    15.5504  1425.1799 </r>
       <r>    11.1576     1.6846  1425.3633 </r>
       <r>    11.2665    22.6228  1427.8260 </r>
       <r>    11.3754    18.2090  1429.8082 </r>
       <r>    11.4842    35.8172  1433.7072 </r>
       <r>    11.5931    53.4850  1439.5295 </r>
       <r>    11.7019    48.3954  1444.7977 </r>
       <r>    11.8108    42.8115  1449.4581 </r>
       <r>    11.9196    25.8749  1452.2748 </r>
       <r>    12.0285    20.7164  1454.5299 </r>
       <r>    12.1374     6.5367  1455.2415 </r>
       <r>    12.2462     0.8973  1455.3392 </r>
       <r>    12.3551     4.0721  1455.7824 </r>
       <r>    12.4639     1.9563  1455.9954 </r>
       <r>    12.5728     0.0423  1456.0000 </r>
       <r>    12.6816     0.0000  1456.0000 </r>
       <r>    12.7905     0.0000  1456.0000 </r>
       <r>    12.8994     0.0000  1456.0000 </r>
       <r>    13.0082     0.0000  1456.0000 </r>
       <r>    13.1171     0.0000  1456.0000 </r>
       <r>    13.2259     0.0000  1456.0000 </r>
       <r>    13.3348     0.0000  1456.0000 </r>
       <r>    13.4437     0.0000  1456.0000 </r>
       <r>    13.5525     0.0000  1456.0000 </r>
       <r>    13.6614     0.0000  1456.0000 </r>
       <r>    13.7702     0.0000  1456.0000 </r>
       <r>    13.8791     0.0000  1456.0000 </r>
      </set>
     </set>
    </array>
   </total>
  </dos>
 </calculation>
 <structure name="finalpos" >
  <crystal>
   <varray name="basis" >
    <v>      14.93631415       0.00000000       0.00000000 </v>
    <v>      -7.46815707      12.93522749      -0.00000000 </v>
    <v>       0.00000000       0.00000000      13.34127628 </v>
   </varray>
   <i name="volume">   2577.59623255 </i>
   <varray name="rec_basis" >
    <v>       0.06695092       0.03865413      -0.00000000 </v>
    <v>       0.00000000       0.07730827      -0.00000000 </v>
    <v>       0.00000000       0.00000000       0.07495535 </v>
   </varray>
  </crystal>
  <varray name="positions" >
   <v>       0.44444444       0.38888889       0.37500000 </v>
   <v>       0.11110578       0.05553988       0.12514209 </v>
   <v>       0.61111893       0.55556454       0.12533815 </v>
   <v>       0.44443410       0.05553988       0.12514209 </v>
   <v>       0.94445577       0.55556472       0.12511237 </v>
   <v>       0.77777778       0.05555556       0.12508750 </v>
   <v>       0.11111111       0.72222222       0.62490204 </v>
   <v>       0.44443410       0.72222755       0.62485791 </v>
   <v>       0.27776879       0.22221440       0.62466185 </v>
   <v>       0.77779345       0.72222755       0.62485791 </v>
   <v>       0.61111409       0.22221925       0.62484996 </v>
   <v>       0.94444599       0.22222938       0.62490241 </v>
   <v>       0.27776861       0.72222439       0.12511237 </v>
   <v>       0.11110516       0.22221925       0.12515004 </v>
   <v>       0.44444561       0.22221440       0.12533815 </v>
   <v>       0.61111409       0.72222817       0.12515004 </v>
   <v>       0.94445577       0.72222439       0.12511237 </v>
   <v>       0.77778339       0.22222938       0.12509759 </v>
   <v>       0.11110895       0.88887756       0.62488763 </v>
   <v>       0.44443273       0.88888303       0.62489877 </v>
   <v>       0.27776879       0.38888773       0.62466185 </v>
   <v>       0.61111893       0.38888773       0.62466185 </v>
   <v>       0.77778339       0.88888734       0.62490241 </v>
   <v>       0.94445030       0.38890061       0.62489877 </v>
   <v>       0.11110578       0.38889924       0.12514209 </v>
   <v>       0.27776861       0.88887756       0.12511237 </v>
   <v>       0.61110395       0.88888734       0.12509759 </v>
   <v>       0.44444444       0.38888889       0.12572567 </v>
   <v>       0.94445030       0.88888303       0.12510123 </v>
   <v>       0.77779345       0.38889924       0.12514209 </v>
   <v>       0.27776995       0.55556338       0.62481384 </v>
   <v>       0.11110578       0.05553988       0.62485791 </v>
   <v>       0.61111893       0.55556454       0.62466185 </v>
   <v>       0.44443410       0.05553988       0.62485791 </v>
   <v>       0.94445577       0.55556472       0.62488763 </v>
   <v>       0.11110895       0.55556472       0.12511237 </v>
   <v>       0.77777778       0.05555556       0.62491250 </v>
   <v>       0.27776995       0.05553990       0.12518616 </v>
   <v>       0.44444561       0.55556454       0.12533815 </v>
   <v>       0.77779343       0.55556338       0.12518616 </v>
   <v>       0.61110395       0.05554994       0.12509759 </v>
   <v>       0.44444561       0.55556454       0.62466185 </v>
   <v>       0.94444599       0.05554994       0.12509759 </v>
   <v>       0.27776861       0.72222439       0.62488763 </v>
   <v>       0.11110516       0.22221925       0.62484996 </v>
   <v>       0.44444561       0.22221440       0.62466185 </v>
   <v>       0.61111409       0.72222817       0.62484996 </v>
   <v>       0.94445577       0.72222439       0.62488763 </v>
   <v>       0.77778339       0.22222938       0.62490241 </v>
   <v>       0.11111111       0.72222222       0.12509796 </v>
   <v>       0.44443410       0.72222755       0.12514209 </v>
   <v>       0.27776879       0.22221440       0.12533815 </v>
   <v>       0.77779345       0.72222755       0.12514209 </v>
   <v>       0.61111409       0.22221925       0.12515004 </v>
   <v>       0.94444599       0.22222938       0.12509759 </v>
   <v>       0.11110578       0.38889924       0.62485791 </v>
   <v>       0.27776861       0.88887756       0.62488763 </v>
   <v>       0.61110395       0.88888734       0.62490241 </v>
   <v>       0.44444444       0.38888889       0.62427433 </v>
   <v>       0.94445030       0.88888303       0.62489877 </v>
   <v>       0.11110895       0.88887756       0.12511237 </v>
   <v>       0.77779345       0.38889924       0.62485791 </v>
   <v>       0.44443273       0.88888303       0.12510123 </v>
   <v>       0.27776879       0.38888773       0.12533815 </v>
   <v>       0.27776995       0.55556338       0.12518616 </v>
   <v>       0.61111893       0.38888773       0.12533815 </v>
   <v>       0.77778339       0.88888734       0.12509759 </v>
   <v>       0.94445030       0.38890061       0.12510123 </v>
   <v>       0.11110895       0.55556472       0.62488763 </v>
   <v>       0.27776995       0.05553990       0.62481384 </v>
   <v>       0.77779343       0.55556338       0.62481384 </v>
   <v>       0.61110395       0.05554994       0.62490241 </v>
   <v>       0.94444599       0.05554994       0.62490241 </v>
   <v>       0.05492459       0.11067225       0.37500000 </v>
   <v>       0.55597948       0.61195895       0.37500000 </v>
   <v>       0.38821178       0.10798614       0.37500000 </v>
   <v>       0.88997050       0.61165191       0.37500000 </v>
   <v>       0.72233166       0.11100168       0.37500000 </v>
   <v>       0.05555347       0.77777986       0.87500000 </v>
   <v>       0.38889499       0.77778040       0.87500000 </v>
   <v>       0.22222211       0.27777772       0.87500000 </v>
   <v>       0.72222208       0.77778036       0.87500000 </v>
   <v>       0.55555561       0.27777772       0.87500000 </v>
   <v>       0.88888780       0.27777560       0.87500000 </v>
   <v>       0.22203010       0.77768172       0.37500000 </v>
   <v>       0.05492459       0.27758567       0.37500000 </v>
   <v>       0.38321436       0.26642872       0.37500000 </v>
   <v>       0.55574766       0.77840874       0.37500000 </v>
   <v>       0.88973042       0.77847773       0.37500000 </v>
   <v>       0.72266108       0.27758567       0.37500000 </v>
   <v>       0.05555294       0.94444793       0.87500000 </v>
   <v>       0.38889499       0.94444793       0.87500000 </v>
   <v>       0.22222295       0.44443974       0.87500000 </v>
   <v>       0.55555250       0.44444291       0.87500000 </v>
   <v>       0.72222259       0.94444517       0.87500000 </v>
   <v>       0.88888540       0.44443834       0.87500000 </v>
   <v>       0.05485561       0.44458602       0.37500000 </v>
   <v>       0.22168142       0.94336284       0.37500000 </v>
   <v>       0.55571596       0.94452465       0.37500000 </v>
   <v>       0.38321436       0.45011897       0.37500000 </v>
   <v>       0.88880868       0.94452465       0.37500000 </v>
   <v>       0.72534720       0.44512155       0.37500000 </v>
   <v>       0.22222502       0.61110832       0.87500000 </v>
   <v>       0.05555297       0.11111126       0.87500000 </v>
   <v>       0.55555561       0.61111123       0.87500000 </v>
   <v>       0.38889360       0.11111654       0.87500000 </v>
   <v>       0.88888330       0.61110832       0.87500000 </v>
   <v>       0.05565162       0.61130323       0.37500000 </v>
   <v>       0.72222259       0.11111075       0.87500000 </v>
   <v>       0.21977436       0.10798614       0.37500000 </v>
   <v>       0.38821178       0.61355898       0.37500000 </v>
   <v>       0.72534720       0.61355898       0.37500000 </v>
   <v>       0.55574766       0.11067225       0.37500000 </v>
   <v>       0.38889360       0.61111039       0.87500000 </v>
   <v>       0.88867002       0.11100168       0.37500000 </v>
   <v>       0.22222639       0.77777986       0.87500000 </v>
   <v>       0.05555297       0.27777505       0.87500000 </v>
   <v>       0.38889042       0.27778084       0.87500000 </v>
   <v>       0.55555829       0.77778036       0.87500000 </v>
   <v>       0.88888540       0.77778040       0.87500000 </v>
   <v>       0.72222208       0.27777505       0.87500000 </v>
   <v>       0.05565162       0.77768172       0.37500000 </v>
   <v>       0.38874731       0.77847773       0.37500000 </v>
   <v>       0.22137438       0.27735386       0.37500000 </v>
   <v>       0.72266108       0.77840874       0.37500000 </v>
   <v>       0.55597948       0.27735386       0.37500000 </v>
   <v>       0.88880868       0.27761737       0.37500000 </v>
   <v>       0.05555294       0.44443834       0.87500000 </v>
   <v>       0.22222502       0.94445003       0.87500000 </v>
   <v>       0.55555773       0.94444553       0.87500000 </v>
   <v>       0.38889042       0.44444291       0.87500000 </v>
   <v>       0.88888780       0.94444553       0.87500000 </v>
   <v>       0.05485561       0.94360291       0.37500000 </v>
   <v>       0.72221679       0.44443974       0.87500000 </v>
   <v>       0.38874731       0.94360291       0.37500000 </v>
   <v>       0.21977436       0.44512155       0.37500000 </v>
   <v>       0.22168142       0.61165191       0.37500000 </v>
   <v>       0.56690462       0.45011897       0.37500000 </v>
   <v>       0.72233166       0.94466331       0.37500000 </v>
   <v>       0.88973042       0.44458602       0.37500000 </v>
   <v>       0.05555347       0.61110694       0.87500000 </v>
   <v>       0.22222295       0.11111654       0.87500000 </v>
   <v>       0.72221679       0.61111039       0.87500000 </v>
   <v>       0.55555829       0.11111126       0.87500000 </v>
   <v>       0.88888816       0.11111075       0.87500000 </v>
   <v>       0.10888702       0.05363429       0.37500000 </v>
   <v>       0.61662821       0.56151023       0.37500000 </v>
   <v>       0.44474727       0.05363429       0.37500000 </v>
   <v>       0.94505350       0.55569452       0.37500000 </v>
   <v>       0.77777778       0.05555556       0.37500000 </v>
   <v>       0.11111111       0.72222222       0.87500000 </v>
   <v>       0.44445789       0.72225917       0.87500000 </v>
   <v>       0.27773656       0.22218886       0.87500000 </v>
   <v>       0.77780129       0.72225917       0.87500000 </v>
   <v>       0.61113701       0.22219632       0.87500000 </v>
   <v>       0.94441891       0.22220602       0.87500000 </v>
   <v>       0.27763881       0.72269232       0.37500000 </v>
   <v>       0.10939752       0.22136543       0.37500000 </v>
   <v>       0.44488202       0.21670513       0.37500000 </v>
   <v>       0.61196791       0.72393582       0.37500000 </v>
   <v>       0.94505350       0.72269232       0.37500000 </v>
   <v>       0.77798832       0.22181380       0.37500000 </v>
   <v>       0.11109976       0.88954876       0.87500000 </v>
   <v>       0.44445802       0.88889568       0.87500000 </v>
   <v>       0.27773656       0.38888103       0.87500000 </v>
   <v>       0.61114447       0.38888103       0.87500000 </v>
   <v>       0.77778711       0.88891442       0.87500000 </v>
   <v>       0.94443766       0.38887531       0.87500000 </v>
   <v>       0.10888702       0.38858606       0.37500000 </v>
   <v>       0.27763881       0.88827983       0.37500000 </v>
   <v>       0.61151953       0.88950785       0.37500000 </v>
   <v>       0.94428960       0.88904373       0.37500000 </v>
   <v>       0.77969904       0.38858606       0.37500000 </v>
   <v>       0.27776270       0.55557063       0.87500000 </v>
   <v>       0.11107416       0.05553205       0.87500000 </v>
   <v>       0.61114447       0.55559678       0.87500000 </v>
   <v>       0.44445789       0.05553205       0.87500000 </v>
   <v>       0.94445408       0.55555385       0.87500000 </v>
   <v>       0.11064101       0.55569452       0.37500000 </v>
   <v>       0.77777778       0.05555556       0.87500000 </v>
   <v>       0.27665444       0.05330889       0.37500000 </v>
   <v>       0.44488202       0.56151023       0.37500000 </v>
   <v>       0.78002445       0.55667889       0.37500000 </v>
   <v>       0.61151953       0.05534502       0.37500000 </v>
   <v>       0.44445231       0.55559678       0.87500000 </v>
   <v>       0.94382548       0.05534502       0.37500000 </v>
   <v>       0.27777949       0.72223357       0.87500000 </v>
   <v>       0.11105932       0.22219632       0.87500000 </v>
   <v>       0.44445231       0.22218886       0.87500000 </v>
   <v>       0.61113701       0.72227402       0.87500000 </v>
   <v>       0.94445408       0.72223357       0.87500000 </v>
   <v>       0.77778711       0.22220602       0.87500000 </v>
   <v>       0.11111111       0.72222222       0.37500000 </v>
   <v>       0.44474727       0.72444631       0.37500000 </v>
   <v>       0.27182310       0.21670513       0.37500000 </v>
   <v>       0.77969904       0.72444631       0.37500000 </v>
   <v>       0.61196791       0.22136543       0.37500000 </v>
   <v>       0.94382548       0.22181380       0.37500000 </v>
   <v>       0.11107416       0.38887545       0.87500000 </v>
   <v>       0.27777949       0.88887925       0.87500000 </v>
   <v>       0.61112731       0.88891442       0.87500000 </v>
   <v>       0.44444444       0.38888889       0.87500000 </v>
   <v>       0.94443766       0.88889568       0.87500000 </v>
   <v>       0.11064101       0.88827983       0.37500000 </v>
   <v>       0.77780129       0.38887545       0.87500000 </v>
   <v>       0.44475413       0.88904373       0.37500000 </v>
   <v>       0.27182310       0.38845131       0.37500000 </v>
   <v>       0.27665444       0.55667889       0.37500000 </v>
   <v>       0.61662821       0.38845131       0.37500000 </v>
   <v>       0.77798832       0.88950785       0.37500000 </v>
   <v>       0.94428960       0.38857921       0.37500000 </v>
   <v>       0.11109976       0.55555385       0.87500000 </v>
   <v>       0.27776270       0.05552540       0.87500000 </v>
   <v>       0.77780793       0.55557063       0.87500000 </v>
   <v>       0.61112731       0.05554622       0.87500000 </v>
   <v>       0.94441891       0.05554622       0.87500000 </v>
   <v>       0.05546928       0.11103632       0.12487403 </v>
   <v>       0.55563492       0.61126984       0.12476730 </v>
   <v>       0.38882801       0.11092619       0.12483104 </v>
   <v>       0.88900701       0.61117017       0.12488859 </v>
   <v>       0.72223458       0.11109875       0.12491481 </v>
   <v>       0.05557215       0.77776118       0.62509033 </v>
   <v>       0.38885004       0.77781495       0.62510653 </v>
   <v>       0.22206349       0.27769841       0.62523270 </v>
   <v>       0.72229702       0.77786405       0.62512597 </v>
   <v>       0.55563492       0.27769841       0.62523270 </v>
   <v>       0.88889259       0.27778519       0.62508998 </v>
   <v>       0.22218903       0.77776118       0.12490967 </v>
   <v>       0.05546928       0.27776630       0.12487403 </v>
   <v>       0.38878395       0.27756790       0.12459556 </v>
   <v>       0.55556704       0.77786405       0.12487403 </v>
   <v>       0.88896491       0.77781495       0.12489347 </v>
   <v>       0.72229702       0.27776630       0.12487403 </v>
   <v>       0.05551838       0.94436842       0.62510653 </v>
   <v>       0.38885004       0.94436842       0.62510653 </v>
   <v>       0.22209818       0.44450532       0.62516896 </v>
   <v>       0.55576543       0.44454938       0.62540444 </v>
   <v>       0.72223458       0.94446917       0.62508519 </v>
   <v>       0.88896491       0.44448330       0.62510653 </v>
   <v>       0.05551838       0.44448330       0.12489347 </v>
   <v>       0.22216316       0.94432633       0.12488859 </v>
   <v>       0.55554814       0.94444074       0.12491002 </v>
   <v>       0.38878395       0.44454938       0.12459556 </v>
   <v>       0.88889259       0.94444074       0.12491002 </v>
   <v>       0.72240714       0.44450532       0.12483104 </v>
   <v>       0.22216316       0.61117017       0.62511141 </v>
   <v>       0.05546928       0.11103632       0.62512597 </v>
   <v>       0.55563492       0.61126984       0.62523270 </v>
   <v>       0.38882801       0.11092619       0.62516896 </v>
   <v>       0.88900701       0.61117017       0.62511141 </v>
   <v>       0.05557215       0.61114430       0.12490967 </v>
   <v>       0.72223458       0.11109875       0.62508519 </v>
   <v>       0.22209818       0.11092619       0.12483104 </v>
   <v>       0.38882801       0.61123515       0.12483104 </v>
   <v>       0.72240714       0.61123515       0.12483104 </v>
   <v>       0.55556704       0.11103632       0.12487403 </v>
   <v>       0.38882801       0.61123515       0.62516896 </v>
   <v>       0.88886417       0.11109875       0.12491481 </v>
   <v>       0.22218903       0.77776118       0.62509033 </v>
   <v>       0.05546928       0.27776630       0.62512597 </v>
   <v>       0.38878395       0.27756790       0.62540444 </v>
   <v>       0.55556704       0.77786405       0.62512597 </v>
   <v>       0.88896491       0.77781495       0.62510653 </v>
   <v>       0.72229702       0.27776630       0.62512597 </v>
   <v>       0.05557215       0.77776118       0.12490967 </v>
   <v>       0.38885004       0.77781495       0.12489347 </v>
   <v>       0.22206349       0.27769841       0.12476730 </v>
   <v>       0.72229702       0.77786405       0.12487403 </v>
   <v>       0.55563492       0.27769841       0.12476730 </v>
   <v>       0.88889259       0.27778519       0.12491002 </v>
   <v>       0.05551838       0.44448330       0.62510653 </v>
   <v>       0.22216316       0.94432633       0.62511141 </v>
   <v>       0.55554814       0.94444074       0.62508998 </v>
   <v>       0.38878395       0.44454938       0.62540444 </v>
   <v>       0.88889259       0.94444074       0.62508998 </v>
   <v>       0.05551838       0.94436842       0.12489347 </v>
   <v>       0.72240714       0.44450532       0.62516896 </v>
   <v>       0.38885004       0.94436842       0.12489347 </v>
   <v>       0.22209818       0.44450532       0.12483104 </v>
   <v>       0.22216316       0.61117017       0.12488859 </v>
   <v>       0.55576543       0.44454938       0.12459556 </v>
   <v>       0.72223458       0.94446917       0.12491481 </v>
   <v>       0.88896491       0.44448330       0.12489347 </v>
   <v>       0.05557215       0.61114430       0.62509033 </v>
   <v>       0.22209818       0.11092619       0.62516896 </v>
   <v>       0.72240714       0.61123515       0.62516896 </v>
   <v>       0.55556704       0.11103632       0.62512597 </v>
   <v>       0.88886417       0.11109875       0.62508519 </v>
  </varray>
 </structure>
</modeling>
