<?xml version="1.0" encoding="ISO-8859-1"?>
<modeling>
 <generator>
  <i name="program" type="string">vasp </i>
  <i name="version" type="string">6.4.2  </i>
  <i name="subversion" type="string">20Jul23 (build Nov 06 2023 14:01:30) complex                          parallel </i>
  <i name="platform" type="string">LinuxIFC </i>
  <i name="date" type="string">2024 11 16 </i>
  <i name="time" type="string">05:38:39 </i>
 </generator>
 <incar>
  <i type="int" name="IALGO">    38</i>
  <i type="string" name="ALGO">Fast</i>
  <i type="logical" name="ADDGRID"> T  </i>
  <i type="int" name="ISPIN">     2</i>
  <i type="int" name="NELM">   100</i>
  <i type="int" name="NELMIN">     4</i>
  <i type="int" name="IBRION">    -1</i>
  <i name="EDIFF">      0.00000100</i>
  <i name="ENCUT">    500.00000000</i>
  <i name="NUPDOWN">      1.00000000</i>
  <i name="NELECT">   1153.00000000</i>
  <i type="logical" name="LREAL"> F  </i>
  <i type="int" name="ISMEAR">     0</i>
  <i name="SIGMA">      0.05000000</i>
  <i type="logical" name="LWAVE"> F  </i>
  <i type="logical" name="LCHARG"> F  </i>
  <i type="string" name="GGA">PE</i>
  <i type="int" name="IVDW">    11</i>
 </incar>
 <primitive_cell>
  <structure name="primitive_cell" >
   <crystal>
    <varray name="basis" >
     <v>      14.93631415       0.00000000       0.00000000 </v>
     <v>      -7.46815707      12.93522749      -0.00000000 </v>
     <v>       0.00000000       0.00000000      13.34127628 </v>
    </varray>
    <i name="volume">   2577.59623255 </i>
    <varray name="rec_basis" >
     <v>       0.06695092       0.03865413      -0.00000000 </v>
     <v>       0.00000000       0.07730827      -0.00000000 </v>
     <v>       0.00000000       0.00000000       0.07495535 </v>
    </varray>
   </crystal>
   <varray name="positions" >
    <v>       0.44444444       0.38888889       0.37500000 </v>
    <v>       0.11110578       0.05553988       0.12514209 </v>
    <v>       0.61111893       0.55556454       0.12533815 </v>
    <v>       0.44443410       0.05553988       0.12514209 </v>
    <v>       0.94445577       0.55556472       0.12511237 </v>
    <v>       0.77777778       0.05555556       0.12508750 </v>
    <v>       0.11111111       0.72222222       0.62490204 </v>
    <v>       0.44443410       0.72222755       0.62485791 </v>
    <v>       0.27776879       0.22221440       0.62466185 </v>
    <v>       0.77779345       0.72222755       0.62485791 </v>
    <v>       0.61111409       0.22221925       0.62484996 </v>
    <v>       0.94444599       0.22222938       0.62490241 </v>
    <v>       0.27776861       0.72222439       0.12511237 </v>
    <v>       0.11110516       0.22221925       0.12515004 </v>
    <v>       0.44444561       0.22221440       0.12533815 </v>
    <v>       0.61111409       0.72222817       0.12515004 </v>
    <v>       0.94445577       0.72222439       0.12511237 </v>
    <v>       0.77778339       0.22222938       0.12509759 </v>
    <v>       0.11110895       0.88887756       0.62488763 </v>
    <v>       0.44443273       0.88888303       0.62489877 </v>
    <v>       0.27776879       0.38888773       0.62466185 </v>
    <v>       0.61111893       0.38888773       0.62466185 </v>
    <v>       0.77778339       0.88888734       0.62490241 </v>
    <v>       0.94445030       0.38890061       0.62489877 </v>
    <v>       0.11110578       0.38889924       0.12514209 </v>
    <v>       0.27776861       0.88887756       0.12511237 </v>
    <v>       0.61110395       0.88888734       0.12509759 </v>
    <v>       0.44444444       0.38888889       0.12572567 </v>
    <v>       0.94445030       0.88888303       0.12510123 </v>
    <v>       0.77779345       0.38889924       0.12514209 </v>
    <v>       0.27776995       0.55556338       0.62481384 </v>
    <v>       0.11110578       0.05553988       0.62485791 </v>
    <v>       0.61111893       0.55556454       0.62466185 </v>
    <v>       0.44443410       0.05553988       0.62485791 </v>
    <v>       0.94445577       0.55556472       0.62488763 </v>
    <v>       0.11110895       0.55556472       0.12511237 </v>
    <v>       0.77777778       0.05555556       0.62491250 </v>
    <v>       0.27776995       0.05553990       0.12518616 </v>
    <v>       0.44444561       0.55556454       0.12533815 </v>
    <v>       0.77779343       0.55556338       0.12518616 </v>
    <v>       0.61110395       0.05554994       0.12509759 </v>
    <v>       0.44444561       0.55556454       0.62466185 </v>
    <v>       0.94444599       0.05554994       0.12509759 </v>
    <v>       0.27776861       0.72222439       0.62488763 </v>
    <v>       0.11110516       0.22221925       0.62484996 </v>
    <v>       0.44444561       0.22221440       0.62466185 </v>
    <v>       0.61111409       0.72222817       0.62484996 </v>
    <v>       0.94445577       0.72222439       0.62488763 </v>
    <v>       0.77778339       0.22222938       0.62490241 </v>
    <v>       0.11111111       0.72222222       0.12509796 </v>
    <v>       0.44443410       0.72222755       0.12514209 </v>
    <v>       0.27776879       0.22221440       0.12533815 </v>
    <v>       0.77779345       0.72222755       0.12514209 </v>
    <v>       0.61111409       0.22221925       0.12515004 </v>
    <v>       0.94444599       0.22222938       0.12509759 </v>
    <v>       0.11110578       0.38889924       0.62485791 </v>
    <v>       0.27776861       0.88887756       0.62488763 </v>
    <v>       0.61110395       0.88888734       0.62490241 </v>
    <v>       0.44444444       0.38888889       0.62427433 </v>
    <v>       0.94445030       0.88888303       0.62489877 </v>
    <v>       0.11110895       0.88887756       0.12511237 </v>
    <v>       0.77779345       0.38889924       0.62485791 </v>
    <v>       0.44443273       0.88888303       0.12510123 </v>
    <v>       0.27776879       0.38888773       0.12533815 </v>
    <v>       0.27776995       0.55556338       0.12518616 </v>
    <v>       0.61111893       0.38888773       0.12533815 </v>
    <v>       0.77778339       0.88888734       0.12509759 </v>
    <v>       0.94445030       0.38890061       0.12510123 </v>
    <v>       0.11110895       0.55556472       0.62488763 </v>
    <v>       0.27776995       0.05553990       0.62481384 </v>
    <v>       0.77779343       0.55556338       0.62481384 </v>
    <v>       0.61110395       0.05554994       0.62490241 </v>
    <v>       0.94444599       0.05554994       0.62490241 </v>
    <v>       0.05492459       0.11067225       0.37500000 </v>
    <v>       0.55597948       0.61195895       0.37500000 </v>
    <v>       0.38821178       0.10798614       0.37500000 </v>
    <v>       0.88997050       0.61165191       0.37500000 </v>
    <v>       0.72233166       0.11100168       0.37500000 </v>
    <v>       0.05555347       0.77777986       0.87500000 </v>
    <v>       0.38889499       0.77778040       0.87500000 </v>
    <v>       0.22222211       0.27777772       0.87500000 </v>
    <v>       0.72222208       0.77778036       0.87500000 </v>
    <v>       0.55555561       0.27777772       0.87500000 </v>
    <v>       0.88888780       0.27777560       0.87500000 </v>
    <v>       0.22203010       0.77768172       0.37500000 </v>
    <v>       0.05492459       0.27758567       0.37500000 </v>
    <v>       0.38321436       0.26642872       0.37500000 </v>
    <v>       0.55574766       0.77840874       0.37500000 </v>
    <v>       0.88973042       0.77847773       0.37500000 </v>
    <v>       0.72266108       0.27758567       0.37500000 </v>
    <v>       0.05555294       0.94444793       0.87500000 </v>
    <v>       0.38889499       0.94444793       0.87500000 </v>
    <v>       0.22222295       0.44443974       0.87500000 </v>
    <v>       0.55555250       0.44444291       0.87500000 </v>
    <v>       0.72222259       0.94444517       0.87500000 </v>
    <v>       0.88888540       0.44443834       0.87500000 </v>
    <v>       0.05485561       0.44458602       0.37500000 </v>
    <v>       0.22168142       0.94336284       0.37500000 </v>
    <v>       0.55571596       0.94452465       0.37500000 </v>
    <v>       0.38321436       0.45011897       0.37500000 </v>
    <v>       0.88880868       0.94452465       0.37500000 </v>
    <v>       0.72534720       0.44512155       0.37500000 </v>
    <v>       0.22222502       0.61110832       0.87500000 </v>
    <v>       0.05555297       0.11111126       0.87500000 </v>
    <v>       0.55555561       0.61111123       0.87500000 </v>
    <v>       0.38889360       0.11111654       0.87500000 </v>
    <v>       0.88888330       0.61110832       0.87500000 </v>
    <v>       0.05565162       0.61130323       0.37500000 </v>
    <v>       0.72222259       0.11111075       0.87500000 </v>
    <v>       0.21977436       0.10798614       0.37500000 </v>
    <v>       0.38821178       0.61355898       0.37500000 </v>
    <v>       0.72534720       0.61355898       0.37500000 </v>
    <v>       0.55574766       0.11067225       0.37500000 </v>
    <v>       0.38889360       0.61111039       0.87500000 </v>
    <v>       0.88867002       0.11100168       0.37500000 </v>
    <v>       0.22222639       0.77777986       0.87500000 </v>
    <v>       0.05555297       0.27777505       0.87500000 </v>
    <v>       0.38889042       0.27778084       0.87500000 </v>
    <v>       0.55555829       0.77778036       0.87500000 </v>
    <v>       0.88888540       0.77778040       0.87500000 </v>
    <v>       0.72222208       0.27777505       0.87500000 </v>
    <v>       0.05565162       0.77768172       0.37500000 </v>
    <v>       0.38874731       0.77847773       0.37500000 </v>
    <v>       0.22137438       0.27735386       0.37500000 </v>
    <v>       0.72266108       0.77840874       0.37500000 </v>
    <v>       0.55597948       0.27735386       0.37500000 </v>
    <v>       0.88880868       0.27761737       0.37500000 </v>
    <v>       0.05555294       0.44443834       0.87500000 </v>
    <v>       0.22222502       0.94445003       0.87500000 </v>
    <v>       0.55555773       0.94444553       0.87500000 </v>
    <v>       0.38889042       0.44444291       0.87500000 </v>
    <v>       0.88888780       0.94444553       0.87500000 </v>
    <v>       0.05485561       0.94360291       0.37500000 </v>
    <v>       0.72221679       0.44443974       0.87500000 </v>
    <v>       0.38874731       0.94360291       0.37500000 </v>
    <v>       0.21977436       0.44512155       0.37500000 </v>
    <v>       0.22168142       0.61165191       0.37500000 </v>
    <v>       0.56690462       0.45011897       0.37500000 </v>
    <v>       0.72233166       0.94466331       0.37500000 </v>
    <v>       0.88973042       0.44458602       0.37500000 </v>
    <v>       0.05555347       0.61110694       0.87500000 </v>
    <v>       0.22222295       0.11111654       0.87500000 </v>
    <v>       0.72221679       0.61111039       0.87500000 </v>
    <v>       0.55555829       0.11111126       0.87500000 </v>
    <v>       0.88888816       0.11111075       0.87500000 </v>
    <v>       0.10888702       0.05363429       0.37500000 </v>
    <v>       0.61662821       0.56151023       0.37500000 </v>
    <v>       0.44474727       0.05363429       0.37500000 </v>
    <v>       0.94505350       0.55569452       0.37500000 </v>
    <v>       0.77777778       0.05555556       0.37500000 </v>
    <v>       0.11111111       0.72222222       0.87500000 </v>
    <v>       0.44445789       0.72225917       0.87500000 </v>
    <v>       0.27773656       0.22218886       0.87500000 </v>
    <v>       0.77780129       0.72225917       0.87500000 </v>
    <v>       0.61113701       0.22219632       0.87500000 </v>
    <v>       0.94441891       0.22220602       0.87500000 </v>
    <v>       0.27763881       0.72269232       0.37500000 </v>
    <v>       0.10939752       0.22136543       0.37500000 </v>
    <v>       0.44488202       0.21670513       0.37500000 </v>
    <v>       0.61196791       0.72393582       0.37500000 </v>
    <v>       0.94505350       0.72269232       0.37500000 </v>
    <v>       0.77798832       0.22181380       0.37500000 </v>
    <v>       0.11109976       0.88887925       0.87500000 </v>
    <v>       0.44445802       0.88889568       0.87500000 </v>
    <v>       0.27773656       0.38888103       0.87500000 </v>
    <v>       0.61114447       0.38888103       0.87500000 </v>
    <v>       0.77778711       0.88891442       0.87500000 </v>
    <v>       0.94443766       0.38887531       0.87500000 </v>
    <v>       0.10888702       0.38858606       0.37500000 </v>
    <v>       0.27763881       0.88827983       0.37500000 </v>
    <v>       0.61151953       0.88950785       0.37500000 </v>
    <v>       0.94428960       0.88904373       0.37500000 </v>
    <v>       0.77969904       0.38858606       0.37500000 </v>
    <v>       0.27776270       0.55557063       0.87500000 </v>
    <v>       0.11107416       0.05553205       0.87500000 </v>
    <v>       0.61114447       0.55559678       0.87500000 </v>
    <v>       0.44445789       0.05553205       0.87500000 </v>
    <v>       0.94445408       0.55555385       0.87500000 </v>
    <v>       0.11064101       0.55569452       0.37500000 </v>
    <v>       0.77777778       0.05555556       0.87500000 </v>
    <v>       0.27665444       0.05330889       0.37500000 </v>
    <v>       0.44488202       0.56151023       0.37500000 </v>
    <v>       0.78002445       0.55667889       0.37500000 </v>
    <v>       0.61151953       0.05534502       0.37500000 </v>
    <v>       0.44445231       0.55559678       0.87500000 </v>
    <v>       0.94382548       0.05534502       0.37500000 </v>
    <v>       0.27777949       0.72223357       0.87500000 </v>
    <v>       0.11105932       0.22219632       0.87500000 </v>
    <v>       0.44445231       0.22218886       0.87500000 </v>
    <v>       0.61113701       0.72227402       0.87500000 </v>
    <v>       0.94445408       0.72223357       0.87500000 </v>
    <v>       0.77778711       0.22220602       0.87500000 </v>
    <v>       0.11111111       0.72222222       0.37500000 </v>
    <v>       0.44474727       0.72444631       0.37500000 </v>
    <v>       0.27182310       0.21670513       0.37500000 </v>
    <v>       0.77969904       0.72444631       0.37500000 </v>
    <v>       0.61196791       0.22136543       0.37500000 </v>
    <v>       0.94382548       0.22181380       0.37500000 </v>
    <v>       0.11107416       0.38887545       0.87500000 </v>
    <v>       0.27777949       0.88887925       0.87500000 </v>
    <v>       0.61112731       0.88891442       0.87500000 </v>
    <v>       0.44444444       0.38888889       0.87500000 </v>
    <v>       0.94443766       0.88889568       0.87500000 </v>
    <v>       0.11064101       0.88827983       0.37500000 </v>
    <v>       0.77780129       0.38887545       0.87500000 </v>
    <v>       0.44475413       0.88904373       0.37500000 </v>
    <v>       0.27182310       0.38845131       0.37500000 </v>
    <v>       0.27665444       0.55667889       0.37500000 </v>
    <v>       0.61662821       0.38845131       0.37500000 </v>
    <v>       0.77798832       0.88950785       0.37500000 </v>
    <v>       0.94428960       0.38857921       0.37500000 </v>
    <v>       0.11109976       0.55555385       0.87500000 </v>
    <v>       0.27776270       0.05552540       0.87500000 </v>
    <v>       0.77780793       0.55557063       0.87500000 </v>
    <v>       0.61112731       0.05554622       0.87500000 </v>
    <v>       0.94441891       0.05554622       0.87500000 </v>
    <v>       0.05546928       0.11103632       0.12487403 </v>
    <v>       0.55563492       0.61126984       0.12476730 </v>
    <v>       0.38882801       0.11092619       0.12483104 </v>
    <v>       0.88900701       0.61117017       0.12488859 </v>
    <v>       0.72156507       0.11109875       0.12491481 </v>
    <v>       0.05557215       0.77776118       0.62509033 </v>
    <v>       0.38885004       0.77781495       0.62510653 </v>
    <v>       0.22206349       0.27769841       0.62523270 </v>
    <v>       0.72229702       0.77786405       0.62512597 </v>
    <v>       0.55563492       0.27769841       0.62523270 </v>
    <v>       0.88889259       0.27778519       0.62508998 </v>
    <v>       0.22218903       0.77776118       0.12490967 </v>
    <v>       0.05546928       0.27776630       0.12487403 </v>
    <v>       0.38878395       0.27756790       0.12459556 </v>
    <v>       0.55556704       0.77786405       0.12487403 </v>
    <v>       0.88896491       0.77781495       0.12489347 </v>
    <v>       0.72229702       0.27776630       0.12487403 </v>
    <v>       0.05551838       0.94436842       0.62510653 </v>
    <v>       0.38885004       0.94436842       0.62510653 </v>
    <v>       0.22209818       0.44450532       0.62516896 </v>
    <v>       0.55576543       0.44454938       0.62540444 </v>
    <v>       0.72223458       0.94446917       0.62508519 </v>
    <v>       0.88896491       0.44448330       0.62510653 </v>
    <v>       0.05551838       0.44448330       0.12489347 </v>
    <v>       0.22216316       0.94432633       0.12488859 </v>
    <v>       0.55554814       0.94444074       0.12491002 </v>
    <v>       0.38878395       0.44454938       0.12459556 </v>
    <v>       0.88889259       0.94444074       0.12491002 </v>
    <v>       0.72240714       0.44450532       0.12483104 </v>
    <v>       0.22216316       0.61117017       0.62511141 </v>
    <v>       0.05546928       0.11103632       0.62512597 </v>
    <v>       0.55563492       0.61126984       0.62523270 </v>
    <v>       0.38882801       0.11092619       0.62516896 </v>
    <v>       0.88900701       0.61117017       0.62511141 </v>
    <v>       0.05557215       0.61114430       0.12490967 </v>
    <v>       0.72223458       0.11109875       0.62508519 </v>
    <v>       0.22209818       0.11092619       0.12483104 </v>
    <v>       0.38882801       0.61123515       0.12483104 </v>
    <v>       0.72240714       0.61123515       0.12483104 </v>
    <v>       0.55556704       0.11103632       0.12487403 </v>
    <v>       0.38882801       0.61123515       0.62516896 </v>
    <v>       0.88886417       0.11109875       0.12491481 </v>
    <v>       0.22218903       0.77776118       0.62509033 </v>
    <v>       0.05546928       0.27776630       0.62512597 </v>
    <v>       0.38878395       0.27756790       0.62540444 </v>
    <v>       0.55556704       0.77786405       0.62512597 </v>
    <v>       0.88896491       0.77781495       0.62510653 </v>
    <v>       0.72229702       0.27776630       0.62512597 </v>
    <v>       0.05557215       0.77776118       0.12490967 </v>
    <v>       0.38885004       0.77781495       0.12489347 </v>
    <v>       0.22206349       0.27769841       0.12476730 </v>
    <v>       0.72229702       0.77786405       0.12487403 </v>
    <v>       0.55563492       0.27769841       0.12476730 </v>
    <v>       0.88889259       0.27778519       0.12491002 </v>
    <v>       0.05551838       0.44448330       0.62510653 </v>
    <v>       0.22216316       0.94432633       0.62511141 </v>
    <v>       0.55554814       0.94444074       0.62508998 </v>
    <v>       0.38878395       0.44454938       0.62540444 </v>
    <v>       0.88889259       0.94444074       0.62508998 </v>
    <v>       0.05551838       0.94436842       0.12489347 </v>
    <v>       0.72240714       0.44450532       0.62516896 </v>
    <v>       0.38885004       0.94436842       0.12489347 </v>
    <v>       0.22209818       0.44450532       0.12483104 </v>
    <v>       0.22216316       0.61117017       0.12488859 </v>
    <v>       0.55576543       0.44454938       0.12459556 </v>
    <v>       0.72223458       0.94446917       0.12491481 </v>
    <v>       0.88896491       0.44448330       0.12489347 </v>
    <v>       0.05557215       0.61114430       0.62509033 </v>
    <v>       0.22209818       0.11092619       0.62516896 </v>
    <v>       0.72240714       0.61123515       0.62516896 </v>
    <v>       0.55556704       0.11103632       0.62512597 </v>
    <v>       0.88886417       0.11109875       0.62508519 </v>
   </varray>
  </structure>
  <varray name="primitive_index" >
   <v type="int" >        1 </v>
   <v type="int" >        2 </v>
   <v type="int" >        3 </v>
   <v type="int" >        4 </v>
   <v type="int" >        5 </v>
   <v type="int" >        6 </v>
   <v type="int" >        7 </v>
   <v type="int" >        8 </v>
   <v type="int" >        9 </v>
   <v type="int" >       10 </v>
   <v type="int" >       11 </v>
   <v type="int" >       12 </v>
   <v type="int" >       13 </v>
   <v type="int" >       14 </v>
   <v type="int" >       15 </v>
   <v type="int" >       16 </v>
   <v type="int" >       17 </v>
   <v type="int" >       18 </v>
   <v type="int" >       19 </v>
   <v type="int" >       20 </v>
   <v type="int" >       21 </v>
   <v type="int" >       22 </v>
   <v type="int" >       23 </v>
   <v type="int" >       24 </v>
   <v type="int" >       25 </v>
   <v type="int" >       26 </v>
   <v type="int" >       27 </v>
   <v type="int" >       28 </v>
   <v type="int" >       29 </v>
   <v type="int" >       30 </v>
   <v type="int" >       31 </v>
   <v type="int" >       32 </v>
   <v type="int" >       33 </v>
   <v type="int" >       34 </v>
   <v type="int" >       35 </v>
   <v type="int" >       36 </v>
   <v type="int" >       37 </v>
   <v type="int" >       38 </v>
   <v type="int" >       39 </v>
   <v type="int" >       40 </v>
   <v type="int" >       41 </v>
   <v type="int" >       42 </v>
   <v type="int" >       43 </v>
   <v type="int" >       44 </v>
   <v type="int" >       45 </v>
   <v type="int" >       46 </v>
   <v type="int" >       47 </v>
   <v type="int" >       48 </v>
   <v type="int" >       49 </v>
   <v type="int" >       50 </v>
   <v type="int" >       51 </v>
   <v type="int" >       52 </v>
   <v type="int" >       53 </v>
   <v type="int" >       54 </v>
   <v type="int" >       55 </v>
   <v type="int" >       56 </v>
   <v type="int" >       57 </v>
   <v type="int" >       58 </v>
   <v type="int" >       59 </v>
   <v type="int" >       60 </v>
   <v type="int" >       61 </v>
   <v type="int" >       62 </v>
   <v type="int" >       63 </v>
   <v type="int" >       64 </v>
   <v type="int" >       65 </v>
   <v type="int" >       66 </v>
   <v type="int" >       67 </v>
   <v type="int" >       68 </v>
   <v type="int" >       69 </v>
   <v type="int" >       70 </v>
   <v type="int" >       71 </v>
   <v type="int" >       72 </v>
   <v type="int" >       73 </v>
   <v type="int" >       74 </v>
   <v type="int" >       75 </v>
   <v type="int" >       76 </v>
   <v type="int" >       77 </v>
   <v type="int" >       78 </v>
   <v type="int" >       79 </v>
   <v type="int" >       80 </v>
   <v type="int" >       81 </v>
   <v type="int" >       82 </v>
   <v type="int" >       83 </v>
   <v type="int" >       84 </v>
   <v type="int" >       85 </v>
   <v type="int" >       86 </v>
   <v type="int" >       87 </v>
   <v type="int" >       88 </v>
   <v type="int" >       89 </v>
   <v type="int" >       90 </v>
   <v type="int" >       91 </v>
   <v type="int" >       92 </v>
   <v type="int" >       93 </v>
   <v type="int" >       94 </v>
   <v type="int" >       95 </v>
   <v type="int" >       96 </v>
   <v type="int" >       97 </v>
   <v type="int" >       98 </v>
   <v type="int" >       99 </v>
   <v type="int" >      100 </v>
   <v type="int" >      101 </v>
   <v type="int" >      102 </v>
   <v type="int" >      103 </v>
   <v type="int" >      104 </v>
   <v type="int" >      105 </v>
   <v type="int" >      106 </v>
   <v type="int" >      107 </v>
   <v type="int" >      108 </v>
   <v type="int" >      109 </v>
   <v type="int" >      110 </v>
   <v type="int" >      111 </v>
   <v type="int" >      112 </v>
   <v type="int" >      113 </v>
   <v type="int" >      114 </v>
   <v type="int" >      115 </v>
   <v type="int" >      116 </v>
   <v type="int" >      117 </v>
   <v type="int" >      118 </v>
   <v type="int" >      119 </v>
   <v type="int" >      120 </v>
   <v type="int" >      121 </v>
   <v type="int" >      122 </v>
   <v type="int" >      123 </v>
   <v type="int" >      124 </v>
   <v type="int" >      125 </v>
   <v type="int" >      126 </v>
   <v type="int" >      127 </v>
   <v type="int" >      128 </v>
   <v type="int" >      129 </v>
   <v type="int" >      130 </v>
   <v type="int" >      131 </v>
   <v type="int" >      132 </v>
   <v type="int" >      133 </v>
   <v type="int" >      134 </v>
   <v type="int" >      135 </v>
   <v type="int" >      136 </v>
   <v type="int" >      137 </v>
   <v type="int" >      138 </v>
   <v type="int" >      139 </v>
   <v type="int" >      140 </v>
   <v type="int" >      141 </v>
   <v type="int" >      142 </v>
   <v type="int" >      143 </v>
   <v type="int" >      144 </v>
   <v type="int" >      145 </v>
   <v type="int" >      146 </v>
   <v type="int" >      147 </v>
   <v type="int" >      148 </v>
   <v type="int" >      149 </v>
   <v type="int" >      150 </v>
   <v type="int" >      151 </v>
   <v type="int" >      152 </v>
   <v type="int" >      153 </v>
   <v type="int" >      154 </v>
   <v type="int" >      155 </v>
   <v type="int" >      156 </v>
   <v type="int" >      157 </v>
   <v type="int" >      158 </v>
   <v type="int" >      159 </v>
   <v type="int" >      160 </v>
   <v type="int" >      161 </v>
   <v type="int" >      162 </v>
   <v type="int" >      163 </v>
   <v type="int" >      164 </v>
   <v type="int" >      165 </v>
   <v type="int" >      166 </v>
   <v type="int" >      167 </v>
   <v type="int" >      168 </v>
   <v type="int" >      169 </v>
   <v type="int" >      170 </v>
   <v type="int" >      171 </v>
   <v type="int" >      172 </v>
   <v type="int" >      173 </v>
   <v type="int" >      174 </v>
   <v type="int" >      175 </v>
   <v type="int" >      176 </v>
   <v type="int" >      177 </v>
   <v type="int" >      178 </v>
   <v type="int" >      179 </v>
   <v type="int" >      180 </v>
   <v type="int" >      181 </v>
   <v type="int" >      182 </v>
   <v type="int" >      183 </v>
   <v type="int" >      184 </v>
   <v type="int" >      185 </v>
   <v type="int" >      186 </v>
   <v type="int" >      187 </v>
   <v type="int" >      188 </v>
   <v type="int" >      189 </v>
   <v type="int" >      190 </v>
   <v type="int" >      191 </v>
   <v type="int" >      192 </v>
   <v type="int" >      193 </v>
   <v type="int" >      194 </v>
   <v type="int" >      195 </v>
   <v type="int" >      196 </v>
   <v type="int" >      197 </v>
   <v type="int" >      198 </v>
   <v type="int" >      199 </v>
   <v type="int" >      200 </v>
   <v type="int" >      201 </v>
   <v type="int" >      202 </v>
   <v type="int" >      203 </v>
   <v type="int" >      204 </v>
   <v type="int" >      205 </v>
   <v type="int" >      206 </v>
   <v type="int" >      207 </v>
   <v type="int" >      208 </v>
   <v type="int" >      209 </v>
   <v type="int" >      210 </v>
   <v type="int" >      211 </v>
   <v type="int" >      212 </v>
   <v type="int" >      213 </v>
   <v type="int" >      214 </v>
   <v type="int" >      215 </v>
   <v type="int" >      216 </v>
   <v type="int" >      217 </v>
   <v type="int" >      218 </v>
   <v type="int" >      219 </v>
   <v type="int" >      220 </v>
   <v type="int" >      221 </v>
   <v type="int" >      222 </v>
   <v type="int" >      223 </v>
   <v type="int" >      224 </v>
   <v type="int" >      225 </v>
   <v type="int" >      226 </v>
   <v type="int" >      227 </v>
   <v type="int" >      228 </v>
   <v type="int" >      229 </v>
   <v type="int" >      230 </v>
   <v type="int" >      231 </v>
   <v type="int" >      232 </v>
   <v type="int" >      233 </v>
   <v type="int" >      234 </v>
   <v type="int" >      235 </v>
   <v type="int" >      236 </v>
   <v type="int" >      237 </v>
   <v type="int" >      238 </v>
   <v type="int" >      239 </v>
   <v type="int" >      240 </v>
   <v type="int" >      241 </v>
   <v type="int" >      242 </v>
   <v type="int" >      243 </v>
   <v type="int" >      244 </v>
   <v type="int" >      245 </v>
   <v type="int" >      246 </v>
   <v type="int" >      247 </v>
   <v type="int" >      248 </v>
   <v type="int" >      249 </v>
   <v type="int" >      250 </v>
   <v type="int" >      251 </v>
   <v type="int" >      252 </v>
   <v type="int" >      253 </v>
   <v type="int" >      254 </v>
   <v type="int" >      255 </v>
   <v type="int" >      256 </v>
   <v type="int" >      257 </v>
   <v type="int" >      258 </v>
   <v type="int" >      259 </v>
   <v type="int" >      260 </v>
   <v type="int" >      261 </v>
   <v type="int" >      262 </v>
   <v type="int" >      263 </v>
   <v type="int" >      264 </v>
   <v type="int" >      265 </v>
   <v type="int" >      266 </v>
   <v type="int" >      267 </v>
   <v type="int" >      268 </v>
   <v type="int" >      269 </v>
   <v type="int" >      270 </v>
   <v type="int" >      271 </v>
   <v type="int" >      272 </v>
   <v type="int" >      273 </v>
   <v type="int" >      274 </v>
   <v type="int" >      275 </v>
   <v type="int" >      276 </v>
   <v type="int" >      277 </v>
   <v type="int" >      278 </v>
   <v type="int" >      279 </v>
   <v type="int" >      280 </v>
   <v type="int" >      281 </v>
   <v type="int" >      282 </v>
   <v type="int" >      283 </v>
   <v type="int" >      284 </v>
   <v type="int" >      285 </v>
   <v type="int" >      286 </v>
   <v type="int" >      287 </v>
   <v type="int" >      288 </v>
  </varray>
 </primitive_cell>
 <kpoints>
  <generation param="Gamma">
   <v type="int" name="divisions">       2        2        2 </v>
   <v name="usershift">      0.00000000       0.00000000       0.00000000 </v>
   <v name="genvec1">      0.50000000       0.00000000       0.00000000 </v>
   <v name="genvec2">      0.00000000       0.50000000      -0.00000000 </v>
   <v name="genvec3">      0.00000000      -0.00000000       0.50000000 </v>
   <v name="shift">      0.00000000       0.00000000       0.00000000 </v>
  </generation>
  <varray name="kpointlist" >
   <v>       0.00000000       0.00000000       0.00000000 </v>
   <v>       0.50000000       0.00000000       0.00000000 </v>
   <v>       0.00000000       0.50000000       0.00000000 </v>
   <v>       0.50000000       0.50000000       0.00000000 </v>
   <v>       0.00000000      -0.00000000       0.50000000 </v>
   <v>       0.50000000      -0.00000000       0.50000000 </v>
   <v>       0.00000000       0.50000000       0.50000000 </v>
   <v>       0.50000000       0.50000000       0.50000000 </v>
  </varray>
  <varray name="weights" >
   <v>       0.12500000 </v>
   <v>       0.12500000 </v>
   <v>       0.12500000 </v>
   <v>       0.12500000 </v>
   <v>       0.12500000 </v>
   <v>       0.12500000 </v>
   <v>       0.12500000 </v>
   <v>       0.12500000 </v>
  </varray>
 </kpoints>
 <parameters>
  <separator name="general" >
   <i type="string" name="SYSTEM">unknown system</i>
   <i type="logical" name="LCOMPAT"> F  </i>
  </separator>
  <separator name="electronic" >
   <i type="string" name="PREC">normal</i>
   <i name="ENMAX">    500.00000000</i>
   <i name="ENAUG">    627.11200000</i>
   <i name="EDIFF">      0.00000100</i>
   <i type="int" name="IALGO">    68</i>
   <i type="int" name="IWAVPR">    10</i>
   <i type="int" name="NBANDS">   728</i>
   <i type="int" name="NBANDSLOW">    -1</i>
   <i type="int" name="NBANDSHIGH">    -1</i>
   <i name="NELECT">   1153.00000000</i>
   <i type="int" name="TURBO">     0</i>
   <i type="int" name="IRESTART">     0</i>
   <i type="int" name="NREBOOT">     0</i>
   <i type="int" name="NMIN">     0</i>
   <i name="EREF">      0.00000000</i>
   <separator name="electronic smearing" >
    <i type="int" name="ISMEAR">     0</i>
    <i name="SIGMA">      0.05000000</i>
    <i name="KSPACING">      0.50000000</i>
    <i type="logical" name="KGAMMA"> T  </i>
    <i type="logical" name="KBLOWUP"> T  </i>
   </separator>
   <separator name="electronic projectors" >
    <i type="logical" name="LREAL"> F  </i>
    <v name="ROPT">      0.00000000      0.00000000      0.00000000</v>
    <i type="int" name="LMAXPAW">  -100</i>
    <i type="int" name="LMAXMIX">     2</i>
    <i type="logical" name="NLSPLINE"> F  </i>
   </separator>
   <separator name="electronic startup" >
    <i type="int" name="ISTART">     0</i>
    <i type="int" name="ICHARG">     2</i>
    <i type="int" name="INIWAV">     1</i>
   </separator>
   <separator name="electronic spin" >
    <i type="int" name="ISPIN">     2</i>
    <i type="logical" name="LNONCOLLINEAR"> F  </i>
    <v name="MAGMOM">      0.00347222      0.00347222      0.00347222      0.00347222      0.00347222      0.00347222      0.00347222      0.00347222      0.00347222      0.00347222      0.00347222      0.00347222      0.00347222      0.00347222      0.00347222      0.00347222      0.00347222      0.00347222      0.00347222      0.00347222
      0.00347222      0.00347222      0.00347222      0.00347222      0.00347222      0.00347222      0.00347222      0.00347222      0.00347222      0.00347222      0.00347222      0.00347222      0.00347222      0.00347222      0.00347222      0.00347222      0.00347222      0.00347222      0.00347222      0.00347222
      0.00347222      0.00347222      0.00347222      0.00347222      0.00347222      0.00347222      0.00347222      0.00347222      0.00347222      0.00347222      0.00347222      0.00347222      0.00347222      0.00347222      0.00347222      0.00347222      0.00347222      0.00347222      0.00347222      0.00347222
      0.00347222      0.00347222      0.00347222      0.00347222      0.00347222      0.00347222      0.00347222      0.00347222      0.00347222      0.00347222      0.00347222      0.00347222      0.00347222      0.00347222      0.00347222      0.00347222      0.00347222      0.00347222      0.00347222      0.00347222
      0.00347222      0.00347222      0.00347222      0.00347222      0.00347222      0.00347222      0.00347222      0.00347222      0.00347222      0.00347222      0.00347222      0.00347222      0.00347222      0.00347222      0.00347222      0.00347222      0.00347222      0.00347222      0.00347222      0.00347222
      0.00347222      0.00347222      0.00347222      0.00347222      0.00347222      0.00347222      0.00347222      0.00347222      0.00347222      0.00347222      0.00347222      0.00347222      0.00347222      0.00347222      0.00347222      0.00347222      0.00347222      0.00347222      0.00347222      0.00347222
      0.00347222      0.00347222      0.00347222      0.00347222      0.00347222      0.00347222      0.00347222      0.00347222      0.00347222      0.00347222      0.00347222      0.00347222      0.00347222      0.00347222      0.00347222      0.00347222      0.00347222      0.00347222      0.00347222      0.00347222
      0.00347222      0.00347222      0.00347222      0.00347222      0.00347222      0.00347222      0.00347222      0.00347222      0.00347222      0.00347222      0.00347222      0.00347222      0.00347222      0.00347222      0.00347222      0.00347222      0.00347222      0.00347222      0.00347222      0.00347222
      0.00347222      0.00347222      0.00347222      0.00347222      0.00347222      0.00347222      0.00347222      0.00347222      0.00347222      0.00347222      0.00347222      0.00347222      0.00347222      0.00347222      0.00347222      0.00347222      0.00347222      0.00347222      0.00347222      0.00347222
      0.00347222      0.00347222      0.00347222      0.00347222      0.00347222      0.00347222      0.00347222      0.00347222      0.00347222      0.00347222      0.00347222      0.00347222      0.00347222      0.00347222      0.00347222      0.00347222      0.00347222      0.00347222      0.00347222      0.00347222
      0.00347222      0.00347222      0.00347222      0.00347222      0.00347222      0.00347222      0.00347222      0.00347222      0.00347222      0.00347222      0.00347222      0.00347222      0.00347222      0.00347222      0.00347222      0.00347222      0.00347222      0.00347222      0.00347222      0.00347222
      0.00347222      0.00347222      0.00347222      0.00347222      0.00347222      0.00347222      0.00347222      0.00347222      0.00347222      0.00347222      0.00347222      0.00347222      0.00347222      0.00347222      0.00347222      0.00347222      0.00347222      0.00347222      0.00347222      0.00347222
      0.00347222      0.00347222      0.00347222      0.00347222      0.00347222      0.00347222      0.00347222      0.00347222      0.00347222      0.00347222      0.00347222      0.00347222      0.00347222      0.00347222      0.00347222      0.00347222      0.00347222      0.00347222      0.00347222      0.00347222
      0.00347222      0.00347222      0.00347222      0.00347222      0.00347222      0.00347222      0.00347222      0.00347222      0.00347222      0.00347222      0.00347222      0.00347222      0.00347222      0.00347222      0.00347222      0.00347222      0.00347222      0.00347222      0.00347222      0.00347222
      0.00347222      0.00347222      0.00347222      0.00347222      0.00347222      0.00347222      0.00347222      0.00347222</v>
    <i name="NUPDOWN">      1.00000000</i>
    <i type="logical" name="LSORBIT"> F  </i>
    <v name="SAXIS">      0.00000000      0.00000000      1.00000000</v>
    <i type="logical" name="LSPIRAL"> F  </i>
    <v name="QSPIRAL">      0.00000000      0.00000000      0.00000000</v>
    <i type="logical" name="LZEROZ"> F  </i>
   </separator>
   <separator name="electronic exchange-correlation" >
    <i type="logical" name="LASPH"> F  </i>
    <i type="logical" name="LMETAGGA"> F  </i>
   </separator>
   <separator name="electronic convergence" >
    <i type="int" name="NELM">   100</i>
    <i type="int" name="NELMDL">    -5</i>
    <i type="int" name="NELMIN">     4</i>
    <i name="ENINI">    500.00000000</i>
    <separator name="electronic convergence detail" >
     <i type="logical" name="LDIAG"> T  </i>
     <i type="logical" name="LSUBROT"> F  </i>
     <i name="WEIMIN">      0.00000000</i>
     <i name="EBREAK">      0.00000000</i>
     <i name="DEPER">      0.30000000</i>
     <i type="int" name="NRMM">     4</i>
     <i name="TIME">      0.40000000</i>
    </separator>
   </separator>
   <separator name="electronic mixer" >
    <i name="AMIX">      0.40000000</i>
    <i name="BMIX">      1.00000000</i>
    <i name="AMIN">      0.10000000</i>
    <i name="AMIX_MAG">      1.60000000</i>
    <i name="BMIX_MAG">      1.00000000</i>
    <separator name="electronic mixer details" >
     <i type="int" name="IMIX">     4</i>
     <i type="logical" name="MIXFIRST"> F  </i>
     <i type="int" name="MAXMIX">   -45</i>
     <i name="WC">    100.00000000</i>
     <i type="int" name="INIMIX">     1</i>
     <i type="int" name="MIXPRE">     1</i>
     <i type="int" name="MREMOVE">     5</i>
    </separator>
   </separator>
   <separator name="electronic dipolcorrection" >
    <i type="logical" name="LDIPOL"> F  </i>
    <i type="logical" name="LMONO"> F  </i>
    <i type="int" name="IDIPOL">     0</i>
    <i name="EPSILON">      1.00000000</i>
    <v name="DIPOL">   -100.00000000   -100.00000000   -100.00000000</v>
    <i name="EFIELD">      0.00000000</i>
   </separator>
  </separator>
  <separator name="grids" >
   <i type="int" name="NGX">    84</i>
   <i type="int" name="NGY">    84</i>
   <i type="int" name="NGZ">    80</i>
   <i type="int" name="NGXF">   168</i>
   <i type="int" name="NGYF">   168</i>
   <i type="int" name="NGZF">   160</i>
   <i type="logical" name="ADDGRID"> T  </i>
  </separator>
  <separator name="ionic" >
   <i type="int" name="NSW">     0</i>
   <i type="int" name="IBRION">    -1</i>
   <i type="int" name="MDALGO">     0</i>
   <i type="int" name="ISIF">     2</i>
   <i name="PSTRESS">      0.00000000</i>
   <i name="EDIFFG">      0.00001000</i>
   <i type="int" name="NFREE">     0</i>
   <i name="POTIM">      0.50000000</i>
   <i name="SMASS">     -3.00000000</i>
   <i name="SCALEE">      1.00000000</i>
  </separator>
  <separator name="ionic md" >
   <i name="TEBEG">      0.00010000</i>
   <i name="TEEND">      0.00010000</i>
   <i type="int" name="NBLOCK">     1</i>
   <i type="int" name="KBLOCK">     1</i>
   <i type="int" name="NPACO">   256</i>
   <i name="APACO">     10.00000000</i>
  </separator>
  <separator name="symmetry" >
   <i type="int" name="ISYM">     2</i>
   <i name="SYMPREC">      0.00001000</i>
  </separator>
  <separator name="dos" >
   <i type="int" name="LORBIT">     0</i>
   <v name="RWIGS">     -1.00000000     -1.00000000     -1.00000000</v>
   <i type="int" name="NEDOS">   301</i>
   <i name="EMIN">     10.00000000</i>
   <i name="EMAX">    -10.00000000</i>
   <i name="EFERMI">      0.00000000</i>
  </separator>
  <separator name="writing" >
   <i type="int" name="NWRITE">     2</i>
   <i type="logical" name="LWAVE"> F  </i>
   <i type="logical" name="LDOWNSAMPLE"> F  </i>
   <i type="logical" name="LCHARG"> F  </i>
   <i type="logical" name="LPARD"> F  </i>
   <i type="logical" name="LVTOT"> F  </i>
   <i type="logical" name="LVHAR"> F  </i>
   <i type="logical" name="LELF"> F  </i>
   <i type="logical" name="LOPTICS"> F  </i>
   <v name="STM">      0.00000000      0.00000000      0.00000000      0.00000000      0.00000000      0.00000000      0.00000000</v>
  </separator>
  <separator name="performance" >
   <i type="int" name="NPAR">     8</i>
   <i type="int" name="NSIM">     4</i>
   <i type="int" name="NBLK">    -1</i>
   <i type="logical" name="LPLANE"> T  </i>
   <i type="logical" name="LSCALAPACK"> T  </i>
   <i type="logical" name="LSCAAWARE"> T  </i>
   <i type="logical" name="LSCALU"> F  </i>
   <i type="logical" name="LASYNC"> F  </i>
   <i type="logical" name="LORBITALREAL"> F  </i>
  </separator>
  <separator name="miscellaneous" >
   <i type="int" name="IDIOT">     3</i>
   <i type="int" name="PHON_NSTRUCT">    -1</i>
   <i type="logical" name="LMUSIC"> F  </i>
   <v name="POMASS">     30.97400000     14.00100000     10.81100000</v>
   <v name="DARWINR">      0.00000000      0.00000000      0.00000000</v>
   <v name="DARWINV">      1.00000000      1.00000000      1.00000000</v>
   <i type="logical" name="LCORR"> T  </i>
  </separator>
  <i type="logical" name="GGA_COMPAT"> T  </i>
  <i type="logical" name="LBERRY"> F  </i>
  <i type="int" name="ICORELEVEL">     0</i>
  <i type="logical" name="LDAU"> F  </i>
  <i type="int" name="I_CONSTRAINED_M">     0</i>
  <separator name="electronic exchange-correlation" >
   <i type="string" name="GGA">PE</i>
   <i type="int" name="VOSKOWN">     0</i>
   <i type="logical" name="LHFCALC"> F  </i>
   <i type="string" name="PRECFOCK"></i>
   <i type="logical" name="LSYMGRAD"> F  </i>
   <i type="logical" name="LHFONE"> F  </i>
   <i type="logical" name="LRHFCALC"> F  </i>
   <i type="logical" name="LTHOMAS"> F  </i>
   <i type="logical" name="LMODELHF"> F  </i>
   <i type="logical" name="LFOCKACE"> F  </i>
   <i name="ENCUT4O">     -1.00000000</i>
   <i type="int" name="EXXOEP">     0</i>
   <i type="int" name="FOURORBIT">     0</i>
   <i name="AEXX">      0.00000000</i>
   <i name="HFALPHA">      0.00000000</i>
   <i name="MCALPHA">      0.00000000</i>
   <i name="ALDAX">      1.00000000</i>
   <i name="AGGAX">      1.00000000</i>
   <i name="ALDAC">      1.00000000</i>
   <i name="AGGAC">      1.00000000</i>
   <i type="int" name="NKREDX">     1</i>
   <i type="int" name="NKREDY">     1</i>
   <i type="int" name="NKREDZ">     1</i>
   <i type="logical" name="SHIFTRED"> F  </i>
   <i type="logical" name="ODDONLY"> F  </i>
   <i type="logical" name="EVENONLY"> F  </i>
   <i type="int" name="LMAXFOCK">     0</i>
   <i type="int" name="NMAXFOCKAE">     0</i>
   <i type="logical" name="LFOCKAEDFT"> F  </i>
   <i name="HFSCREEN">      0.00000000</i>
   <i name="HFSCREENC">      0.00000000</i>
   <i type="int" name="NBANDSGWLOW">     0</i>
  </separator>
  <separator name="vdW DFT" >
   <i type="logical" name="LUSE_VDW"> F  </i>
   <i type="int" name="IVDW_NL">     1</i>
   <i type="logical" name="LSPIN_VDW"> F  </i>
   <i name="Zab_VDW">     -0.84910000</i>
   <i name="PARAM1">      0.12340000</i>
   <i name="PARAM2">      1.00000000</i>
   <i name="PARAM3">      0.00000000</i>
  </separator>
  <separator name="model GW" >
   <i type="int" name="MODEL_GW">     0</i>
   <i name="MODEL_EPS0">      5.36999215</i>
   <i name="MODEL_ALPHA">      1.00000000</i>
  </separator>
  <separator name="linear response parameters" >
   <i type="logical" name="LEPSILON"> F  </i>
   <i type="logical" name="LRPA"> F  </i>
   <i type="logical" name="LNABLA"> F  </i>
   <i type="logical" name="LVEL"> F  </i>
   <i name="CSHIFT">      0.10000000</i>
   <i name="OMEGAMAX">     -1.00000000</i>
   <i name="DEG_THRESHOLD">      0.00200000</i>
   <i name="RTIME">     -0.10000000</i>
   <i name="WPLASMAI">      0.00000000</i>
   <v name="DFIELD">      0.00000000      0.00000000      0.00000000</v>
   <v name="WPLASMA">      0.00000000      0.00000000      0.00000000      0.00000000      0.00000000      0.00000000      0.00000000      0.00000000      0.00000000</v>
  </separator>
  <separator name="orbital magnetization" >
   <i type="logical" name="NUCIND"> F  </i>
   <v name="MAGPOS">      0.00000000      0.00000000      0.00000000</v>
   <i type="logical" name="LNICSALL"> T  </i>
   <i type="logical" name="ORBITALMAG"> F  </i>
   <i type="logical" name="LMAGBLOCH"> F  </i>
   <i type="logical" name="LCHIMAG"> F  </i>
   <i type="logical" name="LGAUGE"> T  </i>
   <i type="int" name="MAGATOM">     0</i>
   <v name="MAGDIPOL">      0.00000000      0.00000000      0.00000000</v>
   <v name="AVECCONST">      0.00000000      0.00000000      0.00000000</v>
  </separator>
  <separator name="response functions" >
   <i type="logical" name="LALL_IN_ONE"> F  </i>
   <i type="int" name="IALL_IN_ONE">    -1</i>
   <i type="int" name="NBANDS_WAVE">    -1</i>
   <i type="logical" name="LFINITE_TEMPERATURE"> F  </i>
   <i type="logical" name="LADDER"> F  </i>
   <i type="logical" name="LRPAFORCE"> F  </i>
   <i type="logical" name="LFXC"> F  </i>
   <i type="logical" name="LHARTREE"> T  </i>
   <i type="int" name="IBSE">     0</i>
   <v type="int" name="KPOINT">    -1     0     0     0</v>
   <i type="logical" name="LTCTC"> F  </i>
   <i type="logical" name="LTCTE"> F  </i>
   <i type="logical" name="LTETE"> F  </i>
   <i type="logical" name="LTRIPLET"> F  </i>
   <i type="logical" name="LFXCEPS"> F  </i>
   <i type="logical" name="LFXHEG"> F  </i>
   <i type="int" name="NATURALO">     2</i>
   <i type="logical" name="LHOLEGF"> F  </i>
   <i type="logical" name="L2ORDER"> F  </i>
   <i type="logical" name="LDMP1"> F  </i>
   <i type="logical" name="LMP2LT"> F  </i>
   <i type="logical" name="LSMP2LT"> F  </i>
   <i type="logical" name="LGWLF"> F  </i>
   <i name="ENCUTGW">     -1.60000002</i>
   <i name="ENCUTGWSOFT">     -1.60000002</i>
   <i name="ENCUTLF">     -1.00000000</i>
   <i type="logical" name="LESF_SPLINES"> F  </i>
   <i type="int" name="LMAXMP2">    -1</i>
   <i name="SCISSOR">      0.00000000</i>
   <i type="int" name="NOMEGA">     0</i>
   <i type="int" name="NOMEGAR">     0</i>
   <i type="int" name="NBANDSGW">    -1</i>
   <i type="int" name="NBANDSO">    -1</i>
   <i type="int" name="NBANDSV">    -1</i>
   <i type="int" name="NELMGW">     1</i>
   <i type="int" name="NELMHF">     1</i>
   <i type="int" name="DIM">     3</i>
   <i type="int" name="IESPILON">     4</i>
   <i type="int" name="ANTIRES">     0</i>
   <i name="OMEGAMAX">    -30.00000000</i>
   <i name="OMEGAMIN">    -30.00000000</i>
   <i name="OMEGATL">   -200.00000000</i>
   <i type="int" name="OMEGAGRID">     0</i>
   <i name="CSHIFT">     -0.10000000</i>
   <i type="logical" name="LSELFENERGY"> F  </i>
   <i type="logical" name="LSPECTRAL"> F  </i>
   <i type="logical" name="LSPECTRALGW"> F  </i>
   <i type="logical" name="LSINGLES"> F  </i>
   <i type="logical" name="LFERMIGW"> F  </i>
   <i type="logical" name="ODDONLYGW"> F  </i>
   <i type="logical" name="EVENONLYGW"> F  </i>
   <i type="int" name="NKREDLFX">     1</i>
   <i type="int" name="NKREDLFY">     1</i>
   <i type="int" name="NKREDLFZ">     1</i>
   <i type="int" name="MAXMEM">  2800</i>
   <i type="int" name="TELESCOPE">     0</i>
   <i type="int" name="NTAUPAR">    -1</i>
   <i type="int" name="NOMEGAPAR">    -1</i>
   <i name="DAMP_NEWTON">      0.80000001</i>
   <i name="LAMBDA">      1.00000000</i>
  </separator>
  <separator name="External order field" >
   <i name="OFIELD_KAPPA">      0.00000000</i>
   <v name="OFIELD_K">      0.00000000      0.00000000      0.00000000</v>
   <i name="OFIELD_Q6_NEAR">      0.00000000</i>
   <i name="OFIELD_Q6_FAR">      0.00000000</i>
   <i name="OFIELD_A">      0.00000000</i>
  </separator>
  <separator name="optional k-points parameters" >
   <i type="int" name="KPOINTS_OPT_MODE">     1</i>
   <i type="logical" name="LKPOINTS_OPT"> F  </i>
  </separator>
  <separator name="solvation model" >
   <i type="logical" name="LSOL"> F  </i>
  </separator>
 </parameters>
 <atominfo>
  <atoms>     288 </atoms>
  <types>       3 </types>
  <array name="atoms" >
   <dimension dim="1">ion</dimension>
   <field type="string">element</field>
   <field type="int">atomtype</field>
   <set>
    <rc><c>P </c><c>   1</c></rc>
    <rc><c>N </c><c>   2</c></rc>
    <rc><c>N </c><c>   2</c></rc>
    <rc><c>N </c><c>   2</c></rc>
    <rc><c>N </c><c>   2</c></rc>
    <rc><c>N </c><c>   2</c></rc>
    <rc><c>N </c><c>   2</c></rc>
    <rc><c>N </c><c>   2</c></rc>
    <rc><c>N </c><c>   2</c></rc>
    <rc><c>N </c><c>   2</c></rc>
    <rc><c>N </c><c>   2</c></rc>
    <rc><c>N </c><c>   2</c></rc>
    <rc><c>N </c><c>   2</c></rc>
    <rc><c>N </c><c>   2</c></rc>
    <rc><c>N </c><c>   2</c></rc>
    <rc><c>N </c><c>   2</c></rc>
    <rc><c>N </c><c>   2</c></rc>
    <rc><c>N </c><c>   2</c></rc>
    <rc><c>N </c><c>   2</c></rc>
    <rc><c>N </c><c>   2</c></rc>
    <rc><c>N </c><c>   2</c></rc>
    <rc><c>N </c><c>   2</c></rc>
    <rc><c>N </c><c>   2</c></rc>
    <rc><c>N </c><c>   2</c></rc>
    <rc><c>N </c><c>   2</c></rc>
    <rc><c>N </c><c>   2</c></rc>
    <rc><c>N </c><c>   2</c></rc>
    <rc><c>N </c><c>   2</c></rc>
    <rc><c>N </c><c>   2</c></rc>
    <rc><c>N </c><c>   2</c></rc>
    <rc><c>N </c><c>   2</c></rc>
    <rc><c>N </c><c>   2</c></rc>
    <rc><c>N </c><c>   2</c></rc>
    <rc><c>N </c><c>   2</c></rc>
    <rc><c>N </c><c>   2</c></rc>
    <rc><c>N </c><c>   2</c></rc>
    <rc><c>N </c><c>   2</c></rc>
    <rc><c>N </c><c>   2</c></rc>
    <rc><c>N </c><c>   2</c></rc>
    <rc><c>N </c><c>   2</c></rc>
    <rc><c>N </c><c>   2</c></rc>
    <rc><c>N </c><c>   2</c></rc>
    <rc><c>N </c><c>   2</c></rc>
    <rc><c>N </c><c>   2</c></rc>
    <rc><c>N </c><c>   2</c></rc>
    <rc><c>N </c><c>   2</c></rc>
    <rc><c>N </c><c>   2</c></rc>
    <rc><c>N </c><c>   2</c></rc>
    <rc><c>N </c><c>   2</c></rc>
    <rc><c>N </c><c>   2</c></rc>
    <rc><c>N </c><c>   2</c></rc>
    <rc><c>N </c><c>   2</c></rc>
    <rc><c>N </c><c>   2</c></rc>
    <rc><c>N </c><c>   2</c></rc>
    <rc><c>N </c><c>   2</c></rc>
    <rc><c>N </c><c>   2</c></rc>
    <rc><c>N </c><c>   2</c></rc>
    <rc><c>N </c><c>   2</c></rc>
    <rc><c>N </c><c>   2</c></rc>
    <rc><c>N </c><c>   2</c></rc>
    <rc><c>N </c><c>   2</c></rc>
    <rc><c>N </c><c>   2</c></rc>
    <rc><c>N </c><c>   2</c></rc>
    <rc><c>N </c><c>   2</c></rc>
    <rc><c>N </c><c>   2</c></rc>
    <rc><c>N </c><c>   2</c></rc>
    <rc><c>N </c><c>   2</c></rc>
    <rc><c>N </c><c>   2</c></rc>
    <rc><c>N </c><c>   2</c></rc>
    <rc><c>N </c><c>   2</c></rc>
    <rc><c>N </c><c>   2</c></rc>
    <rc><c>N </c><c>   2</c></rc>
    <rc><c>N </c><c>   2</c></rc>
    <rc><c>N </c><c>   2</c></rc>
    <rc><c>N </c><c>   2</c></rc>
    <rc><c>N </c><c>   2</c></rc>
    <rc><c>N </c><c>   2</c></rc>
    <rc><c>N </c><c>   2</c></rc>
    <rc><c>N </c><c>   2</c></rc>
    <rc><c>N </c><c>   2</c></rc>
    <rc><c>N </c><c>   2</c></rc>
    <rc><c>N </c><c>   2</c></rc>
    <rc><c>N </c><c>   2</c></rc>
    <rc><c>N </c><c>   2</c></rc>
    <rc><c>N </c><c>   2</c></rc>
    <rc><c>N </c><c>   2</c></rc>
    <rc><c>N </c><c>   2</c></rc>
    <rc><c>N </c><c>   2</c></rc>
    <rc><c>N </c><c>   2</c></rc>
    <rc><c>N </c><c>   2</c></rc>
    <rc><c>N </c><c>   2</c></rc>
    <rc><c>N </c><c>   2</c></rc>
    <rc><c>N </c><c>   2</c></rc>
    <rc><c>N </c><c>   2</c></rc>
    <rc><c>N </c><c>   2</c></rc>
    <rc><c>N </c><c>   2</c></rc>
    <rc><c>N </c><c>   2</c></rc>
    <rc><c>N </c><c>   2</c></rc>
    <rc><c>N </c><c>   2</c></rc>
    <rc><c>N </c><c>   2</c></rc>
    <rc><c>N </c><c>   2</c></rc>
    <rc><c>N </c><c>   2</c></rc>
    <rc><c>N </c><c>   2</c></rc>
    <rc><c>N </c><c>   2</c></rc>
    <rc><c>N </c><c>   2</c></rc>
    <rc><c>N </c><c>   2</c></rc>
    <rc><c>N </c><c>   2</c></rc>
    <rc><c>N </c><c>   2</c></rc>
    <rc><c>N </c><c>   2</c></rc>
    <rc><c>N </c><c>   2</c></rc>
    <rc><c>N </c><c>   2</c></rc>
    <rc><c>N </c><c>   2</c></rc>
    <rc><c>N </c><c>   2</c></rc>
    <rc><c>N </c><c>   2</c></rc>
    <rc><c>N </c><c>   2</c></rc>
    <rc><c>N </c><c>   2</c></rc>
    <rc><c>N </c><c>   2</c></rc>
    <rc><c>N </c><c>   2</c></rc>
    <rc><c>N </c><c>   2</c></rc>
    <rc><c>N </c><c>   2</c></rc>
    <rc><c>N </c><c>   2</c></rc>
    <rc><c>N </c><c>   2</c></rc>
    <rc><c>N </c><c>   2</c></rc>
    <rc><c>N </c><c>   2</c></rc>
    <rc><c>N </c><c>   2</c></rc>
    <rc><c>N </c><c>   2</c></rc>
    <rc><c>N </c><c>   2</c></rc>
    <rc><c>N </c><c>   2</c></rc>
    <rc><c>N </c><c>   2</c></rc>
    <rc><c>N </c><c>   2</c></rc>
    <rc><c>N </c><c>   2</c></rc>
    <rc><c>N </c><c>   2</c></rc>
    <rc><c>N </c><c>   2</c></rc>
    <rc><c>N </c><c>   2</c></rc>
    <rc><c>N </c><c>   2</c></rc>
    <rc><c>N </c><c>   2</c></rc>
    <rc><c>N </c><c>   2</c></rc>
    <rc><c>N </c><c>   2</c></rc>
    <rc><c>N </c><c>   2</c></rc>
    <rc><c>N </c><c>   2</c></rc>
    <rc><c>N </c><c>   2</c></rc>
    <rc><c>N </c><c>   2</c></rc>
    <rc><c>N </c><c>   2</c></rc>
    <rc><c>N </c><c>   2</c></rc>
    <rc><c>N </c><c>   2</c></rc>
    <rc><c>B </c><c>   3</c></rc>
    <rc><c>B </c><c>   3</c></rc>
    <rc><c>B </c><c>   3</c></rc>
    <rc><c>B </c><c>   3</c></rc>
    <rc><c>B </c><c>   3</c></rc>
    <rc><c>B </c><c>   3</c></rc>
    <rc><c>B </c><c>   3</c></rc>
    <rc><c>B </c><c>   3</c></rc>
    <rc><c>B </c><c>   3</c></rc>
    <rc><c>B </c><c>   3</c></rc>
    <rc><c>B </c><c>   3</c></rc>
    <rc><c>B </c><c>   3</c></rc>
    <rc><c>B </c><c>   3</c></rc>
    <rc><c>B </c><c>   3</c></rc>
    <rc><c>B </c><c>   3</c></rc>
    <rc><c>B </c><c>   3</c></rc>
    <rc><c>B </c><c>   3</c></rc>
    <rc><c>B </c><c>   3</c></rc>
    <rc><c>B </c><c>   3</c></rc>
    <rc><c>B </c><c>   3</c></rc>
    <rc><c>B </c><c>   3</c></rc>
    <rc><c>B </c><c>   3</c></rc>
    <rc><c>B </c><c>   3</c></rc>
    <rc><c>B </c><c>   3</c></rc>
    <rc><c>B </c><c>   3</c></rc>
    <rc><c>B </c><c>   3</c></rc>
    <rc><c>B </c><c>   3</c></rc>
    <rc><c>B </c><c>   3</c></rc>
    <rc><c>B </c><c>   3</c></rc>
    <rc><c>B </c><c>   3</c></rc>
    <rc><c>B </c><c>   3</c></rc>
    <rc><c>B </c><c>   3</c></rc>
    <rc><c>B </c><c>   3</c></rc>
    <rc><c>B </c><c>   3</c></rc>
    <rc><c>B </c><c>   3</c></rc>
    <rc><c>B </c><c>   3</c></rc>
    <rc><c>B </c><c>   3</c></rc>
    <rc><c>B </c><c>   3</c></rc>
    <rc><c>B </c><c>   3</c></rc>
    <rc><c>B </c><c>   3</c></rc>
    <rc><c>B </c><c>   3</c></rc>
    <rc><c>B </c><c>   3</c></rc>
    <rc><c>B </c><c>   3</c></rc>
    <rc><c>B </c><c>   3</c></rc>
    <rc><c>B </c><c>   3</c></rc>
    <rc><c>B </c><c>   3</c></rc>
    <rc><c>B </c><c>   3</c></rc>
    <rc><c>B </c><c>   3</c></rc>
    <rc><c>B </c><c>   3</c></rc>
    <rc><c>B </c><c>   3</c></rc>
    <rc><c>B </c><c>   3</c></rc>
    <rc><c>B </c><c>   3</c></rc>
    <rc><c>B </c><c>   3</c></rc>
    <rc><c>B </c><c>   3</c></rc>
    <rc><c>B </c><c>   3</c></rc>
    <rc><c>B </c><c>   3</c></rc>
    <rc><c>B </c><c>   3</c></rc>
    <rc><c>B </c><c>   3</c></rc>
    <rc><c>B </c><c>   3</c></rc>
    <rc><c>B </c><c>   3</c></rc>
    <rc><c>B </c><c>   3</c></rc>
    <rc><c>B </c><c>   3</c></rc>
    <rc><c>B </c><c>   3</c></rc>
    <rc><c>B </c><c>   3</c></rc>
    <rc><c>B </c><c>   3</c></rc>
    <rc><c>B </c><c>   3</c></rc>
    <rc><c>B </c><c>   3</c></rc>
    <rc><c>B </c><c>   3</c></rc>
    <rc><c>B </c><c>   3</c></rc>
    <rc><c>B </c><c>   3</c></rc>
    <rc><c>B </c><c>   3</c></rc>
    <rc><c>B </c><c>   3</c></rc>
    <rc><c>B </c><c>   3</c></rc>
    <rc><c>B </c><c>   3</c></rc>
    <rc><c>B </c><c>   3</c></rc>
    <rc><c>B </c><c>   3</c></rc>
    <rc><c>B </c><c>   3</c></rc>
    <rc><c>B </c><c>   3</c></rc>
    <rc><c>B </c><c>   3</c></rc>
    <rc><c>B </c><c>   3</c></rc>
    <rc><c>B </c><c>   3</c></rc>
    <rc><c>B </c><c>   3</c></rc>
    <rc><c>B </c><c>   3</c></rc>
    <rc><c>B </c><c>   3</c></rc>
    <rc><c>B </c><c>   3</c></rc>
    <rc><c>B </c><c>   3</c></rc>
    <rc><c>B </c><c>   3</c></rc>
    <rc><c>B </c><c>   3</c></rc>
    <rc><c>B </c><c>   3</c></rc>
    <rc><c>B </c><c>   3</c></rc>
    <rc><c>B </c><c>   3</c></rc>
    <rc><c>B </c><c>   3</c></rc>
    <rc><c>B </c><c>   3</c></rc>
    <rc><c>B </c><c>   3</c></rc>
    <rc><c>B </c><c>   3</c></rc>
    <rc><c>B </c><c>   3</c></rc>
    <rc><c>B </c><c>   3</c></rc>
    <rc><c>B </c><c>   3</c></rc>
    <rc><c>B </c><c>   3</c></rc>
    <rc><c>B </c><c>   3</c></rc>
    <rc><c>B </c><c>   3</c></rc>
    <rc><c>B </c><c>   3</c></rc>
    <rc><c>B </c><c>   3</c></rc>
    <rc><c>B </c><c>   3</c></rc>
    <rc><c>B </c><c>   3</c></rc>
    <rc><c>B </c><c>   3</c></rc>
    <rc><c>B </c><c>   3</c></rc>
    <rc><c>B </c><c>   3</c></rc>
    <rc><c>B </c><c>   3</c></rc>
    <rc><c>B </c><c>   3</c></rc>
    <rc><c>B </c><c>   3</c></rc>
    <rc><c>B </c><c>   3</c></rc>
    <rc><c>B </c><c>   3</c></rc>
    <rc><c>B </c><c>   3</c></rc>
    <rc><c>B </c><c>   3</c></rc>
    <rc><c>B </c><c>   3</c></rc>
    <rc><c>B </c><c>   3</c></rc>
    <rc><c>B </c><c>   3</c></rc>
    <rc><c>B </c><c>   3</c></rc>
    <rc><c>B </c><c>   3</c></rc>
    <rc><c>B </c><c>   3</c></rc>
    <rc><c>B </c><c>   3</c></rc>
    <rc><c>B </c><c>   3</c></rc>
    <rc><c>B </c><c>   3</c></rc>
    <rc><c>B </c><c>   3</c></rc>
    <rc><c>B </c><c>   3</c></rc>
    <rc><c>B </c><c>   3</c></rc>
    <rc><c>B </c><c>   3</c></rc>
    <rc><c>B </c><c>   3</c></rc>
    <rc><c>B </c><c>   3</c></rc>
    <rc><c>B </c><c>   3</c></rc>
    <rc><c>B </c><c>   3</c></rc>
    <rc><c>B </c><c>   3</c></rc>
    <rc><c>B </c><c>   3</c></rc>
    <rc><c>B </c><c>   3</c></rc>
    <rc><c>B </c><c>   3</c></rc>
    <rc><c>B </c><c>   3</c></rc>
    <rc><c>B </c><c>   3</c></rc>
    <rc><c>B </c><c>   3</c></rc>
    <rc><c>B </c><c>   3</c></rc>
    <rc><c>B </c><c>   3</c></rc>
    <rc><c>B </c><c>   3</c></rc>
    <rc><c>B </c><c>   3</c></rc>
   </set>
  </array>
  <array name="atomtypes" >
   <dimension dim="1">type</dimension>
   <field type="int">atomspertype</field>
   <field type="string">element</field>
   <field>mass</field>
   <field>valence</field>
   <field type="string">pseudopotential</field>
   <set>
    <rc><c>   1</c><c>P </c><c>     30.97400000</c><c>      5.00000000</c><c>  PAW_PBE P 06Sep2000                   </c></rc>
    <rc><c> 144</c><c>N </c><c>     14.00100000</c><c>      5.00000000</c><c>  PAW_PBE N 08Apr2002                   </c></rc>
    <rc><c> 143</c><c>B </c><c>     10.81100000</c><c>      3.00000000</c><c>  PAW_PBE B 06Sep2000                   </c></rc>
   </set>
  </array>
 </atominfo>
 <structure name="initialpos" >
  <crystal>
   <varray name="basis" >
    <v>      14.93631415       0.00000000       0.00000000 </v>
    <v>      -7.46815707      12.93522749      -0.00000000 </v>
    <v>       0.00000000       0.00000000      13.34127628 </v>
   </varray>
   <i name="volume">   2577.59623255 </i>
   <varray name="rec_basis" >
    <v>       0.06695092       0.03865413      -0.00000000 </v>
    <v>       0.00000000       0.07730827      -0.00000000 </v>
    <v>       0.00000000       0.00000000       0.07495535 </v>
   </varray>
  </crystal>
  <varray name="positions" >
   <v>       0.44444444       0.38888889       0.37500000 </v>
   <v>       0.11110578       0.05553988       0.12514209 </v>
   <v>       0.61111893       0.55556454       0.12533815 </v>
   <v>       0.44443410       0.05553988       0.12514209 </v>
   <v>       0.94445577       0.55556472       0.12511237 </v>
   <v>       0.77777778       0.05555556       0.12508750 </v>
   <v>       0.11111111       0.72222222       0.62490204 </v>
   <v>       0.44443410       0.72222755       0.62485791 </v>
   <v>       0.27776879       0.22221440       0.62466185 </v>
   <v>       0.77779345       0.72222755       0.62485791 </v>
   <v>       0.61111409       0.22221925       0.62484996 </v>
   <v>       0.94444599       0.22222938       0.62490241 </v>
   <v>       0.27776861       0.72222439       0.12511237 </v>
   <v>       0.11110516       0.22221925       0.12515004 </v>
   <v>       0.44444561       0.22221440       0.12533815 </v>
   <v>       0.61111409       0.72222817       0.12515004 </v>
   <v>       0.94445577       0.72222439       0.12511237 </v>
   <v>       0.77778339       0.22222938       0.12509759 </v>
   <v>       0.11110895       0.88887756       0.62488763 </v>
   <v>       0.44443273       0.88888303       0.62489877 </v>
   <v>       0.27776879       0.38888773       0.62466185 </v>
   <v>       0.61111893       0.38888773       0.62466185 </v>
   <v>       0.77778339       0.88888734       0.62490241 </v>
   <v>       0.94445030       0.38890061       0.62489877 </v>
   <v>       0.11110578       0.38889924       0.12514209 </v>
   <v>       0.27776861       0.88887756       0.12511237 </v>
   <v>       0.61110395       0.88888734       0.12509759 </v>
   <v>       0.44444444       0.38888889       0.12572567 </v>
   <v>       0.94445030       0.88888303       0.12510123 </v>
   <v>       0.77779345       0.38889924       0.12514209 </v>
   <v>       0.27776995       0.55556338       0.62481384 </v>
   <v>       0.11110578       0.05553988       0.62485791 </v>
   <v>       0.61111893       0.55556454       0.62466185 </v>
   <v>       0.44443410       0.05553988       0.62485791 </v>
   <v>       0.94445577       0.55556472       0.62488763 </v>
   <v>       0.11110895       0.55556472       0.12511237 </v>
   <v>       0.77777778       0.05555556       0.62491250 </v>
   <v>       0.27776995       0.05553990       0.12518616 </v>
   <v>       0.44444561       0.55556454       0.12533815 </v>
   <v>       0.77779343       0.55556338       0.12518616 </v>
   <v>       0.61110395       0.05554994       0.12509759 </v>
   <v>       0.44444561       0.55556454       0.62466185 </v>
   <v>       0.94444599       0.05554994       0.12509759 </v>
   <v>       0.27776861       0.72222439       0.62488763 </v>
   <v>       0.11110516       0.22221925       0.62484996 </v>
   <v>       0.44444561       0.22221440       0.62466185 </v>
   <v>       0.61111409       0.72222817       0.62484996 </v>
   <v>       0.94445577       0.72222439       0.62488763 </v>
   <v>       0.77778339       0.22222938       0.62490241 </v>
   <v>       0.11111111       0.72222222       0.12509796 </v>
   <v>       0.44443410       0.72222755       0.12514209 </v>
   <v>       0.27776879       0.22221440       0.12533815 </v>
   <v>       0.77779345       0.72222755       0.12514209 </v>
   <v>       0.61111409       0.22221925       0.12515004 </v>
   <v>       0.94444599       0.22222938       0.12509759 </v>
   <v>       0.11110578       0.38889924       0.62485791 </v>
   <v>       0.27776861       0.88887756       0.62488763 </v>
   <v>       0.61110395       0.88888734       0.62490241 </v>
   <v>       0.44444444       0.38888889       0.62427433 </v>
   <v>       0.94445030       0.88888303       0.62489877 </v>
   <v>       0.11110895       0.88887756       0.12511237 </v>
   <v>       0.77779345       0.38889924       0.62485791 </v>
   <v>       0.44443273       0.88888303       0.12510123 </v>
   <v>       0.27776879       0.38888773       0.12533815 </v>
   <v>       0.27776995       0.55556338       0.12518616 </v>
   <v>       0.61111893       0.38888773       0.12533815 </v>
   <v>       0.77778339       0.88888734       0.12509759 </v>
   <v>       0.94445030       0.38890061       0.12510123 </v>
   <v>       0.11110895       0.55556472       0.62488763 </v>
   <v>       0.27776995       0.05553990       0.62481384 </v>
   <v>       0.77779343       0.55556338       0.62481384 </v>
   <v>       0.61110395       0.05554994       0.62490241 </v>
   <v>       0.94444599       0.05554994       0.62490241 </v>
   <v>       0.05492459       0.11067225       0.37500000 </v>
   <v>       0.55597948       0.61195895       0.37500000 </v>
   <v>       0.38821178       0.10798614       0.37500000 </v>
   <v>       0.88997050       0.61165191       0.37500000 </v>
   <v>       0.72233166       0.11100168       0.37500000 </v>
   <v>       0.05555347       0.77777986       0.87500000 </v>
   <v>       0.38889499       0.77778040       0.87500000 </v>
   <v>       0.22222211       0.27777772       0.87500000 </v>
   <v>       0.72222208       0.77778036       0.87500000 </v>
   <v>       0.55555561       0.27777772       0.87500000 </v>
   <v>       0.88888780       0.27777560       0.87500000 </v>
   <v>       0.22203010       0.77768172       0.37500000 </v>
   <v>       0.05492459       0.27758567       0.37500000 </v>
   <v>       0.38321436       0.26642872       0.37500000 </v>
   <v>       0.55574766       0.77840874       0.37500000 </v>
   <v>       0.88973042       0.77847773       0.37500000 </v>
   <v>       0.72266108       0.27758567       0.37500000 </v>
   <v>       0.05555294       0.94444793       0.87500000 </v>
   <v>       0.38889499       0.94444793       0.87500000 </v>
   <v>       0.22222295       0.44443974       0.87500000 </v>
   <v>       0.55555250       0.44444291       0.87500000 </v>
   <v>       0.72222259       0.94444517       0.87500000 </v>
   <v>       0.88888540       0.44443834       0.87500000 </v>
   <v>       0.05485561       0.44458602       0.37500000 </v>
   <v>       0.22168142       0.94336284       0.37500000 </v>
   <v>       0.55571596       0.94452465       0.37500000 </v>
   <v>       0.38321436       0.45011897       0.37500000 </v>
   <v>       0.88880868       0.94452465       0.37500000 </v>
   <v>       0.72534720       0.44512155       0.37500000 </v>
   <v>       0.22222502       0.61110832       0.87500000 </v>
   <v>       0.05555297       0.11111126       0.87500000 </v>
   <v>       0.55555561       0.61111123       0.87500000 </v>
   <v>       0.38889360       0.11111654       0.87500000 </v>
   <v>       0.88888330       0.61110832       0.87500000 </v>
   <v>       0.05565162       0.61130323       0.37500000 </v>
   <v>       0.72222259       0.11111075       0.87500000 </v>
   <v>       0.21977436       0.10798614       0.37500000 </v>
   <v>       0.38821178       0.61355898       0.37500000 </v>
   <v>       0.72534720       0.61355898       0.37500000 </v>
   <v>       0.55574766       0.11067225       0.37500000 </v>
   <v>       0.38889360       0.61111039       0.87500000 </v>
   <v>       0.88867002       0.11100168       0.37500000 </v>
   <v>       0.22222639       0.77777986       0.87500000 </v>
   <v>       0.05555297       0.27777505       0.87500000 </v>
   <v>       0.38889042       0.27778084       0.87500000 </v>
   <v>       0.55555829       0.77778036       0.87500000 </v>
   <v>       0.88888540       0.77778040       0.87500000 </v>
   <v>       0.72222208       0.27777505       0.87500000 </v>
   <v>       0.05565162       0.77768172       0.37500000 </v>
   <v>       0.38874731       0.77847773       0.37500000 </v>
   <v>       0.22137438       0.27735386       0.37500000 </v>
   <v>       0.72266108       0.77840874       0.37500000 </v>
   <v>       0.55597948       0.27735386       0.37500000 </v>
   <v>       0.88880868       0.27761737       0.37500000 </v>
   <v>       0.05555294       0.44443834       0.87500000 </v>
   <v>       0.22222502       0.94445003       0.87500000 </v>
   <v>       0.55555773       0.94444553       0.87500000 </v>
   <v>       0.38889042       0.44444291       0.87500000 </v>
   <v>       0.88888780       0.94444553       0.87500000 </v>
   <v>       0.05485561       0.94360291       0.37500000 </v>
   <v>       0.72221679       0.44443974       0.87500000 </v>
   <v>       0.38874731       0.94360291       0.37500000 </v>
   <v>       0.21977436       0.44512155       0.37500000 </v>
   <v>       0.22168142       0.61165191       0.37500000 </v>
   <v>       0.56690462       0.45011897       0.37500000 </v>
   <v>       0.72233166       0.94466331       0.37500000 </v>
   <v>       0.88973042       0.44458602       0.37500000 </v>
   <v>       0.05555347       0.61110694       0.87500000 </v>
   <v>       0.22222295       0.11111654       0.87500000 </v>
   <v>       0.72221679       0.61111039       0.87500000 </v>
   <v>       0.55555829       0.11111126       0.87500000 </v>
   <v>       0.88888816       0.11111075       0.87500000 </v>
   <v>       0.10888702       0.05363429       0.37500000 </v>
   <v>       0.61662821       0.56151023       0.37500000 </v>
   <v>       0.44474727       0.05363429       0.37500000 </v>
   <v>       0.94505350       0.55569452       0.37500000 </v>
   <v>       0.77777778       0.05555556       0.37500000 </v>
   <v>       0.11111111       0.72222222       0.87500000 </v>
   <v>       0.44445789       0.72225917       0.87500000 </v>
   <v>       0.27773656       0.22218886       0.87500000 </v>
   <v>       0.77780129       0.72225917       0.87500000 </v>
   <v>       0.61113701       0.22219632       0.87500000 </v>
   <v>       0.94441891       0.22220602       0.87500000 </v>
   <v>       0.27763881       0.72269232       0.37500000 </v>
   <v>       0.10939752       0.22136543       0.37500000 </v>
   <v>       0.44488202       0.21670513       0.37500000 </v>
   <v>       0.61196791       0.72393582       0.37500000 </v>
   <v>       0.94505350       0.72269232       0.37500000 </v>
   <v>       0.77798832       0.22181380       0.37500000 </v>
   <v>       0.11109976       0.88887925       0.87500000 </v>
   <v>       0.44445802       0.88889568       0.87500000 </v>
   <v>       0.27773656       0.38888103       0.87500000 </v>
   <v>       0.61114447       0.38888103       0.87500000 </v>
   <v>       0.77778711       0.88891442       0.87500000 </v>
   <v>       0.94443766       0.38887531       0.87500000 </v>
   <v>       0.10888702       0.38858606       0.37500000 </v>
   <v>       0.27763881       0.88827983       0.37500000 </v>
   <v>       0.61151953       0.88950785       0.37500000 </v>
   <v>       0.94428960       0.88904373       0.37500000 </v>
   <v>       0.77969904       0.38858606       0.37500000 </v>
   <v>       0.27776270       0.55557063       0.87500000 </v>
   <v>       0.11107416       0.05553205       0.87500000 </v>
   <v>       0.61114447       0.55559678       0.87500000 </v>
   <v>       0.44445789       0.05553205       0.87500000 </v>
   <v>       0.94445408       0.55555385       0.87500000 </v>
   <v>       0.11064101       0.55569452       0.37500000 </v>
   <v>       0.77777778       0.05555556       0.87500000 </v>
   <v>       0.27665444       0.05330889       0.37500000 </v>
   <v>       0.44488202       0.56151023       0.37500000 </v>
   <v>       0.78002445       0.55667889       0.37500000 </v>
   <v>       0.61151953       0.05534502       0.37500000 </v>
   <v>       0.44445231       0.55559678       0.87500000 </v>
   <v>       0.94382548       0.05534502       0.37500000 </v>
   <v>       0.27777949       0.72223357       0.87500000 </v>
   <v>       0.11105932       0.22219632       0.87500000 </v>
   <v>       0.44445231       0.22218886       0.87500000 </v>
   <v>       0.61113701       0.72227402       0.87500000 </v>
   <v>       0.94445408       0.72223357       0.87500000 </v>
   <v>       0.77778711       0.22220602       0.87500000 </v>
   <v>       0.11111111       0.72222222       0.37500000 </v>
   <v>       0.44474727       0.72444631       0.37500000 </v>
   <v>       0.27182310       0.21670513       0.37500000 </v>
   <v>       0.77969904       0.72444631       0.37500000 </v>
   <v>       0.61196791       0.22136543       0.37500000 </v>
   <v>       0.94382548       0.22181380       0.37500000 </v>
   <v>       0.11107416       0.38887545       0.87500000 </v>
   <v>       0.27777949       0.88887925       0.87500000 </v>
   <v>       0.61112731       0.88891442       0.87500000 </v>
   <v>       0.44444444       0.38888889       0.87500000 </v>
   <v>       0.94443766       0.88889568       0.87500000 </v>
   <v>       0.11064101       0.88827983       0.37500000 </v>
   <v>       0.77780129       0.38887545       0.87500000 </v>
   <v>       0.44475413       0.88904373       0.37500000 </v>
   <v>       0.27182310       0.38845131       0.37500000 </v>
   <v>       0.27665444       0.55667889       0.37500000 </v>
   <v>       0.61662821       0.38845131       0.37500000 </v>
   <v>       0.77798832       0.88950785       0.37500000 </v>
   <v>       0.94428960       0.38857921       0.37500000 </v>
   <v>       0.11109976       0.55555385       0.87500000 </v>
   <v>       0.27776270       0.05552540       0.87500000 </v>
   <v>       0.77780793       0.55557063       0.87500000 </v>
   <v>       0.61112731       0.05554622       0.87500000 </v>
   <v>       0.94441891       0.05554622       0.87500000 </v>
   <v>       0.05546928       0.11103632       0.12487403 </v>
   <v>       0.55563492       0.61126984       0.12476730 </v>
   <v>       0.38882801       0.11092619       0.12483104 </v>
   <v>       0.88900701       0.61117017       0.12488859 </v>
   <v>       0.72156507       0.11109875       0.12491481 </v>
   <v>       0.05557215       0.77776118       0.62509033 </v>
   <v>       0.38885004       0.77781495       0.62510653 </v>
   <v>       0.22206349       0.27769841       0.62523270 </v>
   <v>       0.72229702       0.77786405       0.62512597 </v>
   <v>       0.55563492       0.27769841       0.62523270 </v>
   <v>       0.88889259       0.27778519       0.62508998 </v>
   <v>       0.22218903       0.77776118       0.12490967 </v>
   <v>       0.05546928       0.27776630       0.12487403 </v>
   <v>       0.38878395       0.27756790       0.12459556 </v>
   <v>       0.55556704       0.77786405       0.12487403 </v>
   <v>       0.88896491       0.77781495       0.12489347 </v>
   <v>       0.72229702       0.27776630       0.12487403 </v>
   <v>       0.05551838       0.94436842       0.62510653 </v>
   <v>       0.38885004       0.94436842       0.62510653 </v>
   <v>       0.22209818       0.44450532       0.62516896 </v>
   <v>       0.55576543       0.44454938       0.62540444 </v>
   <v>       0.72223458       0.94446917       0.62508519 </v>
   <v>       0.88896491       0.44448330       0.62510653 </v>
   <v>       0.05551838       0.44448330       0.12489347 </v>
   <v>       0.22216316       0.94432633       0.12488859 </v>
   <v>       0.55554814       0.94444074       0.12491002 </v>
   <v>       0.38878395       0.44454938       0.12459556 </v>
   <v>       0.88889259       0.94444074       0.12491002 </v>
   <v>       0.72240714       0.44450532       0.12483104 </v>
   <v>       0.22216316       0.61117017       0.62511141 </v>
   <v>       0.05546928       0.11103632       0.62512597 </v>
   <v>       0.55563492       0.61126984       0.62523270 </v>
   <v>       0.38882801       0.11092619       0.62516896 </v>
   <v>       0.88900701       0.61117017       0.62511141 </v>
   <v>       0.05557215       0.61114430       0.12490967 </v>
   <v>       0.72223458       0.11109875       0.62508519 </v>
   <v>       0.22209818       0.11092619       0.12483104 </v>
   <v>       0.38882801       0.61123515       0.12483104 </v>
   <v>       0.72240714       0.61123515       0.12483104 </v>
   <v>       0.55556704       0.11103632       0.12487403 </v>
   <v>       0.38882801       0.61123515       0.62516896 </v>
   <v>       0.88886417       0.11109875       0.12491481 </v>
   <v>       0.22218903       0.77776118       0.62509033 </v>
   <v>       0.05546928       0.27776630       0.62512597 </v>
   <v>       0.38878395       0.27756790       0.62540444 </v>
   <v>       0.55556704       0.77786405       0.62512597 </v>
   <v>       0.88896491       0.77781495       0.62510653 </v>
   <v>       0.72229702       0.27776630       0.62512597 </v>
   <v>       0.05557215       0.77776118       0.12490967 </v>
   <v>       0.38885004       0.77781495       0.12489347 </v>
   <v>       0.22206349       0.27769841       0.12476730 </v>
   <v>       0.72229702       0.77786405       0.12487403 </v>
   <v>       0.55563492       0.27769841       0.12476730 </v>
   <v>       0.88889259       0.27778519       0.12491002 </v>
   <v>       0.05551838       0.44448330       0.62510653 </v>
   <v>       0.22216316       0.94432633       0.62511141 </v>
   <v>       0.55554814       0.94444074       0.62508998 </v>
   <v>       0.38878395       0.44454938       0.62540444 </v>
   <v>       0.88889259       0.94444074       0.62508998 </v>
   <v>       0.05551838       0.94436842       0.12489347 </v>
   <v>       0.72240714       0.44450532       0.62516896 </v>
   <v>       0.38885004       0.94436842       0.12489347 </v>
   <v>       0.22209818       0.44450532       0.12483104 </v>
   <v>       0.22216316       0.61117017       0.12488859 </v>
   <v>       0.55576543       0.44454938       0.12459556 </v>
   <v>       0.72223458       0.94446917       0.12491481 </v>
   <v>       0.88896491       0.44448330       0.12489347 </v>
   <v>       0.05557215       0.61114430       0.62509033 </v>
   <v>       0.22209818       0.11092619       0.62516896 </v>
   <v>       0.72240714       0.61123515       0.62516896 </v>
   <v>       0.55556704       0.11103632       0.62512597 </v>
   <v>       0.88886417       0.11109875       0.62508519 </v>
  </varray>
 </structure>
 <calculation>
  <scstep>
   <time name="dav">    8.29    8.29</time>
   <time name="total">    8.51    8.51</time>
   <energy>
    <i name="alphaZ">   2866.36594071 </i>
    <i name="ewald"> -35860.82604707 </i>
    <i name="hartreedc"> -13235.41021136 </i>
    <i name="XCdc">   3913.00038791 </i>
    <i name="pawpsdc">  35870.55371313 </i>
    <i name="pawaedc"> -35911.58316637 </i>
    <i name="eentropy">     -0.04270263 </i>
    <i name="bandstr">     62.64537122 </i>
    <i name="atom">  48446.24376545 </i>
    <i name="e_fr_energy">   6150.94705100 </i>
    <i name="e_wo_entrp">   6150.98975363 </i>
    <i name="e_0_energy">   6150.96840232 </i>
   </energy>
  </scstep>
  <scstep>
   <time name="dav">    9.71    9.71</time>
   <time name="total">    9.72    9.72</time>
   <energy>
    <i name="e_fr_energy">  -2175.98803224 </i>
    <i name="e_wo_entrp">  -2175.97171347 </i>
    <i name="e_0_energy">  -2175.97987285 </i>
   </energy>
  </scstep>
  <scstep>
   <time name="dav">    9.13    9.12</time>
   <time name="total">    9.14    9.14</time>
   <energy>
    <i name="e_fr_energy">  -2778.36082952 </i>
    <i name="e_wo_entrp">  -2778.34845149 </i>
    <i name="e_0_energy">  -2778.35464051 </i>
   </energy>
  </scstep>
  <scstep>
   <time name="dav">    9.20    9.19</time>
   <time name="total">    9.21    9.20</time>
   <energy>
    <i name="e_fr_energy">  -2792.06914112 </i>
    <i name="e_wo_entrp">  -2792.05864431 </i>
    <i name="e_0_energy">  -2792.06389272 </i>
   </energy>
  </scstep>
  <scstep>
   <time name="dav">    9.21    9.21</time>
   <time name="total">    9.47    9.47</time>
   <energy>
    <i name="e_fr_energy">  -2792.43902776 </i>
    <i name="e_wo_entrp">  -2792.42860866 </i>
    <i name="e_0_energy">  -2792.43381821 </i>
   </energy>
  </scstep>
  <scstep>
   <time name="diag">    0.64    0.64</time>
   <time name="diis">    5.00    4.99</time>
   <time name="orth">    0.27    0.27</time>
   <time name="total">    6.37    6.37</time>
   <energy>
    <i name="e_fr_energy">  -2547.78320536 </i>
    <i name="e_wo_entrp">  -2547.78320536 </i>
    <i name="e_0_energy">  -2547.78320536 </i>
   </energy>
  </scstep>
  <scstep>
   <time name="diag">    0.65    0.65</time>
   <time name="diis">    5.18    5.18</time>
   <time name="orth">    0.27    0.27</time>
   <time name="total">    6.57    6.57</time>
   <energy>
    <i name="e_fr_energy">  -2533.07994035 </i>
    <i name="e_wo_entrp">  -2533.07994035 </i>
    <i name="e_0_energy">  -2533.07994035 </i>
   </energy>
  </scstep>
  <scstep>
   <time name="diag">    0.63    0.63</time>
   <time name="diis">    5.22    5.21</time>
   <time name="orth">    0.27    0.27</time>
   <time name="total">    6.60    6.59</time>
   <energy>
    <i name="e_fr_energy">  -2530.01760481 </i>
    <i name="e_wo_entrp">  -2530.01760481 </i>
    <i name="e_0_energy">  -2530.01760481 </i>
   </energy>
  </scstep>
  <scstep>
   <time name="diag">    0.64    0.64</time>
   <time name="diis">    5.43    5.43</time>
   <time name="orth">    0.27    0.27</time>
   <time name="total">    6.82    6.81</time>
   <energy>
    <i name="e_fr_energy">  -2526.12955510 </i>
    <i name="e_wo_entrp">  -2526.12955510 </i>
    <i name="e_0_energy">  -2526.12955510 </i>
   </energy>
  </scstep>
  <scstep>
   <time name="diag">    0.65    0.65</time>
   <time name="diis">    5.58    5.58</time>
   <time name="orth">    0.27    0.27</time>
   <time name="total">    6.98    6.97</time>
   <energy>
    <i name="e_fr_energy">  -2526.20155002 </i>
    <i name="e_wo_entrp">  -2526.20155002 </i>
    <i name="e_0_energy">  -2526.20155002 </i>
   </energy>
  </scstep>
  <scstep>
   <time name="diag">    0.65    0.65</time>
   <time name="diis">    5.59    5.58</time>
   <time name="orth">    0.27    0.27</time>
   <time name="total">    6.96    6.95</time>
   <energy>
    <i name="e_fr_energy">  -2526.22342383 </i>
    <i name="e_wo_entrp">  -2526.22342383 </i>
    <i name="e_0_energy">  -2526.22342383 </i>
   </energy>
  </scstep>
  <scstep>
   <time name="diag">    0.63    0.63</time>
   <time name="diis">    5.62    5.61</time>
   <time name="orth">    0.27    0.27</time>
   <time name="total">    7.00    7.00</time>
   <energy>
    <i name="e_fr_energy">  -2526.19620045 </i>
    <i name="e_wo_entrp">  -2526.19620045 </i>
    <i name="e_0_energy">  -2526.19620045 </i>
   </energy>
  </scstep>
  <scstep>
   <time name="diag">    0.68    0.68</time>
   <time name="diis">    5.69    5.69</time>
   <time name="orth">    0.27    0.27</time>
   <time name="total">    7.11    7.10</time>
   <energy>
    <i name="e_fr_energy">  -2526.19511084 </i>
    <i name="e_wo_entrp">  -2526.19511084 </i>
    <i name="e_0_energy">  -2526.19511084 </i>
   </energy>
  </scstep>
  <scstep>
   <time name="diag">    0.64    0.64</time>
   <time name="diis">    5.90    5.89</time>
   <time name="orth">    0.27    0.27</time>
   <time name="total">    7.28    7.27</time>
   <energy>
    <i name="e_fr_energy">  -2526.19539061 </i>
    <i name="e_wo_entrp">  -2526.19539061 </i>
    <i name="e_0_energy">  -2526.19539061 </i>
   </energy>
  </scstep>
  <scstep>
   <time name="diag">    0.65    0.65</time>
   <time name="diis">    5.90    5.90</time>
   <time name="orth">    0.27    0.27</time>
   <time name="total">    7.28    7.28</time>
   <energy>
    <i name="e_fr_energy">  -2526.19547800 </i>
    <i name="e_wo_entrp">  -2526.19547800 </i>
    <i name="e_0_energy">  -2526.19547800 </i>
   </energy>
  </scstep>
  <scstep>
   <time name="diag">    0.64    0.64</time>
   <time name="diis">    5.83    5.82</time>
   <time name="orth">    0.27    0.27</time>
   <time name="total">    7.23    7.23</time>
   <energy>
    <i name="e_fr_energy">  -2526.19544732 </i>
    <i name="e_wo_entrp">  -2526.19544732 </i>
    <i name="e_0_energy">  -2526.19544732 </i>
   </energy>
  </scstep>
  <scstep>
   <time name="diag">    0.64    0.64</time>
   <time name="diis">    5.78    5.77</time>
   <time name="orth">    0.27    0.27</time>
   <time name="total">    7.14    7.14</time>
   <energy>
    <i name="e_fr_energy">  -2526.19543919 </i>
    <i name="e_wo_entrp">  -2526.19543919 </i>
    <i name="e_0_energy">  -2526.19543919 </i>
   </energy>
  </scstep>
  <scstep>
   <time name="diag">    0.64    0.64</time>
   <time name="diis">    5.55    5.55</time>
   <time name="orth">    0.27    0.27</time>
   <time name="total">    6.92    6.92</time>
   <energy>
    <i name="e_fr_energy">  -2526.19543954 </i>
    <i name="e_wo_entrp">  -2526.19543954 </i>
    <i name="e_0_energy">  -2526.19543954 </i>
   </energy>
  </scstep>
  <scstep>
   <time name="diag">    0.63    0.62</time>
   <time name="diis">    4.49    4.49</time>
   <time name="orth">    0.27    0.27</time>
   <time name="total">    5.62    5.61</time>
   <energy>
    <i name="alphaZ">   2866.36594071 </i>
    <i name="ewald"> -35860.82604707 </i>
    <i name="hartreedc"> -16414.54419086 </i>
    <i name="XCdc">   4103.41367855 </i>
    <i name="pawpsdc"> 140224.98636015 </i>
    <i name="pawaedc">-140325.56490372 </i>
    <i name="eentropy">     -0.00000000 </i>
    <i name="bandstr">  -5566.27004240 </i>
    <i name="atom">  48446.24376545 </i>
    <i name="e_fr_energy">  -2526.19543919 </i>
    <i name="e_wo_entrp">  -2526.19543919 </i>
    <i name="e_0_energy">  -2526.19543919 </i>
   </energy>
  </scstep>
  <structure>
   <crystal>
    <varray name="basis" >
     <v>      14.93631415       0.00000000       0.00000000 </v>
     <v>      -7.46815707      12.93522749      -0.00000000 </v>
     <v>       0.00000000       0.00000000      13.34127628 </v>
    </varray>
    <i name="volume">   2577.59623255 </i>
    <varray name="rec_basis" >
     <v>       0.06695092       0.03865413      -0.00000000 </v>
     <v>       0.00000000       0.07730827      -0.00000000 </v>
     <v>       0.00000000       0.00000000       0.07495535 </v>
    </varray>
   </crystal>
   <varray name="positions" >
    <v>       0.44444444       0.38888889       0.37500000 </v>
    <v>       0.11110578       0.05553988       0.12514209 </v>
    <v>       0.61111893       0.55556454       0.12533815 </v>
    <v>       0.44443410       0.05553988       0.12514209 </v>
    <v>       0.94445577       0.55556472       0.12511237 </v>
    <v>       0.77777778       0.05555556       0.12508750 </v>
    <v>       0.11111111       0.72222222       0.62490204 </v>
    <v>       0.44443410       0.72222755       0.62485791 </v>
    <v>       0.27776879       0.22221440       0.62466185 </v>
    <v>       0.77779345       0.72222755       0.62485791 </v>
    <v>       0.61111409       0.22221925       0.62484996 </v>
    <v>       0.94444599       0.22222938       0.62490241 </v>
    <v>       0.27776861       0.72222439       0.12511237 </v>
    <v>       0.11110516       0.22221925       0.12515004 </v>
    <v>       0.44444561       0.22221440       0.12533815 </v>
    <v>       0.61111409       0.72222817       0.12515004 </v>
    <v>       0.94445577       0.72222439       0.12511237 </v>
    <v>       0.77778339       0.22222938       0.12509759 </v>
    <v>       0.11110895       0.88887756       0.62488763 </v>
    <v>       0.44443273       0.88888303       0.62489877 </v>
    <v>       0.27776879       0.38888773       0.62466185 </v>
    <v>       0.61111893       0.38888773       0.62466185 </v>
    <v>       0.77778339       0.88888734       0.62490241 </v>
    <v>       0.94445030       0.38890061       0.62489877 </v>
    <v>       0.11110578       0.38889924       0.12514209 </v>
    <v>       0.27776861       0.88887756       0.12511237 </v>
    <v>       0.61110395       0.88888734       0.12509759 </v>
    <v>       0.44444444       0.38888889       0.12572567 </v>
    <v>       0.94445030       0.88888303       0.12510123 </v>
    <v>       0.77779345       0.38889924       0.12514209 </v>
    <v>       0.27776995       0.55556338       0.62481384 </v>
    <v>       0.11110578       0.05553988       0.62485791 </v>
    <v>       0.61111893       0.55556454       0.62466185 </v>
    <v>       0.44443410       0.05553988       0.62485791 </v>
    <v>       0.94445577       0.55556472       0.62488763 </v>
    <v>       0.11110895       0.55556472       0.12511237 </v>
    <v>       0.77777778       0.05555556       0.62491250 </v>
    <v>       0.27776995       0.05553990       0.12518616 </v>
    <v>       0.44444561       0.55556454       0.12533815 </v>
    <v>       0.77779343       0.55556338       0.12518616 </v>
    <v>       0.61110395       0.05554994       0.12509759 </v>
    <v>       0.44444561       0.55556454       0.62466185 </v>
    <v>       0.94444599       0.05554994       0.12509759 </v>
    <v>       0.27776861       0.72222439       0.62488763 </v>
    <v>       0.11110516       0.22221925       0.62484996 </v>
    <v>       0.44444561       0.22221440       0.62466185 </v>
    <v>       0.61111409       0.72222817       0.62484996 </v>
    <v>       0.94445577       0.72222439       0.62488763 </v>
    <v>       0.77778339       0.22222938       0.62490241 </v>
    <v>       0.11111111       0.72222222       0.12509796 </v>
    <v>       0.44443410       0.72222755       0.12514209 </v>
    <v>       0.27776879       0.22221440       0.12533815 </v>
    <v>       0.77779345       0.72222755       0.12514209 </v>
    <v>       0.61111409       0.22221925       0.12515004 </v>
    <v>       0.94444599       0.22222938       0.12509759 </v>
    <v>       0.11110578       0.38889924       0.62485791 </v>
    <v>       0.27776861       0.88887756       0.62488763 </v>
    <v>       0.61110395       0.88888734       0.62490241 </v>
    <v>       0.44444444       0.38888889       0.62427433 </v>
    <v>       0.94445030       0.88888303       0.62489877 </v>
    <v>       0.11110895       0.88887756       0.12511237 </v>
    <v>       0.77779345       0.38889924       0.62485791 </v>
    <v>       0.44443273       0.88888303       0.12510123 </v>
    <v>       0.27776879       0.38888773       0.12533815 </v>
    <v>       0.27776995       0.55556338       0.12518616 </v>
    <v>       0.61111893       0.38888773       0.12533815 </v>
    <v>       0.77778339       0.88888734       0.12509759 </v>
    <v>       0.94445030       0.38890061       0.12510123 </v>
    <v>       0.11110895       0.55556472       0.62488763 </v>
    <v>       0.27776995       0.05553990       0.62481384 </v>
    <v>       0.77779343       0.55556338       0.62481384 </v>
    <v>       0.61110395       0.05554994       0.62490241 </v>
    <v>       0.94444599       0.05554994       0.62490241 </v>
    <v>       0.05492459       0.11067225       0.37500000 </v>
    <v>       0.55597948       0.61195895       0.37500000 </v>
    <v>       0.38821178       0.10798614       0.37500000 </v>
    <v>       0.88997050       0.61165191       0.37500000 </v>
    <v>       0.72233166       0.11100168       0.37500000 </v>
    <v>       0.05555347       0.77777986       0.87500000 </v>
    <v>       0.38889499       0.77778040       0.87500000 </v>
    <v>       0.22222211       0.27777772       0.87500000 </v>
    <v>       0.72222208       0.77778036       0.87500000 </v>
    <v>       0.55555561       0.27777772       0.87500000 </v>
    <v>       0.88888780       0.27777560       0.87500000 </v>
    <v>       0.22203010       0.77768172       0.37500000 </v>
    <v>       0.05492459       0.27758567       0.37500000 </v>
    <v>       0.38321436       0.26642872       0.37500000 </v>
    <v>       0.55574766       0.77840874       0.37500000 </v>
    <v>       0.88973042       0.77847773       0.37500000 </v>
    <v>       0.72266108       0.27758567       0.37500000 </v>
    <v>       0.05555294       0.94444793       0.87500000 </v>
    <v>       0.38889499       0.94444793       0.87500000 </v>
    <v>       0.22222295       0.44443974       0.87500000 </v>
    <v>       0.55555250       0.44444291       0.87500000 </v>
    <v>       0.72222259       0.94444517       0.87500000 </v>
    <v>       0.88888540       0.44443834       0.87500000 </v>
    <v>       0.05485561       0.44458602       0.37500000 </v>
    <v>       0.22168142       0.94336284       0.37500000 </v>
    <v>       0.55571596       0.94452465       0.37500000 </v>
    <v>       0.38321436       0.45011897       0.37500000 </v>
    <v>       0.88880868       0.94452465       0.37500000 </v>
    <v>       0.72534720       0.44512155       0.37500000 </v>
    <v>       0.22222502       0.61110832       0.87500000 </v>
    <v>       0.05555297       0.11111126       0.87500000 </v>
    <v>       0.55555561       0.61111123       0.87500000 </v>
    <v>       0.38889360       0.11111654       0.87500000 </v>
    <v>       0.88888330       0.61110832       0.87500000 </v>
    <v>       0.05565162       0.61130323       0.37500000 </v>
    <v>       0.72222259       0.11111075       0.87500000 </v>
    <v>       0.21977436       0.10798614       0.37500000 </v>
    <v>       0.38821178       0.61355898       0.37500000 </v>
    <v>       0.72534720       0.61355898       0.37500000 </v>
    <v>       0.55574766       0.11067225       0.37500000 </v>
    <v>       0.38889360       0.61111039       0.87500000 </v>
    <v>       0.88867002       0.11100168       0.37500000 </v>
    <v>       0.22222639       0.77777986       0.87500000 </v>
    <v>       0.05555297       0.27777505       0.87500000 </v>
    <v>       0.38889042       0.27778084       0.87500000 </v>
    <v>       0.55555829       0.77778036       0.87500000 </v>
    <v>       0.88888540       0.77778040       0.87500000 </v>
    <v>       0.72222208       0.27777505       0.87500000 </v>
    <v>       0.05565162       0.77768172       0.37500000 </v>
    <v>       0.38874731       0.77847773       0.37500000 </v>
    <v>       0.22137438       0.27735386       0.37500000 </v>
    <v>       0.72266108       0.77840874       0.37500000 </v>
    <v>       0.55597948       0.27735386       0.37500000 </v>
    <v>       0.88880868       0.27761737       0.37500000 </v>
    <v>       0.05555294       0.44443834       0.87500000 </v>
    <v>       0.22222502       0.94445003       0.87500000 </v>
    <v>       0.55555773       0.94444553       0.87500000 </v>
    <v>       0.38889042       0.44444291       0.87500000 </v>
    <v>       0.88888780       0.94444553       0.87500000 </v>
    <v>       0.05485561       0.94360291       0.37500000 </v>
    <v>       0.72221679       0.44443974       0.87500000 </v>
    <v>       0.38874731       0.94360291       0.37500000 </v>
    <v>       0.21977436       0.44512155       0.37500000 </v>
    <v>       0.22168142       0.61165191       0.37500000 </v>
    <v>       0.56690462       0.45011897       0.37500000 </v>
    <v>       0.72233166       0.94466331       0.37500000 </v>
    <v>       0.88973042       0.44458602       0.37500000 </v>
    <v>       0.05555347       0.61110694       0.87500000 </v>
    <v>       0.22222295       0.11111654       0.87500000 </v>
    <v>       0.72221679       0.61111039       0.87500000 </v>
    <v>       0.55555829       0.11111126       0.87500000 </v>
    <v>       0.88888816       0.11111075       0.87500000 </v>
    <v>       0.10888702       0.05363429       0.37500000 </v>
    <v>       0.61662821       0.56151023       0.37500000 </v>
    <v>       0.44474727       0.05363429       0.37500000 </v>
    <v>       0.94505350       0.55569452       0.37500000 </v>
    <v>       0.77777778       0.05555556       0.37500000 </v>
    <v>       0.11111111       0.72222222       0.87500000 </v>
    <v>       0.44445789       0.72225917       0.87500000 </v>
    <v>       0.27773656       0.22218886       0.87500000 </v>
    <v>       0.77780129       0.72225917       0.87500000 </v>
    <v>       0.61113701       0.22219632       0.87500000 </v>
    <v>       0.94441891       0.22220602       0.87500000 </v>
    <v>       0.27763881       0.72269232       0.37500000 </v>
    <v>       0.10939752       0.22136543       0.37500000 </v>
    <v>       0.44488202       0.21670513       0.37500000 </v>
    <v>       0.61196791       0.72393582       0.37500000 </v>
    <v>       0.94505350       0.72269232       0.37500000 </v>
    <v>       0.77798832       0.22181380       0.37500000 </v>
    <v>       0.11109976       0.88887925       0.87500000 </v>
    <v>       0.44445802       0.88889568       0.87500000 </v>
    <v>       0.27773656       0.38888103       0.87500000 </v>
    <v>       0.61114447       0.38888103       0.87500000 </v>
    <v>       0.77778711       0.88891442       0.87500000 </v>
    <v>       0.94443766       0.38887531       0.87500000 </v>
    <v>       0.10888702       0.38858606       0.37500000 </v>
    <v>       0.27763881       0.88827983       0.37500000 </v>
    <v>       0.61151953       0.88950785       0.37500000 </v>
    <v>       0.94428960       0.88904373       0.37500000 </v>
    <v>       0.77969904       0.38858606       0.37500000 </v>
    <v>       0.27776270       0.55557063       0.87500000 </v>
    <v>       0.11107416       0.05553205       0.87500000 </v>
    <v>       0.61114447       0.55559678       0.87500000 </v>
    <v>       0.44445789       0.05553205       0.87500000 </v>
    <v>       0.94445408       0.55555385       0.87500000 </v>
    <v>       0.11064101       0.55569452       0.37500000 </v>
    <v>       0.77777778       0.05555556       0.87500000 </v>
    <v>       0.27665444       0.05330889       0.37500000 </v>
    <v>       0.44488202       0.56151023       0.37500000 </v>
    <v>       0.78002445       0.55667889       0.37500000 </v>
    <v>       0.61151953       0.05534502       0.37500000 </v>
    <v>       0.44445231       0.55559678       0.87500000 </v>
    <v>       0.94382548       0.05534502       0.37500000 </v>
    <v>       0.27777949       0.72223357       0.87500000 </v>
    <v>       0.11105932       0.22219632       0.87500000 </v>
    <v>       0.44445231       0.22218886       0.87500000 </v>
    <v>       0.61113701       0.72227402       0.87500000 </v>
    <v>       0.94445408       0.72223357       0.87500000 </v>
    <v>       0.77778711       0.22220602       0.87500000 </v>
    <v>       0.11111111       0.72222222       0.37500000 </v>
    <v>       0.44474727       0.72444631       0.37500000 </v>
    <v>       0.27182310       0.21670513       0.37500000 </v>
    <v>       0.77969904       0.72444631       0.37500000 </v>
    <v>       0.61196791       0.22136543       0.37500000 </v>
    <v>       0.94382548       0.22181380       0.37500000 </v>
    <v>       0.11107416       0.38887545       0.87500000 </v>
    <v>       0.27777949       0.88887925       0.87500000 </v>
    <v>       0.61112731       0.88891442       0.87500000 </v>
    <v>       0.44444444       0.38888889       0.87500000 </v>
    <v>       0.94443766       0.88889568       0.87500000 </v>
    <v>       0.11064101       0.88827983       0.37500000 </v>
    <v>       0.77780129       0.38887545       0.87500000 </v>
    <v>       0.44475413       0.88904373       0.37500000 </v>
    <v>       0.27182310       0.38845131       0.37500000 </v>
    <v>       0.27665444       0.55667889       0.37500000 </v>
    <v>       0.61662821       0.38845131       0.37500000 </v>
    <v>       0.77798832       0.88950785       0.37500000 </v>
    <v>       0.94428960       0.38857921       0.37500000 </v>
    <v>       0.11109976       0.55555385       0.87500000 </v>
    <v>       0.27776270       0.05552540       0.87500000 </v>
    <v>       0.77780793       0.55557063       0.87500000 </v>
    <v>       0.61112731       0.05554622       0.87500000 </v>
    <v>       0.94441891       0.05554622       0.87500000 </v>
    <v>       0.05546928       0.11103632       0.12487403 </v>
    <v>       0.55563492       0.61126984       0.12476730 </v>
    <v>       0.38882801       0.11092619       0.12483104 </v>
    <v>       0.88900701       0.61117017       0.12488859 </v>
    <v>       0.72156507       0.11109875       0.12491481 </v>
    <v>       0.05557215       0.77776118       0.62509033 </v>
    <v>       0.38885004       0.77781495       0.62510653 </v>
    <v>       0.22206349       0.27769841       0.62523270 </v>
    <v>       0.72229702       0.77786405       0.62512597 </v>
    <v>       0.55563492       0.27769841       0.62523270 </v>
    <v>       0.88889259       0.27778519       0.62508998 </v>
    <v>       0.22218903       0.77776118       0.12490967 </v>
    <v>       0.05546928       0.27776630       0.12487403 </v>
    <v>       0.38878395       0.27756790       0.12459556 </v>
    <v>       0.55556704       0.77786405       0.12487403 </v>
    <v>       0.88896491       0.77781495       0.12489347 </v>
    <v>       0.72229702       0.27776630       0.12487403 </v>
    <v>       0.05551838       0.94436842       0.62510653 </v>
    <v>       0.38885004       0.94436842       0.62510653 </v>
    <v>       0.22209818       0.44450532       0.62516896 </v>
    <v>       0.55576543       0.44454938       0.62540444 </v>
    <v>       0.72223458       0.94446917       0.62508519 </v>
    <v>       0.88896491       0.44448330       0.62510653 </v>
    <v>       0.05551838       0.44448330       0.12489347 </v>
    <v>       0.22216316       0.94432633       0.12488859 </v>
    <v>       0.55554814       0.94444074       0.12491002 </v>
    <v>       0.38878395       0.44454938       0.12459556 </v>
    <v>       0.88889259       0.94444074       0.12491002 </v>
    <v>       0.72240714       0.44450532       0.12483104 </v>
    <v>       0.22216316       0.61117017       0.62511141 </v>
    <v>       0.05546928       0.11103632       0.62512597 </v>
    <v>       0.55563492       0.61126984       0.62523270 </v>
    <v>       0.38882801       0.11092619       0.62516896 </v>
    <v>       0.88900701       0.61117017       0.62511141 </v>
    <v>       0.05557215       0.61114430       0.12490967 </v>
    <v>       0.72223458       0.11109875       0.62508519 </v>
    <v>       0.22209818       0.11092619       0.12483104 </v>
    <v>       0.38882801       0.61123515       0.12483104 </v>
    <v>       0.72240714       0.61123515       0.12483104 </v>
    <v>       0.55556704       0.11103632       0.12487403 </v>
    <v>       0.38882801       0.61123515       0.62516896 </v>
    <v>       0.88886417       0.11109875       0.12491481 </v>
    <v>       0.22218903       0.77776118       0.62509033 </v>
    <v>       0.05546928       0.27776630       0.62512597 </v>
    <v>       0.38878395       0.27756790       0.62540444 </v>
    <v>       0.55556704       0.77786405       0.62512597 </v>
    <v>       0.88896491       0.77781495       0.62510653 </v>
    <v>       0.72229702       0.27776630       0.62512597 </v>
    <v>       0.05557215       0.77776118       0.12490967 </v>
    <v>       0.38885004       0.77781495       0.12489347 </v>
    <v>       0.22206349       0.27769841       0.12476730 </v>
    <v>       0.72229702       0.77786405       0.12487403 </v>
    <v>       0.55563492       0.27769841       0.12476730 </v>
    <v>       0.88889259       0.27778519       0.12491002 </v>
    <v>       0.05551838       0.44448330       0.62510653 </v>
    <v>       0.22216316       0.94432633       0.62511141 </v>
    <v>       0.55554814       0.94444074       0.62508998 </v>
    <v>       0.38878395       0.44454938       0.62540444 </v>
    <v>       0.88889259       0.94444074       0.62508998 </v>
    <v>       0.05551838       0.94436842       0.12489347 </v>
    <v>       0.72240714       0.44450532       0.62516896 </v>
    <v>       0.38885004       0.94436842       0.12489347 </v>
    <v>       0.22209818       0.44450532       0.12483104 </v>
    <v>       0.22216316       0.61117017       0.12488859 </v>
    <v>       0.55576543       0.44454938       0.12459556 </v>
    <v>       0.72223458       0.94446917       0.12491481 </v>
    <v>       0.88896491       0.44448330       0.12489347 </v>
    <v>       0.05557215       0.61114430       0.62509033 </v>
    <v>       0.22209818       0.11092619       0.62516896 </v>
    <v>       0.72240714       0.61123515       0.62516896 </v>
    <v>       0.55556704       0.11103632       0.62512597 </v>
    <v>       0.88886417       0.11109875       0.62508519 </v>
   </varray>
  </structure>
  <varray name="forces" >
   <v>      -0.00040884       0.00032056      -0.00009423 </v>
   <v>       0.00193503      -0.00457676      -0.00018691 </v>
   <v>       0.00394533       0.00586935      -0.00325950 </v>
   <v>       0.01170752      -0.00173504      -0.00018444 </v>
   <v>       0.00214455       0.00230593       0.00067607 </v>
   <v>      -0.19289908       0.06508110      -0.00018934 </v>
   <v>       0.00012512       0.00010702      -0.00126664 </v>
   <v>      -0.00323007       0.00397609       0.00018759 </v>
   <v>      -0.00413481      -0.00704443       0.00326622 </v>
   <v>       0.00300268       0.00369048       0.00018497 </v>
   <v>       0.00767744      -0.00467002       0.00256100 </v>
   <v>      -0.00228948      -0.00199581       0.00054332 </v>
   <v>      -0.00203481       0.00339423       0.00067204 </v>
   <v>      -0.00420137      -0.00250217      -0.00254996 </v>
   <v>       0.00806180      -0.00907687      -0.00328404 </v>
   <v>      -0.00237989       0.00716192      -0.00255006 </v>
   <v>       0.00434563      -0.00022510       0.00067610 </v>
   <v>      -0.07716153      -0.00274156      -0.00054922 </v>
   <v>       0.00127720      -0.00279022      -0.00067389 </v>
   <v>      -0.00074944      -0.00018475      -0.00016230 </v>
   <v>      -0.00821804      -0.00015843       0.00326611 </v>
   <v>       0.00830096      -0.00045343       0.00326592 </v>
   <v>      -0.00100853       0.00280869       0.00054286 </v>
   <v>      -0.00018151       0.00079433      -0.00016284 </v>
   <v>      -0.00413102       0.00395675      -0.00018977 </v>
   <v>       0.00294390      -0.00063494       0.00067401 </v>
   <v>      -0.01947727       0.00299811      -0.00054485 </v>
   <v>       0.00110192      -0.00087927       0.00703667 </v>
   <v>       0.00449939      -0.00244957       0.00016188 </v>
   <v>      -0.00026900       0.00199521      -0.00019146 </v>
   <v>      -0.00592563       0.00358913      -0.00013373 </v>
   <v>      -0.00153730      -0.00451879       0.00018796 </v>
   <v>       0.00388961       0.00718725       0.00326584 </v>
   <v>       0.00185896      -0.00452568       0.00019105 </v>
   <v>       0.00190384       0.00229186      -0.00067469 </v>
   <v>      -0.00210781       0.00338916       0.00067293 </v>
   <v>      -0.00042613       0.00003457       0.00002940 </v>
   <v>       0.00378059      -0.00671760       0.00013430 </v>
   <v>      -0.00437365       0.00735717      -0.00326321 </v>
   <v>       0.00570865       0.00233773       0.00013854 </v>
   <v>      -0.19969494      -0.07262056      -0.00036848 </v>
   <v>      -0.00398490       0.00735717       0.00326430 </v>
   <v>       0.00690377      -0.00348468      -0.00054928 </v>
   <v>      -0.00294389       0.00074197      -0.00067191 </v>
   <v>      -0.00770418      -0.00439384       0.00255737 </v>
   <v>       0.00454459      -0.00716479       0.00326793 </v>
   <v>      -0.00021373       0.00898841       0.00255658 </v>
   <v>       0.00305646       0.00046975      -0.00067478 </v>
   <v>       0.00170860      -0.00215178       0.00054541 </v>
   <v>       0.00141376       0.00081694       0.00126549 </v>
   <v>      -0.00538604       0.00581006      -0.00019402 </v>
   <v>      -0.00179380      -0.00704598      -0.00326877 </v>
   <v>       0.00391360       0.00103706      -0.00018614 </v>
   <v>       0.01085075      -0.01800499      -0.00257584 </v>
   <v>       0.00091589       0.01128811      -0.00053614 </v>
   <v>      -0.00486041       0.00090902       0.00018715 </v>
   <v>      -0.00083798      -0.00268101      -0.00067300 </v>
   <v>       0.00037541       0.00293251       0.00054424 </v>
   <v>       0.00009749      -0.00006743      -0.00706899 </v>
   <v>       0.00073123      -0.00041849      -0.00016230 </v>
   <v>       0.00379110      -0.00277890       0.00067345 </v>
   <v>       0.00466615       0.00059043       0.00018537 </v>
   <v>       0.00527278       0.01183047       0.00017706 </v>
   <v>      -0.00722198       0.00064104      -0.00326111 </v>
   <v>      -0.00586346       0.00491444       0.00013255 </v>
   <v>       0.00903150      -0.00351240      -0.00326189 </v>
   <v>       0.00501752      -0.00923312      -0.00055450 </v>
   <v>      -0.00507633      -0.00053247       0.00016928 </v>
   <v>      -0.00194975       0.00246387      -0.00067353 </v>
   <v>       0.00029332      -0.00678470      -0.00013360 </v>
   <v>       0.00587165       0.00325000      -0.00013800 </v>
   <v>       0.00251072      -0.00073557       0.00055154 </v>
   <v>      -0.00290885      -0.00071770       0.00054358 </v>
   <v>      -0.00042852      -0.01187500       0.00034402 </v>
   <v>      -0.00013006       0.02494264       0.00005167 </v>
   <v>      -0.04109857      -0.04756166      -0.00034235 </v>
   <v>       0.01696683       0.00948863       0.00002671 </v>
   <v>      -0.00141772      -0.00084099       0.00000591 </v>
   <v>       0.00215700      -0.00092313       0.00000054 </v>
   <v>      -0.00224328       0.00057768       0.00029965 </v>
   <v>      -0.00201961      -0.00135760      -0.00010186 </v>
   <v>       0.00026953       0.00125146      -0.00029984 </v>
   <v>       0.00312343      -0.00231625       0.00035767 </v>
   <v>      -0.00099952      -0.00006142      -0.00036048 </v>
   <v>      -0.00097024      -0.00040697      -0.00016833 </v>
   <v>      -0.01074088       0.00548468       0.00035473 </v>
   <v>       0.00080867      -0.31797708      -0.00003462 </v>
   <v>      -0.01057757       0.00722385       0.00000121 </v>
   <v>       0.02347041      -0.00742856       0.00017063 </v>
   <v>       0.01001626       0.00425947      -0.00035190 </v>
   <v>       0.00208106      -0.00182937      -0.00014244 </v>
   <v>      -0.00061615      -0.00117039       0.00063674 </v>
   <v>      -0.00325167       0.00200832      -0.00005238 </v>
   <v>       0.00224624       0.00068125       0.00005033 </v>
   <v>      -0.00139847       0.00051128      -0.00144446 </v>
   <v>       0.00050127       0.00181909      -0.00000204 </v>
   <v>      -0.00564128       0.02385786       0.00004964 </v>
   <v>       0.00087914      -0.01934000      -0.00014737 </v>
   <v>      -0.00636562      -0.00201404      -0.00144910 </v>
   <v>      -0.27477076       0.15885248       0.00006011 </v>
   <v>       0.00547103      -0.00340295       0.00063521 </v>
   <v>       0.01983437       0.05950154      -0.00004822 </v>
   <v>      -0.00239755       0.00195345       0.00005818 </v>
   <v>      -0.00053994      -0.00123921      -0.00034575 </v>
   <v>      -0.00014244       0.00283075      -0.00005035 </v>
   <v>       0.00135648      -0.00402415       0.00034795 </v>
   <v>       0.00263773       0.00117246      -0.00002560 </v>
   <v>       0.00019793       0.00188355      -0.00002460 </v>
   <v>      -0.00163154      -0.00068475      -0.00000930 </v>
   <v>       0.04282514      -0.04713355      -0.00001324 </v>
   <v>      -0.06164706      -0.01233030      -0.00005027 </v>
   <v>       0.06179897      -0.01323247       0.00006122 </v>
   <v>       0.00129231      -0.01250652      -0.00180069 </v>
   <v>      -0.00323424       0.00253969       0.00005151 </v>
   <v>      -0.00145583      -0.00038422       0.00179875 </v>
   <v>      -0.00112503      -0.00043767       0.00016731 </v>
   <v>      -0.00161136       0.00009464      -0.00035562 </v>
   <v>       0.00072707      -0.00260093       0.00010085 </v>
   <v>      -0.00133222       0.00200314       0.00000138 </v>
   <v>       0.00247293      -0.00065857      -0.00016666 </v>
   <v>       0.00098416      -0.00117793       0.00035216 </v>
   <v>       0.00205213      -0.00087048      -0.00000075 </v>
   <v>      -0.02320110      -0.00613007      -0.00029889 </v>
   <v>      -0.02113983      -0.01241060       0.00009760 </v>
   <v>       0.00952973       0.00646817       0.00029883 </v>
   <v>       0.02218331      -0.01330588      -0.00036166 </v>
   <v>      -0.00105137       0.00624035       0.00036184 </v>
   <v>      -0.00096977       0.00236219      -0.00004824 </v>
   <v>       0.00092994      -0.00275615       0.00014429 </v>
   <v>      -0.00087713       0.00107193       0.00144198 </v>
   <v>      -0.00172258       0.00114732      -0.00000024 </v>
   <v>       0.00001148      -0.00024287      -0.00063498 </v>
   <v>       0.01842981      -0.01664698       0.00014065 </v>
   <v>       0.00338508       0.00100093       0.00004612 </v>
   <v>      -0.01701701      -0.01603341      -0.00063696 </v>
   <v>      -0.01957574       0.05999720       0.00005286 </v>
   <v>      -0.01660308       0.01014385      -0.00005807 </v>
   <v>       0.27542633       0.15841837       0.00001235 </v>
   <v>      -0.00141719       0.00083741       0.00144616 </v>
   <v>       0.00515263       0.02345036       0.00000212 </v>
   <v>       0.00015492       0.00203883       0.00002351 </v>
   <v>       0.00062784      -0.00381388       0.00000101 </v>
   <v>       0.00317649       0.00167862      -0.00005947 </v>
   <v>       0.00147953      -0.00190930       0.00180899 </v>
   <v>      -0.00117055      -0.00022486      -0.00179926 </v>
   <v>      -0.01518107       0.02911544      -0.00017103 </v>
   <v>      -0.06821378      -0.00282502      -0.00002204 </v>
   <v>       0.01283393       0.02897115       0.00081995 </v>
   <v>      -0.00812177      -0.00498663      -0.00000110 </v>
   <v>       0.00218094      -0.00030447      -0.00319555 </v>
   <v>      -0.00066546      -0.00020954      -0.00005736 </v>
   <v>       0.00214351      -0.00318128      -0.00012001 </v>
   <v>       0.00004103       0.00240872      -0.00000011 </v>
   <v>      -0.00162802      -0.00227776       0.00017862 </v>
   <v>      -0.00309295       0.00355788      -0.00082323 </v>
   <v>       0.00202847      -0.00127335       0.00082690 </v>
   <v>       0.00801787      -0.00481969       0.00018962 </v>
   <v>       0.02984610       0.01714644      -0.00028834 </v>
   <v>       0.03036134       0.06121788       0.00031160 </v>
   <v>       0.00080942      -0.03489800      -0.00013236 </v>
   <v>      -0.00892862      -0.00403956      -0.00006092 </v>
   <v>      -0.00539101       0.00204050      -0.00001950 </v>
   <v>      -0.00087977       0.00202541      -0.00000094 </v>
   <v>       0.00009647      -0.00071518      -0.00075950 </v>
   <v>       0.00220505      -0.00074915       0.00004810 </v>
   <v>      -0.00255238       0.00041122      -0.00014313 </v>
   <v>      -0.00070349      -0.00093806       0.00075939 </v>
   <v>       0.00019973      -0.00082473       0.00000113 </v>
   <v>       0.01807804      -0.02750362      -0.00015668 </v>
   <v>      -0.00063585       0.00889607       0.00027805 </v>
   <v>       0.00477884      -0.00701191      -0.00000186 </v>
   <v>      -0.01337169       0.00761018      -0.00027499 </v>
   <v>      -0.01793099      -0.02602200      -0.00000583 </v>
   <v>       0.00302490      -0.00217169      -0.00002220 </v>
   <v>       0.00065744       0.00268401       0.00015813 </v>
   <v>      -0.00161349      -0.00140476       0.00002241 </v>
   <v>      -0.00302188       0.00248820      -0.00075865 </v>
   <v>      -0.00208649      -0.00080445       0.00000041 </v>
   <v>       0.00768779      -0.00548817       0.00002007 </v>
   <v>       0.00218680      -0.00030808       0.00306482 </v>
   <v>      -0.00107416       0.02812804       0.00017355 </v>
   <v>       0.06862972      -0.00333017       0.00000377 </v>
   <v>      -0.02452817      -0.01354677      -0.00002263 </v>
   <v>      -0.00302993       0.00544900       0.00319747 </v>
   <v>       0.00190858      -0.00187524       0.00000111 </v>
   <v>       0.00397912       0.00522881      -0.00079746 </v>
   <v>       0.00137012      -0.00168683      -0.00017926 </v>
   <v>       0.00254841       0.00141092       0.00026596 </v>
   <v>      -0.00152680       0.00290718      -0.00026282 </v>
   <v>       0.00077885      -0.00336812       0.00011977 </v>
   <v>      -0.00229722      -0.00090449       0.00005697 </v>
   <v>      -0.00027285       0.00036296       0.00001108 </v>
   <v>      -0.00066425      -0.00020829       0.00005997 </v>
   <v>       0.03296889      -0.00271753       0.00013148 </v>
   <v>      -0.03202092       0.06079187       0.00000350 </v>
   <v>      -0.03243032      -0.00175102      -0.00019297 </v>
   <v>      -0.03044923       0.01937977       0.00088459 </v>
   <v>       0.00713045       0.00037787      -0.00086436 </v>
   <v>       0.00306874      -0.00058138       0.00014614 </v>
   <v>      -0.00124233       0.00156980      -0.00026217 </v>
   <v>       0.00364686      -0.00176408       0.00000121 </v>
   <v>      -0.00026713       0.00033471      -0.00004435 </v>
   <v>      -0.00119527       0.00056893       0.00026104 </v>
   <v>      -0.00146947       0.00934712       0.00000031 </v>
   <v>      -0.00294899       0.00095298       0.00000444 </v>
   <v>       0.01228514       0.00634893       0.00079795 </v>
   <v>       0.03680027      -0.05783444      -0.00005284 </v>
   <v>       0.02444379      -0.01450925       0.00002561 </v>
   <v>      -0.03705598      -0.05643345       0.00016819 </v>
   <v>      -0.00181240      -0.00617950      -0.00079786 </v>
   <v>       0.00018734      -0.01492375      -0.00000202 </v>
   <v>       0.00164373      -0.00130408      -0.00001938 </v>
   <v>      -0.00113018       0.00343878      -0.00015951 </v>
   <v>      -0.00317523      -0.00120065       0.00002008 </v>
   <v>       0.00097964       0.00183305      -0.00305256 </v>
   <v>      -0.00000316       0.00163633       0.00075841 </v>
   <v>      -0.00280796       0.00422627      -0.00039994 </v>
   <v>      -0.00003376      -0.00846725       0.00686408 </v>
   <v>      -0.00774316       0.01493103       0.00138608 </v>
   <v>      -0.00669016      -0.00327801      -0.00107621 </v>
   <v>       0.53200078       0.00798734      -0.00151439 </v>
   <v>      -0.00233322       0.00124317       0.00210721 </v>
   <v>       0.00518422      -0.00241244       0.00166797 </v>
   <v>       0.00831247       0.00484512      -0.00685836 </v>
   <v>      -0.00430251      -0.00547091       0.00042117 </v>
   <v>      -0.00861279       0.00510497      -0.00687331 </v>
   <v>       0.00043876      -0.00183274       0.00169202 </v>
   <v>       0.00110058      -0.00084685      -0.00211562 </v>
   <v>       0.00183366      -0.00426576      -0.00039586 </v>
   <v>      -0.00290783      -0.00434373       0.01338356 </v>
   <v>       0.00473004      -0.00574780      -0.00041690 </v>
   <v>      -0.00614464      -0.00007244      -0.00166242 </v>
   <v>       0.00343048       0.02238137      -0.00036377 </v>
   <v>      -0.00095930       0.00546621       0.00167344 </v>
   <v>       0.00066182       0.00523309       0.00166401 </v>
   <v>       0.01183613      -0.00457783      -0.00140491 </v>
   <v>       0.00460014       0.00284621      -0.01339898 </v>
   <v>       0.00043872      -0.00131786       0.00147665 </v>
   <v>      -0.00407973      -0.00333938       0.00167235 </v>
   <v>       0.00621309      -0.00517537      -0.00166666 </v>
   <v>      -0.00290279       0.00747344      -0.00108586 </v>
   <v>       0.01200553      -0.04104622      -0.00178718 </v>
   <v>      -0.00587153       0.00265022       0.01340183 </v>
   <v>      -0.00677742       0.00406264      -0.00165866 </v>
   <v>      -0.01003243      -0.00257238       0.00139888 </v>
   <v>       0.00669426      -0.00410695       0.00107655 </v>
   <v>       0.00247197       0.00662492       0.00042263 </v>
   <v>       0.00005491      -0.00980865      -0.00686103 </v>
   <v>      -0.00241968       0.01250396      -0.00141884 </v>
   <v>      -0.00660362      -0.00376196       0.00107831 </v>
   <v>      -0.00003701      -0.00317576      -0.00210858 </v>
   <v>      -0.00057233       0.00067944       0.00146971 </v>
   <v>      -0.00096437       0.01246339       0.00140607 </v>
   <v>       0.00970070      -0.00963526       0.00140635 </v>
   <v>      -0.00950686      -0.00621886       0.00140852 </v>
   <v>      -0.04908251       0.01594388      -0.00046875 </v>
   <v>       0.00979103      -0.00828234      -0.00140878 </v>
   <v>      -0.04446375      -0.00859519      -0.00142960 </v>
   <v>       0.00213412       0.00104244       0.00210515 </v>
   <v>       0.00713539      -0.00119511       0.00042202 </v>
   <v>      -0.00027430      -0.00533981      -0.01340693 </v>
   <v>       0.00472128      -0.00573219       0.00041666 </v>
   <v>      -0.00511476      -0.00195043       0.00167436 </v>
   <v>      -0.00672188      -0.00092460       0.00041346 </v>
   <v>      -0.00342834       0.00123303      -0.00210762 </v>
   <v>       0.00690602      -0.00884950      -0.00168240 </v>
   <v>       0.00568329       0.00387045       0.00686791 </v>
   <v>      -0.00256790       0.00097209      -0.00040572 </v>
   <v>      -0.01394835       0.00818285       0.00683434 </v>
   <v>       0.01044098      -0.02506337      -0.00174343 </v>
   <v>       0.00449923      -0.00352265       0.00167279 </v>
   <v>      -0.00027494       0.00760433       0.00107416 </v>
   <v>       0.00191948       0.00070542       0.00168215 </v>
   <v>      -0.00479619       0.00266317      -0.01339740 </v>
   <v>      -0.00150229       0.00100573       0.00169515 </v>
   <v>      -0.00357881       0.00558358      -0.00166296 </v>
   <v>      -0.01177043      -0.00421472      -0.00140847 </v>
   <v>      -0.00462424       0.00215375      -0.00170711 </v>
   <v>       0.01079647      -0.00562599       0.00141027 </v>
   <v>       0.00687970      -0.00580358      -0.00107902 </v>
   <v>       0.00354462       0.00387602       0.01338583 </v>
   <v>       0.01054737       0.04038027      -0.00138023 </v>
   <v>      -0.00405901      -0.00335890      -0.00167158 </v>
   <v>       0.00005580      -0.00267657       0.00210818 </v>
   <v>       0.00179531       0.01246061      -0.00140714 </v>
   <v>      -0.00970003      -0.00791370      -0.00140374 </v>
   <v>      -0.00247380       0.00668105       0.00040437 </v>
   <v>       0.00147593       0.00066526       0.00147880 </v>
  </varray>
  <varray name="stress" >
   <v>      96.93678735       0.03050006      -0.00077139 </v>
   <v>       0.03050005      96.86861394       0.00009342 </v>
   <v>      -0.00077139       0.00009342      -3.46928332 </v>
  </varray>
  <energy>
   <i name="e_fr_energy">  -2554.40023847 </i>
   <i name="e_wo_entrp">  -2554.40023847 </i>
   <i name="e_0_energy">  -2554.40023847 </i>
  </energy>
  <time name="totalsc">  171.83  171.75</time>
  <eigenvalues>
   <array>
    <dimension dim="1">band</dimension>
    <dimension dim="2">kpoint</dimension>
    <dimension dim="3">spin</dimension>
    <field>eigene</field>
    <field>occ</field>
    <set>
     <set comment="spin 1">
      <set comment="kpoint 1">
       <r>  -17.2940    1.0000 </r>
       <r>  -15.7203    1.0000 </r>
       <r>  -15.7201    1.0000 </r>
       <r>  -15.5764    1.0000 </r>
       <r>  -15.3640    1.0000 </r>
       <r>  -15.3446    1.0000 </r>
       <r>  -15.1596    1.0000 </r>
       <r>  -15.1590    1.0000 </r>
       <r>  -15.1529    1.0000 </r>
       <r>  -15.0724    1.0000 </r>
       <r>  -14.8866    1.0000 </r>
       <r>  -14.8770    1.0000 </r>
       <r>  -14.8758    1.0000 </r>
       <r>  -14.8461    1.0000 </r>
       <r>  -14.8213    1.0000 </r>
       <r>  -14.8189    1.0000 </r>
       <r>  -14.8184    1.0000 </r>
       <r>  -14.8171    1.0000 </r>
       <r>  -14.7996    1.0000 </r>
       <r>  -14.7894    1.0000 </r>
       <r>  -14.7870    1.0000 </r>
       <r>  -14.7723    1.0000 </r>
       <r>  -14.7409    1.0000 </r>
       <r>  -14.7405    1.0000 </r>
       <r>  -14.6481    1.0000 </r>
       <r>  -14.6271    1.0000 </r>
       <r>  -14.6261    1.0000 </r>
       <r>  -14.6148    1.0000 </r>
       <r>  -14.6137    1.0000 </r>
       <r>  -14.6055    1.0000 </r>
       <r>  -14.5581    1.0000 </r>
       <r>  -14.2541    1.0000 </r>
       <r>  -14.2538    1.0000 </r>
       <r>  -14.2429    1.0000 </r>
       <r>  -13.9211    1.0000 </r>
       <r>  -13.9201    1.0000 </r>
       <r>  -13.8652    1.0000 </r>
       <r>  -13.8311    1.0000 </r>
       <r>  -13.8300    1.0000 </r>
       <r>  -13.8284    1.0000 </r>
       <r>  -13.8243    1.0000 </r>
       <r>  -13.8142    1.0000 </r>
       <r>  -13.8120    1.0000 </r>
       <r>  -13.8100    1.0000 </r>
       <r>  -13.8083    1.0000 </r>
       <r>  -13.8060    1.0000 </r>
       <r>  -13.8019    1.0000 </r>
       <r>  -13.8018    1.0000 </r>
       <r>  -13.7998    1.0000 </r>
       <r>  -13.7625    1.0000 </r>
       <r>  -13.7567    1.0000 </r>
       <r>  -13.7567    1.0000 </r>
       <r>  -13.6364    1.0000 </r>
       <r>  -13.6356    1.0000 </r>
       <r>  -13.6349    1.0000 </r>
       <r>  -13.6337    1.0000 </r>
       <r>  -13.6336    1.0000 </r>
       <r>  -13.6331    1.0000 </r>
       <r>  -13.4005    1.0000 </r>
       <r>  -13.3982    1.0000 </r>
       <r>  -13.3886    1.0000 </r>
       <r>  -13.3841    1.0000 </r>
       <r>  -13.3822    1.0000 </r>
       <r>  -13.3801    1.0000 </r>
       <r>  -13.3677    1.0000 </r>
       <r>  -13.3665    1.0000 </r>
       <r>  -13.3633    1.0000 </r>
       <r>  -13.3631    1.0000 </r>
       <r>  -13.3623    1.0000 </r>
       <r>  -13.3572    1.0000 </r>
       <r>  -13.2775    1.0000 </r>
       <r>  -13.2775    1.0000 </r>
       <r>  -13.2038    1.0000 </r>
       <r>  -13.2024    1.0000 </r>
       <r>  -13.2019    1.0000 </r>
       <r>  -13.2010    1.0000 </r>
       <r>  -13.2001    1.0000 </r>
       <r>  -13.1997    1.0000 </r>
       <r>  -12.8944    1.0000 </r>
       <r>  -12.8585    1.0000 </r>
       <r>  -12.8583    1.0000 </r>
       <r>  -12.7737    1.0000 </r>
       <r>  -12.6760    1.0000 </r>
       <r>  -12.5897    1.0000 </r>
       <r>  -12.5895    1.0000 </r>
       <r>  -12.5888    1.0000 </r>
       <r>  -12.5333    1.0000 </r>
       <r>  -12.5330    1.0000 </r>
       <r>  -12.4972    1.0000 </r>
       <r>  -12.4971    1.0000 </r>
       <r>  -12.4676    1.0000 </r>
       <r>  -12.3456    1.0000 </r>
       <r>  -12.3410    1.0000 </r>
       <r>  -12.3279    1.0000 </r>
       <r>  -12.3214    1.0000 </r>
       <r>  -12.3176    1.0000 </r>
       <r>  -12.3156    1.0000 </r>
       <r>  -12.3107    1.0000 </r>
       <r>  -12.3087    1.0000 </r>
       <r>  -12.3084    1.0000 </r>
       <r>  -12.3073    1.0000 </r>
       <r>  -12.3007    1.0000 </r>
       <r>  -12.2992    1.0000 </r>
       <r>  -12.2880    1.0000 </r>
       <r>  -12.2847    1.0000 </r>
       <r>  -12.2842    1.0000 </r>
       <r>  -12.2813    1.0000 </r>
       <r>  -12.2773    1.0000 </r>
       <r>  -12.2754    1.0000 </r>
       <r>  -12.2737    1.0000 </r>
       <r>  -12.2729    1.0000 </r>
       <r>  -12.2712    1.0000 </r>
       <r>  -12.2695    1.0000 </r>
       <r>  -12.2619    1.0000 </r>
       <r>  -12.2540    1.0000 </r>
       <r>  -12.1930    1.0000 </r>
       <r>  -12.1902    1.0000 </r>
       <r>  -12.1899    1.0000 </r>
       <r>  -12.1866    1.0000 </r>
       <r>  -12.1848    1.0000 </r>
       <r>  -12.1810    1.0000 </r>
       <r>  -12.1584    1.0000 </r>
       <r>  -12.1581    1.0000 </r>
       <r>  -12.1537    1.0000 </r>
       <r>  -12.1530    1.0000 </r>
       <r>  -12.1515    1.0000 </r>
       <r>  -12.1514    1.0000 </r>
       <r>  -12.1439    1.0000 </r>
       <r>  -12.1435    1.0000 </r>
       <r>  -12.1416    1.0000 </r>
       <r>  -12.1414    1.0000 </r>
       <r>  -12.1390    1.0000 </r>
       <r>  -12.1388    1.0000 </r>
       <r>  -12.0617    1.0000 </r>
       <r>  -12.0616    1.0000 </r>
       <r>  -12.0614    1.0000 </r>
       <r>  -11.9613    1.0000 </r>
       <r>  -11.9613    1.0000 </r>
       <r>  -11.5964    1.0000 </r>
       <r>  -11.5944    1.0000 </r>
       <r>  -11.5938    1.0000 </r>
       <r>  -11.5913    1.0000 </r>
       <r>  -11.4687    1.0000 </r>
       <r>  -11.4687    1.0000 </r>
       <r>   -8.3734    1.0000 </r>
       <r>   -7.3291    1.0000 </r>
       <r>   -7.3290    1.0000 </r>
       <r>   -6.6089    1.0000 </r>
       <r>   -6.6087    1.0000 </r>
       <r>   -6.5434    1.0000 </r>
       <r>   -6.5255    1.0000 </r>
       <r>   -6.5252    1.0000 </r>
       <r>   -6.5244    1.0000 </r>
       <r>   -6.5216    1.0000 </r>
       <r>   -6.5202    1.0000 </r>
       <r>   -6.5112    1.0000 </r>
       <r>   -6.4869    1.0000 </r>
       <r>   -6.3898    1.0000 </r>
       <r>   -6.3898    1.0000 </r>
       <r>   -6.3898    1.0000 </r>
       <r>   -6.3164    1.0000 </r>
       <r>   -6.3163    1.0000 </r>
       <r>   -6.0962    1.0000 </r>
       <r>   -6.0961    1.0000 </r>
       <r>   -6.0296    1.0000 </r>
       <r>   -6.0294    1.0000 </r>
       <r>   -6.0063    1.0000 </r>
       <r>   -5.9874    1.0000 </r>
       <r>   -5.9066    1.0000 </r>
       <r>   -5.9065    1.0000 </r>
       <r>   -5.7152    1.0000 </r>
       <r>   -5.7143    1.0000 </r>
       <r>   -5.7133    1.0000 </r>
       <r>   -5.7124    1.0000 </r>
       <r>   -5.7077    1.0000 </r>
       <r>   -5.7063    1.0000 </r>
       <r>   -5.7048    1.0000 </r>
       <r>   -5.7045    1.0000 </r>
       <r>   -5.6925    1.0000 </r>
       <r>   -5.6907    1.0000 </r>
       <r>   -5.6873    1.0000 </r>
       <r>   -5.6861    1.0000 </r>
       <r>   -5.6839    1.0000 </r>
       <r>   -5.6819    1.0000 </r>
       <r>   -5.6814    1.0000 </r>
       <r>   -5.6798    1.0000 </r>
       <r>   -5.6696    1.0000 </r>
       <r>   -5.6686    1.0000 </r>
       <r>   -5.6686    1.0000 </r>
       <r>   -5.6674    1.0000 </r>
       <r>   -5.6666    1.0000 </r>
       <r>   -5.6666    1.0000 </r>
       <r>   -5.6651    1.0000 </r>
       <r>   -5.6608    1.0000 </r>
       <r>   -5.5748    1.0000 </r>
       <r>   -5.5742    1.0000 </r>
       <r>   -5.5619    1.0000 </r>
       <r>   -5.5611    1.0000 </r>
       <r>   -5.5589    1.0000 </r>
       <r>   -5.5583    1.0000 </r>
       <r>   -5.5582    1.0000 </r>
       <r>   -5.5577    1.0000 </r>
       <r>   -5.5538    1.0000 </r>
       <r>   -5.5538    1.0000 </r>
       <r>   -5.5505    1.0000 </r>
       <r>   -5.5503    1.0000 </r>
       <r>   -5.5470    1.0000 </r>
       <r>   -5.5467    1.0000 </r>
       <r>   -5.5467    1.0000 </r>
       <r>   -5.5466    1.0000 </r>
       <r>   -5.4177    1.0000 </r>
       <r>   -5.4176    1.0000 </r>
       <r>   -5.3696    1.0000 </r>
       <r>   -5.2477    1.0000 </r>
       <r>   -5.1470    1.0000 </r>
       <r>   -5.1469    1.0000 </r>
       <r>   -4.9932    1.0000 </r>
       <r>   -4.9234    1.0000 </r>
       <r>   -4.9233    1.0000 </r>
       <r>   -4.8738    1.0000 </r>
       <r>   -4.7492    1.0000 </r>
       <r>   -4.7492    1.0000 </r>
       <r>   -4.7427    1.0000 </r>
       <r>   -4.7426    1.0000 </r>
       <r>   -4.6191    1.0000 </r>
       <r>   -4.6191    1.0000 </r>
       <r>   -4.4802    1.0000 </r>
       <r>   -4.4793    1.0000 </r>
       <r>   -4.4769    1.0000 </r>
       <r>   -4.4755    1.0000 </r>
       <r>   -4.4750    1.0000 </r>
       <r>   -4.4739    1.0000 </r>
       <r>   -4.4735    1.0000 </r>
       <r>   -4.4727    1.0000 </r>
       <r>   -4.4726    1.0000 </r>
       <r>   -4.4717    1.0000 </r>
       <r>   -4.4693    1.0000 </r>
       <r>   -4.4677    1.0000 </r>
       <r>   -4.3391    1.0000 </r>
       <r>   -4.3389    1.0000 </r>
       <r>   -4.3388    1.0000 </r>
       <r>   -4.3387    1.0000 </r>
       <r>   -4.3387    1.0000 </r>
       <r>   -4.3384    1.0000 </r>
       <r>   -4.3373    1.0000 </r>
       <r>   -4.0490    1.0000 </r>
       <r>   -3.9420    1.0000 </r>
       <r>   -3.9418    1.0000 </r>
       <r>   -3.6908    1.0000 </r>
       <r>   -3.6297    1.0000 </r>
       <r>   -3.6297    1.0000 </r>
       <r>   -3.6142    1.0000 </r>
       <r>   -3.5983    1.0000 </r>
       <r>   -3.5189    1.0000 </r>
       <r>   -3.5188    1.0000 </r>
       <r>   -3.3590    1.0000 </r>
       <r>   -3.3418    1.0000 </r>
       <r>   -3.3411    1.0000 </r>
       <r>   -3.3201    1.0000 </r>
       <r>   -3.3199    1.0000 </r>
       <r>   -3.3059    1.0000 </r>
       <r>   -3.3057    1.0000 </r>
       <r>   -3.2205    1.0000 </r>
       <r>   -3.1823    1.0000 </r>
       <r>   -3.1735    1.0000 </r>
       <r>   -3.1733    1.0000 </r>
       <r>   -3.1722    1.0000 </r>
       <r>   -3.1709    1.0000 </r>
       <r>   -3.1324    1.0000 </r>
       <r>   -3.1053    1.0000 </r>
       <r>   -3.1027    1.0000 </r>
       <r>   -3.1020    1.0000 </r>
       <r>   -3.1011    1.0000 </r>
       <r>   -3.1009    1.0000 </r>
       <r>   -3.0997    1.0000 </r>
       <r>   -3.0938    1.0000 </r>
       <r>   -3.0925    1.0000 </r>
       <r>   -3.0918    1.0000 </r>
       <r>   -3.0912    1.0000 </r>
       <r>   -3.0905    1.0000 </r>
       <r>   -3.0883    1.0000 </r>
       <r>   -3.0524    1.0000 </r>
       <r>   -2.9687    1.0000 </r>
       <r>   -2.9686    1.0000 </r>
       <r>   -2.9686    1.0000 </r>
       <r>   -2.9685    1.0000 </r>
       <r>   -2.9685    1.0000 </r>
       <r>   -2.9684    1.0000 </r>
       <r>   -2.9632    1.0000 </r>
       <r>   -2.9242    1.0000 </r>
       <r>   -2.9241    1.0000 </r>
       <r>   -2.9238    1.0000 </r>
       <r>   -2.9234    1.0000 </r>
       <r>   -2.9175    1.0000 </r>
       <r>   -2.9169    1.0000 </r>
       <r>   -2.9162    1.0000 </r>
       <r>   -2.9161    1.0000 </r>
       <r>   -2.9072    1.0000 </r>
       <r>   -2.9060    1.0000 </r>
       <r>   -2.9010    1.0000 </r>
       <r>   -2.8997    1.0000 </r>
       <r>   -2.8948    1.0000 </r>
       <r>   -2.8909    1.0000 </r>
       <r>   -2.8905    1.0000 </r>
       <r>   -2.8893    1.0000 </r>
       <r>   -2.8792    1.0000 </r>
       <r>   -2.8791    1.0000 </r>
       <r>   -2.8787    1.0000 </r>
       <r>   -2.8779    1.0000 </r>
       <r>   -2.8767    1.0000 </r>
       <r>   -2.8767    1.0000 </r>
       <r>   -2.8756    1.0000 </r>
       <r>   -2.8708    1.0000 </r>
       <r>   -2.7722    1.0000 </r>
       <r>   -2.7720    1.0000 </r>
       <r>   -2.7719    1.0000 </r>
       <r>   -2.7709    1.0000 </r>
       <r>   -2.7676    1.0000 </r>
       <r>   -2.7675    1.0000 </r>
       <r>   -2.7625    1.0000 </r>
       <r>   -2.7623    1.0000 </r>
       <r>   -2.7595    1.0000 </r>
       <r>   -2.7591    1.0000 </r>
       <r>   -2.7585    1.0000 </r>
       <r>   -2.7583    1.0000 </r>
       <r>   -2.6292    1.0000 </r>
       <r>   -2.4847    1.0000 </r>
       <r>   -2.4840    1.0000 </r>
       <r>   -2.3148    1.0000 </r>
       <r>   -2.3099    1.0000 </r>
       <r>   -2.3091    1.0000 </r>
       <r>   -2.2836    1.0000 </r>
       <r>   -2.2822    1.0000 </r>
       <r>   -2.2676    1.0000 </r>
       <r>   -2.2334    1.0000 </r>
       <r>   -2.2327    1.0000 </r>
       <r>   -2.2238    1.0000 </r>
       <r>   -2.2221    1.0000 </r>
       <r>   -2.2170    1.0000 </r>
       <r>   -2.2088    1.0000 </r>
       <r>   -2.0979    1.0000 </r>
       <r>   -2.0903    1.0000 </r>
       <r>   -2.0902    1.0000 </r>
       <r>   -1.9553    1.0000 </r>
       <r>   -1.9488    1.0000 </r>
       <r>   -1.9487    1.0000 </r>
       <r>   -1.9436    1.0000 </r>
       <r>   -1.9428    1.0000 </r>
       <r>   -1.8992    1.0000 </r>
       <r>   -1.8465    1.0000 </r>
       <r>   -1.7849    1.0000 </r>
       <r>   -1.7843    1.0000 </r>
       <r>   -1.7829    1.0000 </r>
       <r>   -1.7149    1.0000 </r>
       <r>   -1.7134    1.0000 </r>
       <r>   -1.7128    1.0000 </r>
       <r>   -1.7118    1.0000 </r>
       <r>   -1.7112    1.0000 </r>
       <r>   -1.7096    1.0000 </r>
       <r>   -1.5807    1.0000 </r>
       <r>   -1.5807    1.0000 </r>
       <r>   -1.5807    1.0000 </r>
       <r>   -1.5481    1.0000 </r>
       <r>   -1.5453    1.0000 </r>
       <r>   -1.5453    1.0000 </r>
       <r>   -1.5229    1.0000 </r>
       <r>   -1.5227    1.0000 </r>
       <r>   -1.5046    1.0000 </r>
       <r>   -1.5015    1.0000 </r>
       <r>   -1.5008    1.0000 </r>
       <r>   -1.4999    1.0000 </r>
       <r>   -1.4993    1.0000 </r>
       <r>   -1.4989    1.0000 </r>
       <r>   -1.4974    1.0000 </r>
       <r>   -1.4964    1.0000 </r>
       <r>   -1.4947    1.0000 </r>
       <r>   -1.4928    1.0000 </r>
       <r>   -1.4924    1.0000 </r>
       <r>   -1.4910    1.0000 </r>
       <r>   -1.4863    1.0000 </r>
       <r>   -1.4859    1.0000 </r>
       <r>   -1.4779    1.0000 </r>
       <r>   -1.3674    1.0000 </r>
       <r>   -1.3674    1.0000 </r>
       <r>   -1.3674    1.0000 </r>
       <r>   -1.3673    1.0000 </r>
       <r>   -1.3672    1.0000 </r>
       <r>   -1.3672    1.0000 </r>
       <r>   -1.3571    1.0000 </r>
       <r>   -1.3568    1.0000 </r>
       <r>   -1.3561    1.0000 </r>
       <r>   -1.2582    1.0000 </r>
       <r>   -1.2410    1.0000 </r>
       <r>   -1.2407    1.0000 </r>
       <r>   -1.1913    1.0000 </r>
       <r>   -1.1846    1.0000 </r>
       <r>   -1.1824    1.0000 </r>
       <r>   -1.1572    1.0000 </r>
       <r>   -1.1537    1.0000 </r>
       <r>   -1.1535    1.0000 </r>
       <r>   -1.1517    1.0000 </r>
       <r>   -1.1505    1.0000 </r>
       <r>   -1.1499    1.0000 </r>
       <r>   -1.1496    1.0000 </r>
       <r>   -1.1492    1.0000 </r>
       <r>   -1.1487    1.0000 </r>
       <r>   -1.1480    1.0000 </r>
       <r>   -1.1477    1.0000 </r>
       <r>   -1.1470    1.0000 </r>
       <r>   -1.1456    1.0000 </r>
       <r>   -1.1410    1.0000 </r>
       <r>   -1.1364    1.0000 </r>
       <r>   -1.1269    1.0000 </r>
       <r>   -1.1185    1.0000 </r>
       <r>   -1.1180    1.0000 </r>
       <r>   -1.1055    1.0000 </r>
       <r>   -1.0195    1.0000 </r>
       <r>   -1.0195    1.0000 </r>
       <r>   -1.0193    1.0000 </r>
       <r>   -1.0191    1.0000 </r>
       <r>   -1.0189    1.0000 </r>
       <r>   -1.0189    1.0000 </r>
       <r>   -0.9662    1.0000 </r>
       <r>   -0.9660    1.0000 </r>
       <r>   -0.9610    1.0000 </r>
       <r>   -0.9500    1.0000 </r>
       <r>   -0.9357    1.0000 </r>
       <r>   -0.9354    1.0000 </r>
       <r>   -0.8709    1.0000 </r>
       <r>   -0.8682    1.0000 </r>
       <r>   -0.8680    1.0000 </r>
       <r>   -0.8628    1.0000 </r>
       <r>   -0.8555    1.0000 </r>
       <r>   -0.8533    1.0000 </r>
       <r>   -0.8510    1.0000 </r>
       <r>   -0.8507    1.0000 </r>
       <r>   -0.8488    1.0000 </r>
       <r>   -0.8485    1.0000 </r>
       <r>   -0.8470    1.0000 </r>
       <r>   -0.8444    1.0000 </r>
       <r>   -0.8442    1.0000 </r>
       <r>   -0.8422    1.0000 </r>
       <r>   -0.8421    1.0000 </r>
       <r>   -0.8359    1.0000 </r>
       <r>   -0.8313    1.0000 </r>
       <r>   -0.8251    1.0000 </r>
       <r>   -0.7250    1.0000 </r>
       <r>   -0.7239    1.0000 </r>
       <r>   -0.7237    1.0000 </r>
       <r>   -0.7191    1.0000 </r>
       <r>   -0.7189    1.0000 </r>
       <r>   -0.7165    1.0000 </r>
       <r>   -0.4757    1.0000 </r>
       <r>   -0.4753    1.0000 </r>
       <r>   -0.4153    1.0000 </r>
       <r>   -0.3479    1.0000 </r>
       <r>   -0.3476    1.0000 </r>
       <r>   -0.3387    1.0000 </r>
       <r>   -0.3349    1.0000 </r>
       <r>   -0.2605    1.0000 </r>
       <r>   -0.2596    1.0000 </r>
       <r>   -0.2595    1.0000 </r>
       <r>   -0.2494    1.0000 </r>
       <r>   -0.2467    1.0000 </r>
       <r>   -0.2450    1.0000 </r>
       <r>   -0.2438    1.0000 </r>
       <r>   -0.2392    1.0000 </r>
       <r>   -0.0890    1.0000 </r>
       <r>   -0.0886    1.0000 </r>
       <r>   -0.0392    1.0000 </r>
       <r>    0.0112    1.0000 </r>
       <r>    0.0122    1.0000 </r>
       <r>    0.0557    1.0000 </r>
       <r>    0.0832    1.0000 </r>
       <r>    0.0864    1.0000 </r>
       <r>    0.0871    1.0000 </r>
       <r>    0.1953    1.0000 </r>
       <r>    0.1959    1.0000 </r>
       <r>    0.2121    1.0000 </r>
       <r>    0.2146    1.0000 </r>
       <r>    0.2158    1.0000 </r>
       <r>    0.2169    1.0000 </r>
       <r>    0.2185    1.0000 </r>
       <r>    0.2187    1.0000 </r>
       <r>    0.2363    1.0000 </r>
       <r>    0.2377    1.0000 </r>
       <r>    0.2380    1.0000 </r>
       <r>    0.2443    1.0000 </r>
       <r>    0.2463    1.0000 </r>
       <r>    0.2475    1.0000 </r>
       <r>    0.3536    1.0000 </r>
       <r>    0.3551    1.0000 </r>
       <r>    0.3554    1.0000 </r>
       <r>    0.3603    1.0000 </r>
       <r>    0.3606    1.0000 </r>
       <r>    0.3628    1.0000 </r>
       <r>    0.3648    1.0000 </r>
       <r>    0.5170    1.0000 </r>
       <r>    0.5613    1.0000 </r>
       <r>    0.5618    1.0000 </r>
       <r>    0.6092    1.0000 </r>
       <r>    0.6108    1.0000 </r>
       <r>    0.6162    1.0000 </r>
       <r>    0.6222    1.0000 </r>
       <r>    0.6339    1.0000 </r>
       <r>    0.6344    1.0000 </r>
       <r>    0.6412    1.0000 </r>
       <r>    0.6416    1.0000 </r>
       <r>    0.6686    1.0000 </r>
       <r>    0.6786    1.0000 </r>
       <r>    0.6824    1.0000 </r>
       <r>    0.6830    1.0000 </r>
       <r>    0.7436    1.0000 </r>
       <r>    0.7437    1.0000 </r>
       <r>    0.8610    1.0000 </r>
       <r>    0.8622    1.0000 </r>
       <r>    0.8719    1.0000 </r>
       <r>    1.0548    1.0000 </r>
       <r>    1.0549    1.0000 </r>
       <r>    1.1307    1.0000 </r>
       <r>    1.1340    1.0000 </r>
       <r>    1.1341    1.0000 </r>
       <r>    1.1354    1.0000 </r>
       <r>    1.1376    1.0000 </r>
       <r>    1.1651    1.0000 </r>
       <r>    1.1935    1.0000 </r>
       <r>    1.1937    1.0000 </r>
       <r>    1.2309    1.0000 </r>
       <r>    1.2441    1.0000 </r>
       <r>    1.2445    1.0000 </r>
       <r>    1.2595    1.0000 </r>
       <r>    1.2615    1.0000 </r>
       <r>    1.2615    1.0000 </r>
       <r>    1.2750    1.0000 </r>
       <r>    1.2754    1.0000 </r>
       <r>    1.2825    1.0000 </r>
       <r>    1.2834    1.0000 </r>
       <r>    1.2839    1.0000 </r>
       <r>    1.2840    1.0000 </r>
       <r>    1.3011    1.0000 </r>
       <r>    1.3024    1.0000 </r>
       <r>    1.3222    1.0000 </r>
       <r>    1.3229    1.0000 </r>
       <r>    1.3318    1.0000 </r>
       <r>    1.3343    1.0000 </r>
       <r>    1.3428    1.0000 </r>
       <r>    1.3451    1.0000 </r>
       <r>    1.4060    1.0000 </r>
       <r>    1.4062    1.0000 </r>
       <r>    1.4098    1.0000 </r>
       <r>    1.4847    1.0000 </r>
       <r>    1.4864    1.0000 </r>
       <r>    1.4870    1.0000 </r>
       <r>    1.8115    1.0000 </r>
       <r>    1.8118    1.0000 </r>
       <r>    1.8421    1.0000 </r>
       <r>    1.8715    1.0000 </r>
       <r>    1.8973    1.0000 </r>
       <r>    1.8977    1.0000 </r>
       <r>    1.9047    1.0000 </r>
       <r>    1.9055    1.0000 </r>
       <r>    1.9286    1.0000 </r>
       <r>    1.9322    1.0000 </r>
       <r>    1.9337    1.0000 </r>
       <r>    1.9363    1.0000 </r>
       <r>    1.9628    1.0000 </r>
       <r>    1.9642    1.0000 </r>
       <r>    1.9669    1.0000 </r>
       <r>    2.0555    1.0000 </r>
       <r>    2.0557    1.0000 </r>
       <r>    2.3312    1.0000 </r>
       <r>    2.3377    1.0000 </r>
       <r>    2.4116    1.0000 </r>
       <r>    2.4138    1.0000 </r>
       <r>    2.5037    1.0000 </r>
       <r>    2.5037    1.0000 </r>
       <r>    4.6650    1.0000 </r>
       <r>    5.8781    0.0000 </r>
       <r>    6.4870    0.0000 </r>
       <r>    6.4872    0.0000 </r>
       <r>    6.6762    0.0000 </r>
       <r>    6.7115    0.0000 </r>
       <r>    7.0085    0.0000 </r>
       <r>    7.0349    0.0000 </r>
       <r>    7.0353    0.0000 </r>
       <r>    7.0860    0.0000 </r>
       <r>    7.0862    0.0000 </r>
       <r>    7.1680    0.0000 </r>
       <r>    7.1691    0.0000 </r>
       <r>    7.1743    0.0000 </r>
       <r>    7.2461    0.0000 </r>
       <r>    7.2847    0.0000 </r>
       <r>    7.2849    0.0000 </r>
       <r>    7.3026    0.0000 </r>
       <r>    7.3530    0.0000 </r>
       <r>    7.3573    0.0000 </r>
       <r>    7.3576    0.0000 </r>
       <r>    7.3941    0.0000 </r>
       <r>    7.4337    0.0000 </r>
       <r>    7.4339    0.0000 </r>
       <r>    7.5401    0.0000 </r>
       <r>    7.5405    0.0000 </r>
       <r>    7.5886    0.0000 </r>
       <r>    7.5913    0.0000 </r>
       <r>    7.5914    0.0000 </r>
       <r>    7.6061    0.0000 </r>
       <r>    7.6838    0.0000 </r>
       <r>    7.7748    0.0000 </r>
       <r>    7.8100    0.0000 </r>
       <r>    7.8105    0.0000 </r>
       <r>    7.8284    0.0000 </r>
       <r>    7.8468    0.0000 </r>
       <r>    7.8480    0.0000 </r>
       <r>    7.8548    0.0000 </r>
       <r>    7.8550    0.0000 </r>
       <r>    7.8720    0.0000 </r>
       <r>    7.8830    0.0000 </r>
       <r>    7.8846    0.0000 </r>
       <r>    7.8848    0.0000 </r>
       <r>    7.8877    0.0000 </r>
       <r>    7.8883    0.0000 </r>
       <r>    7.9061    0.0000 </r>
       <r>    7.9066    0.0000 </r>
       <r>    7.9067    0.0000 </r>
       <r>    7.9141    0.0000 </r>
       <r>    7.9147    0.0000 </r>
       <r>    7.9156    0.0000 </r>
       <r>    7.9207    0.0000 </r>
       <r>    7.9264    0.0000 </r>
       <r>    7.9341    0.0000 </r>
       <r>    7.9352    0.0000 </r>
       <r>    8.0376    0.0000 </r>
       <r>    8.0416    0.0000 </r>
       <r>    8.0423    0.0000 </r>
       <r>    8.3777    0.0000 </r>
       <r>    8.4271    0.0000 </r>
       <r>    8.4278    0.0000 </r>
       <r>    8.4306    0.0000 </r>
       <r>    8.4316    0.0000 </r>
       <r>    8.4331    0.0000 </r>
       <r>    8.4622    0.0000 </r>
       <r>    8.4627    0.0000 </r>
       <r>    8.4796    0.0000 </r>
       <r>    8.4800    0.0000 </r>
       <r>    8.4981    0.0000 </r>
       <r>    8.5022    0.0000 </r>
       <r>    8.5027    0.0000 </r>
       <r>    8.5052    0.0000 </r>
       <r>    8.5362    0.0000 </r>
       <r>    8.5373    0.0000 </r>
       <r>    8.5671    0.0000 </r>
       <r>    8.6765    0.0000 </r>
       <r>    8.8636    0.0000 </r>
       <r>    9.1433    0.0000 </r>
       <r>    9.1434    0.0000 </r>
       <r>    9.1892    0.0000 </r>
       <r>    9.1894    0.0000 </r>
       <r>    9.2206    0.0000 </r>
       <r>    9.2354    0.0000 </r>
       <r>    9.2362    0.0000 </r>
       <r>    9.5079    0.0000 </r>
       <r>    9.5251    0.0000 </r>
       <r>    9.5256    0.0000 </r>
       <r>    9.5274    0.0000 </r>
       <r>    9.5301    0.0000 </r>
       <r>    9.5303    0.0000 </r>
       <r>    9.5321    0.0000 </r>
       <r>    9.5375    0.0000 </r>
       <r>    9.5379    0.0000 </r>
       <r>    9.5397    0.0000 </r>
       <r>    9.5982    0.0000 </r>
       <r>    9.6001    0.0000 </r>
       <r>    9.8698    0.0000 </r>
       <r>    9.9627    0.0000 </r>
       <r>   10.0318    0.0000 </r>
       <r>   10.1165    0.0000 </r>
       <r>   10.1209    0.0000 </r>
       <r>   10.1275    0.0000 </r>
       <r>   10.1278    0.0000 </r>
       <r>   10.1377    0.0000 </r>
       <r>   10.1418    0.0000 </r>
       <r>   10.1547    0.0000 </r>
       <r>   10.1570    0.0000 </r>
       <r>   10.1571    0.0000 </r>
       <r>   10.1682    0.0000 </r>
       <r>   10.2284    0.0000 </r>
       <r>   10.2414    0.0000 </r>
       <r>   10.2879    0.0000 </r>
       <r>   10.2886    0.0000 </r>
       <r>   10.3203    0.0000 </r>
       <r>   10.3216    0.0000 </r>
       <r>   10.3620    0.0000 </r>
       <r>   10.4402    0.0000 </r>
       <r>   10.4423    0.0000 </r>
       <r>   10.4429    0.0000 </r>
       <r>   10.4621    0.0000 </r>
       <r>   10.4623    0.0000 </r>
       <r>   10.4672    0.0000 </r>
       <r>   10.4837    0.0000 </r>
       <r>   10.5085    0.0000 </r>
       <r>   10.5174    0.0000 </r>
       <r>   10.5186    0.0000 </r>
       <r>   10.5212    0.0000 </r>
       <r>   10.5237    0.0000 </r>
       <r>   10.5725    0.0000 </r>
       <r>   10.5739    0.0000 </r>
       <r>   10.5744    0.0000 </r>
       <r>   10.5763    0.0000 </r>
       <r>   10.5775    0.0000 </r>
       <r>   10.5916    0.0000 </r>
       <r>   10.6022    0.0000 </r>
       <r>   10.6050    0.0000 </r>
       <r>   10.6489    0.0000 </r>
       <r>   10.7351    0.0000 </r>
       <r>   10.8308    0.0000 </r>
       <r>   10.8527    0.0000 </r>
       <r>   10.8737    0.0000 </r>
       <r>   10.8783    0.0000 </r>
       <r>   10.8832    0.0000 </r>
       <r>   10.8862    0.0000 </r>
       <r>   10.9026    0.0000 </r>
       <r>   10.9261    0.0000 </r>
       <r>   10.9439    0.0000 </r>
       <r>   10.9537    0.0000 </r>
       <r>   10.9569    0.0000 </r>
       <r>   10.9637    0.0000 </r>
       <r>   12.1206    0.0000 </r>
       <r>   12.3933    0.0000 </r>
      </set>
      <set comment="kpoint 2">
       <r>  -17.2938    1.0000 </r>
       <r>  -15.7754    1.0000 </r>
       <r>  -15.7305    1.0000 </r>
       <r>  -15.4210    1.0000 </r>
       <r>  -15.3133    1.0000 </r>
       <r>  -15.2502    1.0000 </r>
       <r>  -15.2296    1.0000 </r>
       <r>  -15.1959    1.0000 </r>
       <r>  -15.1872    1.0000 </r>
       <r>  -15.1014    1.0000 </r>
       <r>  -15.0675    1.0000 </r>
       <r>  -15.0264    1.0000 </r>
       <r>  -15.0070    1.0000 </r>
       <r>  -14.9558    1.0000 </r>
       <r>  -14.9471    1.0000 </r>
       <r>  -14.9380    1.0000 </r>
       <r>  -14.9360    1.0000 </r>
       <r>  -14.8566    1.0000 </r>
       <r>  -14.7537    1.0000 </r>
       <r>  -14.7522    1.0000 </r>
       <r>  -14.6205    1.0000 </r>
       <r>  -14.5702    1.0000 </r>
       <r>  -14.5560    1.0000 </r>
       <r>  -14.4589    1.0000 </r>
       <r>  -14.4448    1.0000 </r>
       <r>  -14.4435    1.0000 </r>
       <r>  -14.4292    1.0000 </r>
       <r>  -14.4248    1.0000 </r>
       <r>  -14.4192    1.0000 </r>
       <r>  -14.4160    1.0000 </r>
       <r>  -14.4151    1.0000 </r>
       <r>  -14.3557    1.0000 </r>
       <r>  -14.2464    1.0000 </r>
       <r>  -14.2422    1.0000 </r>
       <r>  -14.2397    1.0000 </r>
       <r>  -14.2391    1.0000 </r>
       <r>  -14.2022    1.0000 </r>
       <r>  -14.1913    1.0000 </r>
       <r>  -14.1678    1.0000 </r>
       <r>  -14.1663    1.0000 </r>
       <r>  -14.1215    1.0000 </r>
       <r>  -14.0360    1.0000 </r>
       <r>  -13.9971    1.0000 </r>
       <r>  -13.9944    1.0000 </r>
       <r>  -13.9465    1.0000 </r>
       <r>  -13.7943    1.0000 </r>
       <r>  -13.7369    1.0000 </r>
       <r>  -13.7141    1.0000 </r>
       <r>  -13.7101    1.0000 </r>
       <r>  -13.7082    1.0000 </r>
       <r>  -13.6953    1.0000 </r>
       <r>  -13.6939    1.0000 </r>
       <r>  -13.6735    1.0000 </r>
       <r>  -13.6712    1.0000 </r>
       <r>  -13.6078    1.0000 </r>
       <r>  -13.5315    1.0000 </r>
       <r>  -13.5312    1.0000 </r>
       <r>  -13.5153    1.0000 </r>
       <r>  -13.5146    1.0000 </r>
       <r>  -13.5054    1.0000 </r>
       <r>  -13.3599    1.0000 </r>
       <r>  -13.3380    1.0000 </r>
       <r>  -13.2555    1.0000 </r>
       <r>  -13.2236    1.0000 </r>
       <r>  -13.1150    1.0000 </r>
       <r>  -13.0592    1.0000 </r>
       <r>  -13.0540    1.0000 </r>
       <r>  -13.0509    1.0000 </r>
       <r>  -13.0438    1.0000 </r>
       <r>  -13.0398    1.0000 </r>
       <r>  -13.0366    1.0000 </r>
       <r>  -13.0350    1.0000 </r>
       <r>  -13.0333    1.0000 </r>
       <r>  -12.9775    1.0000 </r>
       <r>  -12.9319    1.0000 </r>
       <r>  -12.8878    1.0000 </r>
       <r>  -12.8847    1.0000 </r>
       <r>  -12.8819    1.0000 </r>
       <r>  -12.8802    1.0000 </r>
       <r>  -12.8764    1.0000 </r>
       <r>  -12.8750    1.0000 </r>
       <r>  -12.8734    1.0000 </r>
       <r>  -12.8713    1.0000 </r>
       <r>  -12.8686    1.0000 </r>
       <r>  -12.8661    1.0000 </r>
       <r>  -12.8635    1.0000 </r>
       <r>  -12.8633    1.0000 </r>
       <r>  -12.8607    1.0000 </r>
       <r>  -12.7160    1.0000 </r>
       <r>  -12.7143    1.0000 </r>
       <r>  -12.7137    1.0000 </r>
       <r>  -12.7135    1.0000 </r>
       <r>  -12.6827    1.0000 </r>
       <r>  -12.6098    1.0000 </r>
       <r>  -12.5933    1.0000 </r>
       <r>  -12.5855    1.0000 </r>
       <r>  -12.5682    1.0000 </r>
       <r>  -12.5534    1.0000 </r>
       <r>  -12.5331    1.0000 </r>
       <r>  -12.4979    1.0000 </r>
       <r>  -12.4378    1.0000 </r>
       <r>  -12.4319    1.0000 </r>
       <r>  -12.4245    1.0000 </r>
       <r>  -12.4199    1.0000 </r>
       <r>  -12.3361    1.0000 </r>
       <r>  -12.3341    1.0000 </r>
       <r>  -12.3284    1.0000 </r>
       <r>  -12.3249    1.0000 </r>
       <r>  -12.2478    1.0000 </r>
       <r>  -12.2413    1.0000 </r>
       <r>  -12.2409    1.0000 </r>
       <r>  -12.2352    1.0000 </r>
       <r>  -12.2149    1.0000 </r>
       <r>  -12.2147    1.0000 </r>
       <r>  -12.2071    1.0000 </r>
       <r>  -12.2059    1.0000 </r>
       <r>  -12.1768    1.0000 </r>
       <r>  -12.1767    1.0000 </r>
       <r>  -12.1703    1.0000 </r>
       <r>  -12.1702    1.0000 </r>
       <r>  -12.0962    1.0000 </r>
       <r>  -12.0958    1.0000 </r>
       <r>  -12.0891    1.0000 </r>
       <r>  -12.0870    1.0000 </r>
       <r>  -12.0858    1.0000 </r>
       <r>  -12.0843    1.0000 </r>
       <r>  -11.9501    1.0000 </r>
       <r>  -11.9482    1.0000 </r>
       <r>  -11.9465    1.0000 </r>
       <r>  -11.9445    1.0000 </r>
       <r>  -11.8161    1.0000 </r>
       <r>  -11.8156    1.0000 </r>
       <r>  -11.8116    1.0000 </r>
       <r>  -11.8068    1.0000 </r>
       <r>  -11.8064    1.0000 </r>
       <r>  -11.8056    1.0000 </r>
       <r>  -11.7838    1.0000 </r>
       <r>  -11.7825    1.0000 </r>
       <r>  -11.7802    1.0000 </r>
       <r>  -11.7751    1.0000 </r>
       <r>  -11.6688    1.0000 </r>
       <r>  -11.6686    1.0000 </r>
       <r>  -11.6610    1.0000 </r>
       <r>  -11.6610    1.0000 </r>
       <r>   -8.3632    1.0000 </r>
       <r>   -7.2842    1.0000 </r>
       <r>   -7.2708    1.0000 </r>
       <r>   -6.7937    1.0000 </r>
       <r>   -6.7045    1.0000 </r>
       <r>   -6.6827    1.0000 </r>
       <r>   -6.4382    1.0000 </r>
       <r>   -6.4064    1.0000 </r>
       <r>   -6.3225    1.0000 </r>
       <r>   -6.3087    1.0000 </r>
       <r>   -6.3068    1.0000 </r>
       <r>   -6.3060    1.0000 </r>
       <r>   -6.3012    1.0000 </r>
       <r>   -6.2876    1.0000 </r>
       <r>   -6.2730    1.0000 </r>
       <r>   -6.2716    1.0000 </r>
       <r>   -6.2709    1.0000 </r>
       <r>   -6.2664    1.0000 </r>
       <r>   -6.2166    1.0000 </r>
       <r>   -6.2139    1.0000 </r>
       <r>   -6.2128    1.0000 </r>
       <r>   -6.2050    1.0000 </r>
       <r>   -6.1988    1.0000 </r>
       <r>   -6.1959    1.0000 </r>
       <r>   -6.1591    1.0000 </r>
       <r>   -6.1589    1.0000 </r>
       <r>   -6.1486    1.0000 </r>
       <r>   -6.1485    1.0000 </r>
       <r>   -6.0723    1.0000 </r>
       <r>   -6.0711    1.0000 </r>
       <r>   -5.9354    1.0000 </r>
       <r>   -5.9315    1.0000 </r>
       <r>   -5.9072    1.0000 </r>
       <r>   -5.9055    1.0000 </r>
       <r>   -5.8435    1.0000 </r>
       <r>   -5.7897    1.0000 </r>
       <r>   -5.7816    1.0000 </r>
       <r>   -5.7742    1.0000 </r>
       <r>   -5.7698    1.0000 </r>
       <r>   -5.7647    1.0000 </r>
       <r>   -5.7646    1.0000 </r>
       <r>   -5.7634    1.0000 </r>
       <r>   -5.7628    1.0000 </r>
       <r>   -5.7560    1.0000 </r>
       <r>   -5.7523    1.0000 </r>
       <r>   -5.7500    1.0000 </r>
       <r>   -5.7432    1.0000 </r>
       <r>   -5.6846    1.0000 </r>
       <r>   -5.6546    1.0000 </r>
       <r>   -5.6419    1.0000 </r>
       <r>   -5.6231    1.0000 </r>
       <r>   -5.6230    1.0000 </r>
       <r>   -5.6195    1.0000 </r>
       <r>   -5.6194    1.0000 </r>
       <r>   -5.2268    1.0000 </r>
       <r>   -5.2265    1.0000 </r>
       <r>   -5.2236    1.0000 </r>
       <r>   -5.2228    1.0000 </r>
       <r>   -5.2216    1.0000 </r>
       <r>   -5.2214    1.0000 </r>
       <r>   -5.2208    1.0000 </r>
       <r>   -5.2196    1.0000 </r>
       <r>   -5.2190    1.0000 </r>
       <r>   -5.2183    1.0000 </r>
       <r>   -5.2179    1.0000 </r>
       <r>   -5.2168    1.0000 </r>
       <r>   -5.1150    1.0000 </r>
       <r>   -5.1104    1.0000 </r>
       <r>   -5.0907    1.0000 </r>
       <r>   -5.0906    1.0000 </r>
       <r>   -5.0877    1.0000 </r>
       <r>   -5.0876    1.0000 </r>
       <r>   -5.0874    1.0000 </r>
       <r>   -5.0871    1.0000 </r>
       <r>   -5.0260    1.0000 </r>
       <r>   -4.9212    1.0000 </r>
       <r>   -4.8319    1.0000 </r>
       <r>   -4.6117    1.0000 </r>
       <r>   -4.5542    1.0000 </r>
       <r>   -4.5412    1.0000 </r>
       <r>   -4.4778    1.0000 </r>
       <r>   -4.4739    1.0000 </r>
       <r>   -4.4722    1.0000 </r>
       <r>   -4.4717    1.0000 </r>
       <r>   -4.4706    1.0000 </r>
       <r>   -4.4686    1.0000 </r>
       <r>   -4.4679    1.0000 </r>
       <r>   -4.4677    1.0000 </r>
       <r>   -4.3413    1.0000 </r>
       <r>   -4.3410    1.0000 </r>
       <r>   -4.3408    1.0000 </r>
       <r>   -4.3407    1.0000 </r>
       <r>   -4.3176    1.0000 </r>
       <r>   -4.3164    1.0000 </r>
       <r>   -4.2020    1.0000 </r>
       <r>   -4.0976    1.0000 </r>
       <r>   -4.0894    1.0000 </r>
       <r>   -4.0877    1.0000 </r>
       <r>   -4.0856    1.0000 </r>
       <r>   -4.0843    1.0000 </r>
       <r>   -4.0738    1.0000 </r>
       <r>   -4.0734    1.0000 </r>
       <r>   -4.0712    1.0000 </r>
       <r>   -4.0701    1.0000 </r>
       <r>   -4.0286    1.0000 </r>
       <r>   -3.9503    1.0000 </r>
       <r>   -3.9502    1.0000 </r>
       <r>   -3.9465    1.0000 </r>
       <r>   -3.9464    1.0000 </r>
       <r>   -3.9093    1.0000 </r>
       <r>   -3.8654    1.0000 </r>
       <r>   -3.7859    1.0000 </r>
       <r>   -3.7505    1.0000 </r>
       <r>   -3.6239    1.0000 </r>
       <r>   -3.6229    1.0000 </r>
       <r>   -3.6159    1.0000 </r>
       <r>   -3.6151    1.0000 </r>
       <r>   -3.6027    1.0000 </r>
       <r>   -3.6017    1.0000 </r>
       <r>   -3.5972    1.0000 </r>
       <r>   -3.5955    1.0000 </r>
       <r>   -3.5165    1.0000 </r>
       <r>   -3.4799    1.0000 </r>
       <r>   -3.4796    1.0000 </r>
       <r>   -3.4782    1.0000 </r>
       <r>   -3.4738    1.0000 </r>
       <r>   -3.4737    1.0000 </r>
       <r>   -3.4698    1.0000 </r>
       <r>   -3.4685    1.0000 </r>
       <r>   -3.4655    1.0000 </r>
       <r>   -3.4650    1.0000 </r>
       <r>   -3.4507    1.0000 </r>
       <r>   -3.3494    1.0000 </r>
       <r>   -3.3383    1.0000 </r>
       <r>   -3.3382    1.0000 </r>
       <r>   -3.1560    1.0000 </r>
       <r>   -3.1304    1.0000 </r>
       <r>   -3.0973    1.0000 </r>
       <r>   -3.0756    1.0000 </r>
       <r>   -3.0731    1.0000 </r>
       <r>   -3.0698    1.0000 </r>
       <r>   -3.0693    1.0000 </r>
       <r>   -2.9927    1.0000 </r>
       <r>   -2.9382    1.0000 </r>
       <r>   -2.9376    1.0000 </r>
       <r>   -2.9322    1.0000 </r>
       <r>   -2.8558    1.0000 </r>
       <r>   -2.8113    1.0000 </r>
       <r>   -2.7784    1.0000 </r>
       <r>   -2.7705    1.0000 </r>
       <r>   -2.7698    1.0000 </r>
       <r>   -2.7565    1.0000 </r>
       <r>   -2.7527    1.0000 </r>
       <r>   -2.7358    1.0000 </r>
       <r>   -2.7262    1.0000 </r>
       <r>   -2.6847    1.0000 </r>
       <r>   -2.6792    1.0000 </r>
       <r>   -2.6698    1.0000 </r>
       <r>   -2.6678    1.0000 </r>
       <r>   -2.6674    1.0000 </r>
       <r>   -2.5441    1.0000 </r>
       <r>   -2.5438    1.0000 </r>
       <r>   -2.5235    1.0000 </r>
       <r>   -2.5229    1.0000 </r>
       <r>   -2.5123    1.0000 </r>
       <r>   -2.4607    1.0000 </r>
       <r>   -2.4253    1.0000 </r>
       <r>   -2.4161    1.0000 </r>
       <r>   -2.3848    1.0000 </r>
       <r>   -2.3767    1.0000 </r>
       <r>   -2.3744    1.0000 </r>
       <r>   -2.3740    1.0000 </r>
       <r>   -2.3728    1.0000 </r>
       <r>   -2.3712    1.0000 </r>
       <r>   -2.3698    1.0000 </r>
       <r>   -2.3690    1.0000 </r>
       <r>   -2.3682    1.0000 </r>
       <r>   -2.3598    1.0000 </r>
       <r>   -2.3580    1.0000 </r>
       <r>   -2.3552    1.0000 </r>
       <r>   -2.3292    1.0000 </r>
       <r>   -2.2675    1.0000 </r>
       <r>   -2.2409    1.0000 </r>
       <r>   -2.2404    1.0000 </r>
       <r>   -2.2403    1.0000 </r>
       <r>   -2.2400    1.0000 </r>
       <r>   -2.2119    1.0000 </r>
       <r>   -2.1750    1.0000 </r>
       <r>   -2.1454    1.0000 </r>
       <r>   -2.1300    1.0000 </r>
       <r>   -2.0919    1.0000 </r>
       <r>   -2.0899    1.0000 </r>
       <r>   -2.0888    1.0000 </r>
       <r>   -2.0883    1.0000 </r>
       <r>   -2.0548    1.0000 </r>
       <r>   -2.0542    1.0000 </r>
       <r>   -2.0541    1.0000 </r>
       <r>   -2.0517    1.0000 </r>
       <r>   -2.0413    1.0000 </r>
       <r>   -2.0318    1.0000 </r>
       <r>   -2.0110    1.0000 </r>
       <r>   -2.0093    1.0000 </r>
       <r>   -1.9824    1.0000 </r>
       <r>   -1.9433    1.0000 </r>
       <r>   -1.9433    1.0000 </r>
       <r>   -1.9327    1.0000 </r>
       <r>   -1.9326    1.0000 </r>
       <r>   -1.8964    1.0000 </r>
       <r>   -1.8705    1.0000 </r>
       <r>   -1.8682    1.0000 </r>
       <r>   -1.8672    1.0000 </r>
       <r>   -1.8641    1.0000 </r>
       <r>   -1.8578    1.0000 </r>
       <r>   -1.8557    1.0000 </r>
       <r>   -1.8226    1.0000 </r>
       <r>   -1.8206    1.0000 </r>
       <r>   -1.8173    1.0000 </r>
       <r>   -1.8148    1.0000 </r>
       <r>   -1.7851    1.0000 </r>
       <r>   -1.7816    1.0000 </r>
       <r>   -1.7770    1.0000 </r>
       <r>   -1.7764    1.0000 </r>
       <r>   -1.7760    1.0000 </r>
       <r>   -1.7753    1.0000 </r>
       <r>   -1.7749    1.0000 </r>
       <r>   -1.7743    1.0000 </r>
       <r>   -1.7733    1.0000 </r>
       <r>   -1.7167    1.0000 </r>
       <r>   -1.7090    1.0000 </r>
       <r>   -1.7085    1.0000 </r>
       <r>   -1.6959    1.0000 </r>
       <r>   -1.6608    1.0000 </r>
       <r>   -1.6510    1.0000 </r>
       <r>   -1.6452    1.0000 </r>
       <r>   -1.6451    1.0000 </r>
       <r>   -1.6449    1.0000 </r>
       <r>   -1.6448    1.0000 </r>
       <r>   -1.6342    1.0000 </r>
       <r>   -1.6158    1.0000 </r>
       <r>   -1.6130    1.0000 </r>
       <r>   -1.6051    1.0000 </r>
       <r>   -1.6041    1.0000 </r>
       <r>   -1.5842    1.0000 </r>
       <r>   -1.5814    1.0000 </r>
       <r>   -1.5801    1.0000 </r>
       <r>   -1.5660    1.0000 </r>
       <r>   -1.5659    1.0000 </r>
       <r>   -1.5582    1.0000 </r>
       <r>   -1.5527    1.0000 </r>
       <r>   -1.5474    1.0000 </r>
       <r>   -1.4913    1.0000 </r>
       <r>   -1.4559    1.0000 </r>
       <r>   -1.4414    1.0000 </r>
       <r>   -1.4311    1.0000 </r>
       <r>   -1.3498    1.0000 </r>
       <r>   -1.3491    1.0000 </r>
       <r>   -1.3392    1.0000 </r>
       <r>   -1.3382    1.0000 </r>
       <r>   -1.2332    1.0000 </r>
       <r>   -1.2299    1.0000 </r>
       <r>   -1.2272    1.0000 </r>
       <r>   -1.2264    1.0000 </r>
       <r>   -1.2124    1.0000 </r>
       <r>   -1.2107    1.0000 </r>
       <r>   -1.2103    1.0000 </r>
       <r>   -1.2058    1.0000 </r>
       <r>   -1.1912    1.0000 </r>
       <r>   -1.0916    1.0000 </r>
       <r>   -1.0915    1.0000 </r>
       <r>   -1.0859    1.0000 </r>
       <r>   -1.0858    1.0000 </r>
       <r>   -1.0521    1.0000 </r>
       <r>   -1.0274    1.0000 </r>
       <r>   -1.0143    1.0000 </r>
       <r>   -0.9787    1.0000 </r>
       <r>   -0.9330    1.0000 </r>
       <r>   -0.8688    1.0000 </r>
       <r>   -0.8465    1.0000 </r>
       <r>   -0.7809    1.0000 </r>
       <r>   -0.7787    1.0000 </r>
       <r>   -0.7575    1.0000 </r>
       <r>   -0.7253    1.0000 </r>
       <r>   -0.7189    1.0000 </r>
       <r>   -0.7135    1.0000 </r>
       <r>   -0.7114    1.0000 </r>
       <r>   -0.7099    1.0000 </r>
       <r>   -0.6788    1.0000 </r>
       <r>   -0.6761    1.0000 </r>
       <r>   -0.6740    1.0000 </r>
       <r>   -0.6727    1.0000 </r>
       <r>   -0.6634    1.0000 </r>
       <r>   -0.6573    1.0000 </r>
       <r>   -0.6561    1.0000 </r>
       <r>   -0.6263    1.0000 </r>
       <r>   -0.5180    1.0000 </r>
       <r>   -0.5169    1.0000 </r>
       <r>   -0.5155    1.0000 </r>
       <r>   -0.5131    1.0000 </r>
       <r>   -0.4629    1.0000 </r>
       <r>   -0.4610    1.0000 </r>
       <r>   -0.4588    1.0000 </r>
       <r>   -0.4570    1.0000 </r>
       <r>   -0.4553    1.0000 </r>
       <r>   -0.4540    1.0000 </r>
       <r>   -0.4518    1.0000 </r>
       <r>   -0.4454    1.0000 </r>
       <r>   -0.4405    1.0000 </r>
       <r>   -0.4115    1.0000 </r>
       <r>   -0.3840    1.0000 </r>
       <r>   -0.3834    1.0000 </r>
       <r>   -0.3834    1.0000 </r>
       <r>   -0.3707    1.0000 </r>
       <r>   -0.3556    1.0000 </r>
       <r>   -0.3551    1.0000 </r>
       <r>   -0.3536    1.0000 </r>
       <r>   -0.3439    1.0000 </r>
       <r>   -0.3430    1.0000 </r>
       <r>   -0.3420    1.0000 </r>
       <r>   -0.3269    1.0000 </r>
       <r>   -0.3263    1.0000 </r>
       <r>   -0.3262    1.0000 </r>
       <r>   -0.3258    1.0000 </r>
       <r>   -0.2800    1.0000 </r>
       <r>   -0.2255    1.0000 </r>
       <r>   -0.2250    1.0000 </r>
       <r>   -0.1261    1.0000 </r>
       <r>   -0.0464    1.0000 </r>
       <r>    0.0033    1.0000 </r>
       <r>    0.0425    1.0000 </r>
       <r>    0.1174    1.0000 </r>
       <r>    0.1516    1.0000 </r>
       <r>    0.1549    1.0000 </r>
       <r>    0.1664    1.0000 </r>
       <r>    0.1861    1.0000 </r>
       <r>    0.1996    1.0000 </r>
       <r>    0.2126    1.0000 </r>
       <r>    0.2137    1.0000 </r>
       <r>    0.2178    1.0000 </r>
       <r>    0.2203    1.0000 </r>
       <r>    0.2376    1.0000 </r>
       <r>    0.2422    1.0000 </r>
       <r>    0.2861    1.0000 </r>
       <r>    0.3102    1.0000 </r>
       <r>    0.3159    1.0000 </r>
       <r>    0.3416    1.0000 </r>
       <r>    0.3442    1.0000 </r>
       <r>    0.3483    1.0000 </r>
       <r>    0.3499    1.0000 </r>
       <r>    0.3653    1.0000 </r>
       <r>    0.3760    1.0000 </r>
       <r>    0.3939    1.0000 </r>
       <r>    0.4547    1.0000 </r>
       <r>    0.4570    1.0000 </r>
       <r>    0.4585    1.0000 </r>
       <r>    0.4624    1.0000 </r>
       <r>    0.4643    1.0000 </r>
       <r>    0.4647    1.0000 </r>
       <r>    0.4765    1.0000 </r>
       <r>    0.4772    1.0000 </r>
       <r>    0.5523    1.0000 </r>
       <r>    0.5583    1.0000 </r>
       <r>    0.5659    1.0000 </r>
       <r>    0.5846    1.0000 </r>
       <r>    0.5892    1.0000 </r>
       <r>    0.6849    1.0000 </r>
       <r>    0.6934    1.0000 </r>
       <r>    0.7003    1.0000 </r>
       <r>    0.7032    1.0000 </r>
       <r>    0.7234    1.0000 </r>
       <r>    0.8084    1.0000 </r>
       <r>    0.8092    1.0000 </r>
       <r>    0.8393    1.0000 </r>
       <r>    0.8555    1.0000 </r>
       <r>    0.8564    1.0000 </r>
       <r>    0.8792    1.0000 </r>
       <r>    0.8847    1.0000 </r>
       <r>    0.8902    1.0000 </r>
       <r>    0.9174    1.0000 </r>
       <r>    0.9912    1.0000 </r>
       <r>    0.9917    1.0000 </r>
       <r>    0.9934    1.0000 </r>
       <r>    1.0030    1.0000 </r>
       <r>    1.0209    1.0000 </r>
       <r>    1.0325    1.0000 </r>
       <r>    1.0815    1.0000 </r>
       <r>    1.0976    1.0000 </r>
       <r>    1.2067    1.0000 </r>
       <r>    1.2080    1.0000 </r>
       <r>    1.2147    1.0000 </r>
       <r>    1.2329    1.0000 </r>
       <r>    1.2450    1.0000 </r>
       <r>    1.2460    1.0000 </r>
       <r>    1.2529    1.0000 </r>
       <r>    1.2593    1.0000 </r>
       <r>    1.3143    1.0000 </r>
       <r>    1.3155    1.0000 </r>
       <r>    1.3663    1.0000 </r>
       <r>    1.3668    1.0000 </r>
       <r>    1.4010    1.0000 </r>
       <r>    1.4024    1.0000 </r>
       <r>    1.4412    1.0000 </r>
       <r>    1.4427    1.0000 </r>
       <r>    1.4982    1.0000 </r>
       <r>    1.5010    1.0000 </r>
       <r>    1.5369    1.0000 </r>
       <r>    1.5776    1.0000 </r>
       <r>    1.5889    1.0000 </r>
       <r>    1.5892    1.0000 </r>
       <r>    1.7635    1.0000 </r>
       <r>    1.7687    1.0000 </r>
       <r>    1.8469    1.0000 </r>
       <r>    1.8558    1.0000 </r>
       <r>    1.8593    1.0000 </r>
       <r>    1.8602    1.0000 </r>
       <r>    1.9174    1.0000 </r>
       <r>    1.9249    1.0000 </r>
       <r>    1.9546    1.0000 </r>
       <r>    1.9595    1.0000 </r>
       <r>    1.9792    1.0000 </r>
       <r>    1.9812    1.0000 </r>
       <r>    2.0237    1.0000 </r>
       <r>    2.0242    1.0000 </r>
       <r>    2.0618    1.0000 </r>
       <r>    2.0668    1.0000 </r>
       <r>    2.0971    1.0000 </r>
       <r>    2.0993    1.0000 </r>
       <r>    2.2235    1.0000 </r>
       <r>    2.2307    1.0000 </r>
       <r>    2.3989    1.0000 </r>
       <r>    2.3997    1.0000 </r>
       <r>    2.4042    1.0000 </r>
       <r>    2.4058    1.0000 </r>
       <r>    4.6618    1.0000 </r>
       <r>    5.8853    0.0000 </r>
       <r>    6.6168    0.0000 </r>
       <r>    6.6374    0.0000 </r>
       <r>    6.6376    0.0000 </r>
       <r>    6.8798    0.0000 </r>
       <r>    6.9268    0.0000 </r>
       <r>    6.9913    0.0000 </r>
       <r>    7.0038    0.0000 </r>
       <r>    7.0780    0.0000 </r>
       <r>    7.0877    0.0000 </r>
       <r>    7.1514    0.0000 </r>
       <r>    7.2112    0.0000 </r>
       <r>    7.2122    0.0000 </r>
       <r>    7.2283    0.0000 </r>
       <r>    7.2434    0.0000 </r>
       <r>    7.2820    0.0000 </r>
       <r>    7.2958    0.0000 </r>
       <r>    7.3047    0.0000 </r>
       <r>    7.3287    0.0000 </r>
       <r>    7.3336    0.0000 </r>
       <r>    7.3382    0.0000 </r>
       <r>    7.3431    0.0000 </r>
       <r>    7.3436    0.0000 </r>
       <r>    7.3609    0.0000 </r>
       <r>    7.3619    0.0000 </r>
       <r>    7.3835    0.0000 </r>
       <r>    7.3845    0.0000 </r>
       <r>    7.3900    0.0000 </r>
       <r>    7.3948    0.0000 </r>
       <r>    7.4302    0.0000 </r>
       <r>    7.4337    0.0000 </r>
       <r>    7.4586    0.0000 </r>
       <r>    7.6871    0.0000 </r>
       <r>    7.7390    0.0000 </r>
       <r>    7.7416    0.0000 </r>
       <r>    7.7457    0.0000 </r>
       <r>    7.7914    0.0000 </r>
       <r>    7.8211    0.0000 </r>
       <r>    7.8449    0.0000 </r>
       <r>    7.8750    0.0000 </r>
       <r>    7.8884    0.0000 </r>
       <r>    7.9067    0.0000 </r>
       <r>    7.9133    0.0000 </r>
       <r>    7.9179    0.0000 </r>
       <r>    7.9420    0.0000 </r>
       <r>    7.9658    0.0000 </r>
       <r>    8.0624    0.0000 </r>
       <r>    8.1118    0.0000 </r>
       <r>    8.1676    0.0000 </r>
       <r>    8.1707    0.0000 </r>
       <r>    8.1727    0.0000 </r>
       <r>    8.1853    0.0000 </r>
       <r>    8.2087    0.0000 </r>
       <r>    8.2220    0.0000 </r>
       <r>    8.2227    0.0000 </r>
       <r>    8.2331    0.0000 </r>
       <r>    8.2408    0.0000 </r>
       <r>    8.2547    0.0000 </r>
       <r>    8.2826    0.0000 </r>
       <r>    8.3932    0.0000 </r>
       <r>    8.5608    0.0000 </r>
       <r>    8.5811    0.0000 </r>
       <r>    8.5913    0.0000 </r>
       <r>    8.6335    0.0000 </r>
       <r>    8.6342    0.0000 </r>
       <r>    8.6443    0.0000 </r>
       <r>    8.6622    0.0000 </r>
       <r>    8.6694    0.0000 </r>
       <r>    8.6791    0.0000 </r>
       <r>    8.6872    0.0000 </r>
       <r>    8.6880    0.0000 </r>
       <r>    8.7307    0.0000 </r>
       <r>    8.8812    0.0000 </r>
       <r>    8.9558    0.0000 </r>
       <r>    8.9906    0.0000 </r>
       <r>    8.9979    0.0000 </r>
       <r>    9.0085    0.0000 </r>
       <r>    9.0563    0.0000 </r>
       <r>    9.1239    0.0000 </r>
       <r>    9.2099    0.0000 </r>
       <r>    9.2394    0.0000 </r>
       <r>    9.2642    0.0000 </r>
       <r>    9.2667    0.0000 </r>
       <r>    9.2680    0.0000 </r>
       <r>    9.2813    0.0000 </r>
       <r>    9.2946    0.0000 </r>
       <r>    9.2990    0.0000 </r>
       <r>    9.3035    0.0000 </r>
       <r>    9.3188    0.0000 </r>
       <r>    9.3255    0.0000 </r>
       <r>    9.3276    0.0000 </r>
       <r>    9.3285    0.0000 </r>
       <r>    9.3555    0.0000 </r>
       <r>    9.3982    0.0000 </r>
       <r>    9.4734    0.0000 </r>
       <r>    9.6112    0.0000 </r>
       <r>    9.6274    0.0000 </r>
       <r>    9.6805    0.0000 </r>
       <r>    9.6888    0.0000 </r>
       <r>    9.6905    0.0000 </r>
       <r>    9.7181    0.0000 </r>
       <r>    9.8765    0.0000 </r>
       <r>   10.0644    0.0000 </r>
       <r>   10.0891    0.0000 </r>
       <r>   10.0905    0.0000 </r>
       <r>   10.1011    0.0000 </r>
       <r>   10.1418    0.0000 </r>
       <r>   10.1712    0.0000 </r>
       <r>   10.1750    0.0000 </r>
       <r>   10.1892    0.0000 </r>
       <r>   10.1978    0.0000 </r>
       <r>   10.2275    0.0000 </r>
       <r>   10.2354    0.0000 </r>
       <r>   10.2828    0.0000 </r>
       <r>   10.3014    0.0000 </r>
       <r>   10.3042    0.0000 </r>
       <r>   10.3762    0.0000 </r>
       <r>   10.3800    0.0000 </r>
       <r>   10.3897    0.0000 </r>
       <r>   10.3940    0.0000 </r>
       <r>   10.4124    0.0000 </r>
       <r>   10.4361    0.0000 </r>
       <r>   10.4417    0.0000 </r>
       <r>   10.4655    0.0000 </r>
       <r>   10.5081    0.0000 </r>
       <r>   10.5276    0.0000 </r>
       <r>   10.6257    0.0000 </r>
       <r>   10.6684    0.0000 </r>
       <r>   10.7196    0.0000 </r>
       <r>   10.7207    0.0000 </r>
       <r>   10.7231    0.0000 </r>
       <r>   10.7305    0.0000 </r>
       <r>   10.7511    0.0000 </r>
       <r>   10.7580    0.0000 </r>
       <r>   10.7636    0.0000 </r>
       <r>   10.7821    0.0000 </r>
       <r>   10.7877    0.0000 </r>
       <r>   10.7930    0.0000 </r>
       <r>   10.8138    0.0000 </r>
       <r>   10.8151    0.0000 </r>
       <r>   11.2347    0.0000 </r>
       <r>   11.2593    0.0000 </r>
       <r>   11.5023    0.0000 </r>
       <r>   11.5847    0.0000 </r>
       <r>   11.6190    0.0000 </r>
       <r>   11.6662    0.0000 </r>
       <r>   11.7244    0.0000 </r>
       <r>   11.7420    0.0000 </r>
       <r>   11.7754    0.0000 </r>
       <r>   11.7979    0.0000 </r>
       <r>   11.8454    0.0000 </r>
      </set>
      <set comment="kpoint 3">
       <r>  -17.2938    1.0000 </r>
       <r>  -15.7756    1.0000 </r>
       <r>  -15.7304    1.0000 </r>
       <r>  -15.4202    1.0000 </r>
       <r>  -15.3138    1.0000 </r>
       <r>  -15.2496    1.0000 </r>
       <r>  -15.2287    1.0000 </r>
       <r>  -15.1966    1.0000 </r>
       <r>  -15.1886    1.0000 </r>
       <r>  -15.1016    1.0000 </r>
       <r>  -15.0681    1.0000 </r>
       <r>  -15.0260    1.0000 </r>
       <r>  -15.0077    1.0000 </r>
       <r>  -14.9550    1.0000 </r>
       <r>  -14.9474    1.0000 </r>
       <r>  -14.9375    1.0000 </r>
       <r>  -14.9357    1.0000 </r>
       <r>  -14.8567    1.0000 </r>
       <r>  -14.7533    1.0000 </r>
       <r>  -14.7523    1.0000 </r>
       <r>  -14.6202    1.0000 </r>
       <r>  -14.5699    1.0000 </r>
       <r>  -14.5560    1.0000 </r>
       <r>  -14.4586    1.0000 </r>
       <r>  -14.4449    1.0000 </r>
       <r>  -14.4437    1.0000 </r>
       <r>  -14.4301    1.0000 </r>
       <r>  -14.4243    1.0000 </r>
       <r>  -14.4192    1.0000 </r>
       <r>  -14.4168    1.0000 </r>
       <r>  -14.4155    1.0000 </r>
       <r>  -14.3552    1.0000 </r>
       <r>  -14.2466    1.0000 </r>
       <r>  -14.2420    1.0000 </r>
       <r>  -14.2400    1.0000 </r>
       <r>  -14.2394    1.0000 </r>
       <r>  -14.2012    1.0000 </r>
       <r>  -14.1917    1.0000 </r>
       <r>  -14.1676    1.0000 </r>
       <r>  -14.1663    1.0000 </r>
       <r>  -14.1216    1.0000 </r>
       <r>  -14.0363    1.0000 </r>
       <r>  -13.9968    1.0000 </r>
       <r>  -13.9946    1.0000 </r>
       <r>  -13.9468    1.0000 </r>
       <r>  -13.7940    1.0000 </r>
       <r>  -13.7356    1.0000 </r>
       <r>  -13.7129    1.0000 </r>
       <r>  -13.7088    1.0000 </r>
       <r>  -13.7071    1.0000 </r>
       <r>  -13.6962    1.0000 </r>
       <r>  -13.6951    1.0000 </r>
       <r>  -13.6756    1.0000 </r>
       <r>  -13.6719    1.0000 </r>
       <r>  -13.6080    1.0000 </r>
       <r>  -13.5309    1.0000 </r>
       <r>  -13.5306    1.0000 </r>
       <r>  -13.5161    1.0000 </r>
       <r>  -13.5150    1.0000 </r>
       <r>  -13.5057    1.0000 </r>
       <r>  -13.3598    1.0000 </r>
       <r>  -13.3379    1.0000 </r>
       <r>  -13.2554    1.0000 </r>
       <r>  -13.2236    1.0000 </r>
       <r>  -13.1144    1.0000 </r>
       <r>  -13.0595    1.0000 </r>
       <r>  -13.0543    1.0000 </r>
       <r>  -13.0523    1.0000 </r>
       <r>  -13.0427    1.0000 </r>
       <r>  -13.0395    1.0000 </r>
       <r>  -13.0367    1.0000 </r>
       <r>  -13.0354    1.0000 </r>
       <r>  -13.0340    1.0000 </r>
       <r>  -12.9772    1.0000 </r>
       <r>  -12.9315    1.0000 </r>
       <r>  -12.8882    1.0000 </r>
       <r>  -12.8842    1.0000 </r>
       <r>  -12.8820    1.0000 </r>
       <r>  -12.8806    1.0000 </r>
       <r>  -12.8761    1.0000 </r>
       <r>  -12.8741    1.0000 </r>
       <r>  -12.8731    1.0000 </r>
       <r>  -12.8726    1.0000 </r>
       <r>  -12.8672    1.0000 </r>
       <r>  -12.8663    1.0000 </r>
       <r>  -12.8647    1.0000 </r>
       <r>  -12.8629    1.0000 </r>
       <r>  -12.8608    1.0000 </r>
       <r>  -12.7159    1.0000 </r>
       <r>  -12.7142    1.0000 </r>
       <r>  -12.7138    1.0000 </r>
       <r>  -12.7136    1.0000 </r>
       <r>  -12.6823    1.0000 </r>
       <r>  -12.6098    1.0000 </r>
       <r>  -12.5916    1.0000 </r>
       <r>  -12.5841    1.0000 </r>
       <r>  -12.5692    1.0000 </r>
       <r>  -12.5549    1.0000 </r>
       <r>  -12.5336    1.0000 </r>
       <r>  -12.4987    1.0000 </r>
       <r>  -12.4379    1.0000 </r>
       <r>  -12.4316    1.0000 </r>
       <r>  -12.4245    1.0000 </r>
       <r>  -12.4201    1.0000 </r>
       <r>  -12.3360    1.0000 </r>
       <r>  -12.3323    1.0000 </r>
       <r>  -12.3282    1.0000 </r>
       <r>  -12.3234    1.0000 </r>
       <r>  -12.2439    1.0000 </r>
       <r>  -12.2418    1.0000 </r>
       <r>  -12.2392    1.0000 </r>
       <r>  -12.2362    1.0000 </r>
       <r>  -12.2168    1.0000 </r>
       <r>  -12.2154    1.0000 </r>
       <r>  -12.2103    1.0000 </r>
       <r>  -12.2081    1.0000 </r>
       <r>  -12.1768    1.0000 </r>
       <r>  -12.1767    1.0000 </r>
       <r>  -12.1698    1.0000 </r>
       <r>  -12.1697    1.0000 </r>
       <r>  -12.0958    1.0000 </r>
       <r>  -12.0956    1.0000 </r>
       <r>  -12.0894    1.0000 </r>
       <r>  -12.0873    1.0000 </r>
       <r>  -12.0865    1.0000 </r>
       <r>  -12.0846    1.0000 </r>
       <r>  -11.9501    1.0000 </r>
       <r>  -11.9488    1.0000 </r>
       <r>  -11.9463    1.0000 </r>
       <r>  -11.9449    1.0000 </r>
       <r>  -11.8158    1.0000 </r>
       <r>  -11.8152    1.0000 </r>
       <r>  -11.8071    1.0000 </r>
       <r>  -11.8065    1.0000 </r>
       <r>  -11.8054    1.0000 </r>
       <r>  -11.8047    1.0000 </r>
       <r>  -11.7864    1.0000 </r>
       <r>  -11.7827    1.0000 </r>
       <r>  -11.7816    1.0000 </r>
       <r>  -11.7764    1.0000 </r>
       <r>  -11.6685    1.0000 </r>
       <r>  -11.6683    1.0000 </r>
       <r>  -11.6613    1.0000 </r>
       <r>  -11.6613    1.0000 </r>
       <r>   -8.3632    1.0000 </r>
       <r>   -7.2841    1.0000 </r>
       <r>   -7.2708    1.0000 </r>
       <r>   -6.7938    1.0000 </r>
       <r>   -6.7048    1.0000 </r>
       <r>   -6.6828    1.0000 </r>
       <r>   -6.4380    1.0000 </r>
       <r>   -6.4063    1.0000 </r>
       <r>   -6.3220    1.0000 </r>
       <r>   -6.3076    1.0000 </r>
       <r>   -6.3055    1.0000 </r>
       <r>   -6.3048    1.0000 </r>
       <r>   -6.3006    1.0000 </r>
       <r>   -6.2870    1.0000 </r>
       <r>   -6.2736    1.0000 </r>
       <r>   -6.2725    1.0000 </r>
       <r>   -6.2714    1.0000 </r>
       <r>   -6.2709    1.0000 </r>
       <r>   -6.2168    1.0000 </r>
       <r>   -6.2138    1.0000 </r>
       <r>   -6.2117    1.0000 </r>
       <r>   -6.2056    1.0000 </r>
       <r>   -6.1990    1.0000 </r>
       <r>   -6.1956    1.0000 </r>
       <r>   -6.1587    1.0000 </r>
       <r>   -6.1586    1.0000 </r>
       <r>   -6.1490    1.0000 </r>
       <r>   -6.1489    1.0000 </r>
       <r>   -6.0723    1.0000 </r>
       <r>   -6.0712    1.0000 </r>
       <r>   -5.9326    1.0000 </r>
       <r>   -5.9306    1.0000 </r>
       <r>   -5.9074    1.0000 </r>
       <r>   -5.9072    1.0000 </r>
       <r>   -5.8438    1.0000 </r>
       <r>   -5.7893    1.0000 </r>
       <r>   -5.7819    1.0000 </r>
       <r>   -5.7741    1.0000 </r>
       <r>   -5.7689    1.0000 </r>
       <r>   -5.7646    1.0000 </r>
       <r>   -5.7644    1.0000 </r>
       <r>   -5.7631    1.0000 </r>
       <r>   -5.7608    1.0000 </r>
       <r>   -5.7566    1.0000 </r>
       <r>   -5.7533    1.0000 </r>
       <r>   -5.7509    1.0000 </r>
       <r>   -5.7436    1.0000 </r>
       <r>   -5.6847    1.0000 </r>
       <r>   -5.6547    1.0000 </r>
       <r>   -5.6421    1.0000 </r>
       <r>   -5.6229    1.0000 </r>
       <r>   -5.6228    1.0000 </r>
       <r>   -5.6197    1.0000 </r>
       <r>   -5.6196    1.0000 </r>
       <r>   -5.2271    1.0000 </r>
       <r>   -5.2263    1.0000 </r>
       <r>   -5.2237    1.0000 </r>
       <r>   -5.2231    1.0000 </r>
       <r>   -5.2222    1.0000 </r>
       <r>   -5.2214    1.0000 </r>
       <r>   -5.2209    1.0000 </r>
       <r>   -5.2205    1.0000 </r>
       <r>   -5.2191    1.0000 </r>
       <r>   -5.2183    1.0000 </r>
       <r>   -5.2181    1.0000 </r>
       <r>   -5.2171    1.0000 </r>
       <r>   -5.1150    1.0000 </r>
       <r>   -5.1105    1.0000 </r>
       <r>   -5.0907    1.0000 </r>
       <r>   -5.0906    1.0000 </r>
       <r>   -5.0877    1.0000 </r>
       <r>   -5.0876    1.0000 </r>
       <r>   -5.0874    1.0000 </r>
       <r>   -5.0872    1.0000 </r>
       <r>   -5.0260    1.0000 </r>
       <r>   -4.9211    1.0000 </r>
       <r>   -4.8318    1.0000 </r>
       <r>   -4.6116    1.0000 </r>
       <r>   -4.5543    1.0000 </r>
       <r>   -4.5412    1.0000 </r>
       <r>   -4.4753    1.0000 </r>
       <r>   -4.4745    1.0000 </r>
       <r>   -4.4724    1.0000 </r>
       <r>   -4.4718    1.0000 </r>
       <r>   -4.4703    1.0000 </r>
       <r>   -4.4690    1.0000 </r>
       <r>   -4.4683    1.0000 </r>
       <r>   -4.4664    1.0000 </r>
       <r>   -4.3412    1.0000 </r>
       <r>   -4.3410    1.0000 </r>
       <r>   -4.3409    1.0000 </r>
       <r>   -4.3408    1.0000 </r>
       <r>   -4.3176    1.0000 </r>
       <r>   -4.3164    1.0000 </r>
       <r>   -4.2019    1.0000 </r>
       <r>   -4.0977    1.0000 </r>
       <r>   -4.0879    1.0000 </r>
       <r>   -4.0872    1.0000 </r>
       <r>   -4.0853    1.0000 </r>
       <r>   -4.0838    1.0000 </r>
       <r>   -4.0741    1.0000 </r>
       <r>   -4.0738    1.0000 </r>
       <r>   -4.0720    1.0000 </r>
       <r>   -4.0710    1.0000 </r>
       <r>   -4.0287    1.0000 </r>
       <r>   -3.9502    1.0000 </r>
       <r>   -3.9500    1.0000 </r>
       <r>   -3.9466    1.0000 </r>
       <r>   -3.9465    1.0000 </r>
       <r>   -3.9092    1.0000 </r>
       <r>   -3.8653    1.0000 </r>
       <r>   -3.7856    1.0000 </r>
       <r>   -3.7512    1.0000 </r>
       <r>   -3.6232    1.0000 </r>
       <r>   -3.6220    1.0000 </r>
       <r>   -3.6153    1.0000 </r>
       <r>   -3.6141    1.0000 </r>
       <r>   -3.6042    1.0000 </r>
       <r>   -3.6024    1.0000 </r>
       <r>   -3.5990    1.0000 </r>
       <r>   -3.5973    1.0000 </r>
       <r>   -3.5151    1.0000 </r>
       <r>   -3.4798    1.0000 </r>
       <r>   -3.4793    1.0000 </r>
       <r>   -3.4780    1.0000 </r>
       <r>   -3.4740    1.0000 </r>
       <r>   -3.4739    1.0000 </r>
       <r>   -3.4688    1.0000 </r>
       <r>   -3.4683    1.0000 </r>
       <r>   -3.4655    1.0000 </r>
       <r>   -3.4646    1.0000 </r>
       <r>   -3.4508    1.0000 </r>
       <r>   -3.3495    1.0000 </r>
       <r>   -3.3383    1.0000 </r>
       <r>   -3.3382    1.0000 </r>
       <r>   -3.1561    1.0000 </r>
       <r>   -3.1308    1.0000 </r>
       <r>   -3.0973    1.0000 </r>
       <r>   -3.0756    1.0000 </r>
       <r>   -3.0733    1.0000 </r>
       <r>   -3.0708    1.0000 </r>
       <r>   -3.0694    1.0000 </r>
       <r>   -2.9929    1.0000 </r>
       <r>   -2.9382    1.0000 </r>
       <r>   -2.9376    1.0000 </r>
       <r>   -2.9325    1.0000 </r>
       <r>   -2.8559    1.0000 </r>
       <r>   -2.8105    1.0000 </r>
       <r>   -2.7794    1.0000 </r>
       <r>   -2.7705    1.0000 </r>
       <r>   -2.7699    1.0000 </r>
       <r>   -2.7566    1.0000 </r>
       <r>   -2.7538    1.0000 </r>
       <r>   -2.7359    1.0000 </r>
       <r>   -2.7263    1.0000 </r>
       <r>   -2.6832    1.0000 </r>
       <r>   -2.6793    1.0000 </r>
       <r>   -2.6688    1.0000 </r>
       <r>   -2.6680    1.0000 </r>
       <r>   -2.6674    1.0000 </r>
       <r>   -2.5441    1.0000 </r>
       <r>   -2.5438    1.0000 </r>
       <r>   -2.5233    1.0000 </r>
       <r>   -2.5223    1.0000 </r>
       <r>   -2.5123    1.0000 </r>
       <r>   -2.4607    1.0000 </r>
       <r>   -2.4241    1.0000 </r>
       <r>   -2.4166    1.0000 </r>
       <r>   -2.3850    1.0000 </r>
       <r>   -2.3766    1.0000 </r>
       <r>   -2.3753    1.0000 </r>
       <r>   -2.3737    1.0000 </r>
       <r>   -2.3727    1.0000 </r>
       <r>   -2.3721    1.0000 </r>
       <r>   -2.3703    1.0000 </r>
       <r>   -2.3703    1.0000 </r>
       <r>   -2.3691    1.0000 </r>
       <r>   -2.3600    1.0000 </r>
       <r>   -2.3581    1.0000 </r>
       <r>   -2.3554    1.0000 </r>
       <r>   -2.3288    1.0000 </r>
       <r>   -2.2675    1.0000 </r>
       <r>   -2.2409    1.0000 </r>
       <r>   -2.2404    1.0000 </r>
       <r>   -2.2403    1.0000 </r>
       <r>   -2.2401    1.0000 </r>
       <r>   -2.2118    1.0000 </r>
       <r>   -2.1750    1.0000 </r>
       <r>   -2.1449    1.0000 </r>
       <r>   -2.1295    1.0000 </r>
       <r>   -2.0895    1.0000 </r>
       <r>   -2.0887    1.0000 </r>
       <r>   -2.0883    1.0000 </r>
       <r>   -2.0878    1.0000 </r>
       <r>   -2.0561    1.0000 </r>
       <r>   -2.0546    1.0000 </r>
       <r>   -2.0542    1.0000 </r>
       <r>   -2.0536    1.0000 </r>
       <r>   -2.0408    1.0000 </r>
       <r>   -2.0322    1.0000 </r>
       <r>   -2.0104    1.0000 </r>
       <r>   -2.0095    1.0000 </r>
       <r>   -1.9826    1.0000 </r>
       <r>   -1.9430    1.0000 </r>
       <r>   -1.9430    1.0000 </r>
       <r>   -1.9330    1.0000 </r>
       <r>   -1.9330    1.0000 </r>
       <r>   -1.8965    1.0000 </r>
       <r>   -1.8705    1.0000 </r>
       <r>   -1.8685    1.0000 </r>
       <r>   -1.8671    1.0000 </r>
       <r>   -1.8642    1.0000 </r>
       <r>   -1.8578    1.0000 </r>
       <r>   -1.8548    1.0000 </r>
       <r>   -1.8227    1.0000 </r>
       <r>   -1.8210    1.0000 </r>
       <r>   -1.8168    1.0000 </r>
       <r>   -1.8151    1.0000 </r>
       <r>   -1.7861    1.0000 </r>
       <r>   -1.7797    1.0000 </r>
       <r>   -1.7770    1.0000 </r>
       <r>   -1.7763    1.0000 </r>
       <r>   -1.7761    1.0000 </r>
       <r>   -1.7752    1.0000 </r>
       <r>   -1.7744    1.0000 </r>
       <r>   -1.7739    1.0000 </r>
       <r>   -1.7710    1.0000 </r>
       <r>   -1.7167    1.0000 </r>
       <r>   -1.7086    1.0000 </r>
       <r>   -1.7081    1.0000 </r>
       <r>   -1.6962    1.0000 </r>
       <r>   -1.6608    1.0000 </r>
       <r>   -1.6505    1.0000 </r>
       <r>   -1.6451    1.0000 </r>
       <r>   -1.6450    1.0000 </r>
       <r>   -1.6449    1.0000 </r>
       <r>   -1.6449    1.0000 </r>
       <r>   -1.6349    1.0000 </r>
       <r>   -1.6165    1.0000 </r>
       <r>   -1.6128    1.0000 </r>
       <r>   -1.6048    1.0000 </r>
       <r>   -1.6041    1.0000 </r>
       <r>   -1.5829    1.0000 </r>
       <r>   -1.5806    1.0000 </r>
       <r>   -1.5806    1.0000 </r>
       <r>   -1.5670    1.0000 </r>
       <r>   -1.5662    1.0000 </r>
       <r>   -1.5586    1.0000 </r>
       <r>   -1.5535    1.0000 </r>
       <r>   -1.5511    1.0000 </r>
       <r>   -1.4910    1.0000 </r>
       <r>   -1.4558    1.0000 </r>
       <r>   -1.4410    1.0000 </r>
       <r>   -1.4316    1.0000 </r>
       <r>   -1.3508    1.0000 </r>
       <r>   -1.3478    1.0000 </r>
       <r>   -1.3391    1.0000 </r>
       <r>   -1.3381    1.0000 </r>
       <r>   -1.2304    1.0000 </r>
       <r>   -1.2289    1.0000 </r>
       <r>   -1.2267    1.0000 </r>
       <r>   -1.2254    1.0000 </r>
       <r>   -1.2144    1.0000 </r>
       <r>   -1.2108    1.0000 </r>
       <r>   -1.2105    1.0000 </r>
       <r>   -1.2055    1.0000 </r>
       <r>   -1.1910    1.0000 </r>
       <r>   -1.0914    1.0000 </r>
       <r>   -1.0913    1.0000 </r>
       <r>   -1.0861    1.0000 </r>
       <r>   -1.0860    1.0000 </r>
       <r>   -1.0521    1.0000 </r>
       <r>   -1.0272    1.0000 </r>
       <r>   -1.0140    1.0000 </r>
       <r>   -0.9786    1.0000 </r>
       <r>   -0.9330    1.0000 </r>
       <r>   -0.8686    1.0000 </r>
       <r>   -0.8464    1.0000 </r>
       <r>   -0.7812    1.0000 </r>
       <r>   -0.7784    1.0000 </r>
       <r>   -0.7577    1.0000 </r>
       <r>   -0.7240    1.0000 </r>
       <r>   -0.7176    1.0000 </r>
       <r>   -0.7138    1.0000 </r>
       <r>   -0.7114    1.0000 </r>
       <r>   -0.7100    1.0000 </r>
       <r>   -0.6796    1.0000 </r>
       <r>   -0.6771    1.0000 </r>
       <r>   -0.6749    1.0000 </r>
       <r>   -0.6727    1.0000 </r>
       <r>   -0.6627    1.0000 </r>
       <r>   -0.6577    1.0000 </r>
       <r>   -0.6565    1.0000 </r>
       <r>   -0.6266    1.0000 </r>
       <r>   -0.5191    1.0000 </r>
       <r>   -0.5170    1.0000 </r>
       <r>   -0.5165    1.0000 </r>
       <r>   -0.5151    1.0000 </r>
       <r>   -0.4613    1.0000 </r>
       <r>   -0.4607    1.0000 </r>
       <r>   -0.4580    1.0000 </r>
       <r>   -0.4571    1.0000 </r>
       <r>   -0.4551    1.0000 </r>
       <r>   -0.4545    1.0000 </r>
       <r>   -0.4517    1.0000 </r>
       <r>   -0.4457    1.0000 </r>
       <r>   -0.4401    1.0000 </r>
       <r>   -0.4115    1.0000 </r>
       <r>   -0.3845    1.0000 </r>
       <r>   -0.3835    1.0000 </r>
       <r>   -0.3834    1.0000 </r>
       <r>   -0.3707    1.0000 </r>
       <r>   -0.3563    1.0000 </r>
       <r>   -0.3549    1.0000 </r>
       <r>   -0.3544    1.0000 </r>
       <r>   -0.3452    1.0000 </r>
       <r>   -0.3437    1.0000 </r>
       <r>   -0.3432    1.0000 </r>
       <r>   -0.3269    1.0000 </r>
       <r>   -0.3263    1.0000 </r>
       <r>   -0.3262    1.0000 </r>
       <r>   -0.3258    1.0000 </r>
       <r>   -0.2802    1.0000 </r>
       <r>   -0.2255    1.0000 </r>
       <r>   -0.2251    1.0000 </r>
       <r>   -0.1258    1.0000 </r>
       <r>   -0.0465    1.0000 </r>
       <r>    0.0031    1.0000 </r>
       <r>    0.0426    1.0000 </r>
       <r>    0.1172    1.0000 </r>
       <r>    0.1520    1.0000 </r>
       <r>    0.1550    1.0000 </r>
       <r>    0.1671    1.0000 </r>
       <r>    0.1867    1.0000 </r>
       <r>    0.2002    1.0000 </r>
       <r>    0.2123    1.0000 </r>
       <r>    0.2133    1.0000 </r>
       <r>    0.2176    1.0000 </r>
       <r>    0.2191    1.0000 </r>
       <r>    0.2372    1.0000 </r>
       <r>    0.2420    1.0000 </r>
       <r>    0.2862    1.0000 </r>
       <r>    0.3102    1.0000 </r>
       <r>    0.3156    1.0000 </r>
       <r>    0.3440    1.0000 </r>
       <r>    0.3457    1.0000 </r>
       <r>    0.3479    1.0000 </r>
       <r>    0.3498    1.0000 </r>
       <r>    0.3653    1.0000 </r>
       <r>    0.3759    1.0000 </r>
       <r>    0.3944    1.0000 </r>
       <r>    0.4546    1.0000 </r>
       <r>    0.4579    1.0000 </r>
       <r>    0.4595    1.0000 </r>
       <r>    0.4623    1.0000 </r>
       <r>    0.4634    1.0000 </r>
       <r>    0.4650    1.0000 </r>
       <r>    0.4766    1.0000 </r>
       <r>    0.4772    1.0000 </r>
       <r>    0.5555    1.0000 </r>
       <r>    0.5598    1.0000 </r>
       <r>    0.5656    1.0000 </r>
       <r>    0.5855    1.0000 </r>
       <r>    0.5900    1.0000 </r>
       <r>    0.6849    1.0000 </r>
       <r>    0.6937    1.0000 </r>
       <r>    0.7009    1.0000 </r>
       <r>    0.7029    1.0000 </r>
       <r>    0.7234    1.0000 </r>
       <r>    0.8068    1.0000 </r>
       <r>    0.8091    1.0000 </r>
       <r>    0.8390    1.0000 </r>
       <r>    0.8555    1.0000 </r>
       <r>    0.8564    1.0000 </r>
       <r>    0.8802    1.0000 </r>
       <r>    0.8843    1.0000 </r>
       <r>    0.8852    1.0000 </r>
       <r>    0.9158    1.0000 </r>
       <r>    0.9914    1.0000 </r>
       <r>    0.9918    1.0000 </r>
       <r>    0.9937    1.0000 </r>
       <r>    1.0027    1.0000 </r>
       <r>    1.0206    1.0000 </r>
       <r>    1.0317    1.0000 </r>
       <r>    1.0822    1.0000 </r>
       <r>    1.0981    1.0000 </r>
       <r>    1.2065    1.0000 </r>
       <r>    1.2079    1.0000 </r>
       <r>    1.2151    1.0000 </r>
       <r>    1.2326    1.0000 </r>
       <r>    1.2448    1.0000 </r>
       <r>    1.2463    1.0000 </r>
       <r>    1.2543    1.0000 </r>
       <r>    1.2587    1.0000 </r>
       <r>    1.3152    1.0000 </r>
       <r>    1.3158    1.0000 </r>
       <r>    1.3658    1.0000 </r>
       <r>    1.3663    1.0000 </r>
       <r>    1.4008    1.0000 </r>
       <r>    1.4050    1.0000 </r>
       <r>    1.4402    1.0000 </r>
       <r>    1.4411    1.0000 </r>
       <r>    1.4986    1.0000 </r>
       <r>    1.5009    1.0000 </r>
       <r>    1.5375    1.0000 </r>
       <r>    1.5775    1.0000 </r>
       <r>    1.5885    1.0000 </r>
       <r>    1.5893    1.0000 </r>
       <r>    1.7632    1.0000 </r>
       <r>    1.7685    1.0000 </r>
       <r>    1.8466    1.0000 </r>
       <r>    1.8549    1.0000 </r>
       <r>    1.8602    1.0000 </r>
       <r>    1.8611    1.0000 </r>
       <r>    1.9183    1.0000 </r>
       <r>    1.9248    1.0000 </r>
       <r>    1.9532    1.0000 </r>
       <r>    1.9589    1.0000 </r>
       <r>    1.9790    1.0000 </r>
       <r>    1.9810    1.0000 </r>
       <r>    2.0238    1.0000 </r>
       <r>    2.0245    1.0000 </r>
       <r>    2.0632    1.0000 </r>
       <r>    2.0686    1.0000 </r>
       <r>    2.0951    1.0000 </r>
       <r>    2.0987    1.0000 </r>
       <r>    2.2236    1.0000 </r>
       <r>    2.2302    1.0000 </r>
       <r>    2.3993    1.0000 </r>
       <r>    2.3997    1.0000 </r>
       <r>    2.4040    1.0000 </r>
       <r>    2.4057    1.0000 </r>
       <r>    4.6618    1.0000 </r>
       <r>    5.8853    0.0000 </r>
       <r>    6.6166    0.0000 </r>
       <r>    6.6375    0.0000 </r>
       <r>    6.6378    0.0000 </r>
       <r>    6.8793    0.0000 </r>
       <r>    6.9263    0.0000 </r>
       <r>    6.9921    0.0000 </r>
       <r>    7.0033    0.0000 </r>
       <r>    7.0780    0.0000 </r>
       <r>    7.0878    0.0000 </r>
       <r>    7.1521    0.0000 </r>
       <r>    7.2117    0.0000 </r>
       <r>    7.2121    0.0000 </r>
       <r>    7.2277    0.0000 </r>
       <r>    7.2436    0.0000 </r>
       <r>    7.2822    0.0000 </r>
       <r>    7.2975    0.0000 </r>
       <r>    7.3056    0.0000 </r>
       <r>    7.3281    0.0000 </r>
       <r>    7.3327    0.0000 </r>
       <r>    7.3386    0.0000 </r>
       <r>    7.3428    0.0000 </r>
       <r>    7.3436    0.0000 </r>
       <r>    7.3611    0.0000 </r>
       <r>    7.3622    0.0000 </r>
       <r>    7.3837    0.0000 </r>
       <r>    7.3841    0.0000 </r>
       <r>    7.3917    0.0000 </r>
       <r>    7.3944    0.0000 </r>
       <r>    7.4285    0.0000 </r>
       <r>    7.4322    0.0000 </r>
       <r>    7.4583    0.0000 </r>
       <r>    7.6868    0.0000 </r>
       <r>    7.7383    0.0000 </r>
       <r>    7.7415    0.0000 </r>
       <r>    7.7460    0.0000 </r>
       <r>    7.7917    0.0000 </r>
       <r>    7.8209    0.0000 </r>
       <r>    7.8447    0.0000 </r>
       <r>    7.8743    0.0000 </r>
       <r>    7.8888    0.0000 </r>
       <r>    7.9072    0.0000 </r>
       <r>    7.9138    0.0000 </r>
       <r>    7.9194    0.0000 </r>
       <r>    7.9428    0.0000 </r>
       <r>    7.9657    0.0000 </r>
       <r>    8.0635    0.0000 </r>
       <r>    8.1123    0.0000 </r>
       <r>    8.1666    0.0000 </r>
       <r>    8.1700    0.0000 </r>
       <r>    8.1717    0.0000 </r>
       <r>    8.1854    0.0000 </r>
       <r>    8.2087    0.0000 </r>
       <r>    8.2212    0.0000 </r>
       <r>    8.2222    0.0000 </r>
       <r>    8.2330    0.0000 </r>
       <r>    8.2405    0.0000 </r>
       <r>    8.2548    0.0000 </r>
       <r>    8.2825    0.0000 </r>
       <r>    8.3932    0.0000 </r>
       <r>    8.5604    0.0000 </r>
       <r>    8.5805    0.0000 </r>
       <r>    8.5916    0.0000 </r>
       <r>    8.6335    0.0000 </r>
       <r>    8.6339    0.0000 </r>
       <r>    8.6443    0.0000 </r>
       <r>    8.6620    0.0000 </r>
       <r>    8.6699    0.0000 </r>
       <r>    8.6800    0.0000 </r>
       <r>    8.6867    0.0000 </r>
       <r>    8.6875    0.0000 </r>
       <r>    8.7306    0.0000 </r>
       <r>    8.8815    0.0000 </r>
       <r>    8.9561    0.0000 </r>
       <r>    8.9906    0.0000 </r>
       <r>    8.9980    0.0000 </r>
       <r>    9.0084    0.0000 </r>
       <r>    9.0558    0.0000 </r>
       <r>    9.1238    0.0000 </r>
       <r>    9.2100    0.0000 </r>
       <r>    9.2407    0.0000 </r>
       <r>    9.2643    0.0000 </r>
       <r>    9.2663    0.0000 </r>
       <r>    9.2686    0.0000 </r>
       <r>    9.2818    0.0000 </r>
       <r>    9.2953    0.0000 </r>
       <r>    9.2990    0.0000 </r>
       <r>    9.3032    0.0000 </r>
       <r>    9.3191    0.0000 </r>
       <r>    9.3253    0.0000 </r>
       <r>    9.3270    0.0000 </r>
       <r>    9.3289    0.0000 </r>
       <r>    9.3563    0.0000 </r>
       <r>    9.3982    0.0000 </r>
       <r>    9.4733    0.0000 </r>
       <r>    9.6111    0.0000 </r>
       <r>    9.6275    0.0000 </r>
       <r>    9.6814    0.0000 </r>
       <r>    9.6888    0.0000 </r>
       <r>    9.6904    0.0000 </r>
       <r>    9.7182    0.0000 </r>
       <r>    9.8767    0.0000 </r>
       <r>   10.0649    0.0000 </r>
       <r>   10.0886    0.0000 </r>
       <r>   10.0902    0.0000 </r>
       <r>   10.1016    0.0000 </r>
       <r>   10.1420    0.0000 </r>
       <r>   10.1705    0.0000 </r>
       <r>   10.1744    0.0000 </r>
       <r>   10.1899    0.0000 </r>
       <r>   10.1965    0.0000 </r>
       <r>   10.2270    0.0000 </r>
       <r>   10.2359    0.0000 </r>
       <r>   10.2823    0.0000 </r>
       <r>   10.3016    0.0000 </r>
       <r>   10.3030    0.0000 </r>
       <r>   10.3761    0.0000 </r>
       <r>   10.3800    0.0000 </r>
       <r>   10.3897    0.0000 </r>
       <r>   10.3939    0.0000 </r>
       <r>   10.4135    0.0000 </r>
       <r>   10.4359    0.0000 </r>
       <r>   10.4417    0.0000 </r>
       <r>   10.4659    0.0000 </r>
       <r>   10.5068    0.0000 </r>
       <r>   10.5272    0.0000 </r>
       <r>   10.6257    0.0000 </r>
       <r>   10.6681    0.0000 </r>
       <r>   10.7188    0.0000 </r>
       <r>   10.7199    0.0000 </r>
       <r>   10.7239    0.0000 </r>
       <r>   10.7328    0.0000 </r>
       <r>   10.7507    0.0000 </r>
       <r>   10.7588    0.0000 </r>
       <r>   10.7621    0.0000 </r>
       <r>   10.7851    0.0000 </r>
       <r>   10.7874    0.0000 </r>
       <r>   10.7933    0.0000 </r>
       <r>   10.8135    0.0000 </r>
       <r>   10.8150    0.0000 </r>
       <r>   11.2371    0.0000 </r>
       <r>   11.2594    0.0000 </r>
       <r>   11.4792    0.0000 </r>
       <r>   11.5630    0.0000 </r>
       <r>   11.6269    0.0000 </r>
       <r>   11.6749    0.0000 </r>
       <r>   11.7083    0.0000 </r>
       <r>   11.7404    0.0000 </r>
       <r>   11.7757    0.0000 </r>
       <r>   11.7937    0.0000 </r>
       <r>   11.8281    0.0000 </r>
      </set>
      <set comment="kpoint 4">
       <r>  -17.2938    1.0000 </r>
       <r>  -15.7757    1.0000 </r>
       <r>  -15.7304    1.0000 </r>
       <r>  -15.4197    1.0000 </r>
       <r>  -15.3143    1.0000 </r>
       <r>  -15.2491    1.0000 </r>
       <r>  -15.2283    1.0000 </r>
       <r>  -15.1971    1.0000 </r>
       <r>  -15.1891    1.0000 </r>
       <r>  -15.1021    1.0000 </r>
       <r>  -15.0677    1.0000 </r>
       <r>  -15.0258    1.0000 </r>
       <r>  -15.0080    1.0000 </r>
       <r>  -14.9553    1.0000 </r>
       <r>  -14.9470    1.0000 </r>
       <r>  -14.9373    1.0000 </r>
       <r>  -14.9357    1.0000 </r>
       <r>  -14.8567    1.0000 </r>
       <r>  -14.7534    1.0000 </r>
       <r>  -14.7521    1.0000 </r>
       <r>  -14.6201    1.0000 </r>
       <r>  -14.5701    1.0000 </r>
       <r>  -14.5557    1.0000 </r>
       <r>  -14.4602    1.0000 </r>
       <r>  -14.4443    1.0000 </r>
       <r>  -14.4431    1.0000 </r>
       <r>  -14.4299    1.0000 </r>
       <r>  -14.4265    1.0000 </r>
       <r>  -14.4184    1.0000 </r>
       <r>  -14.4166    1.0000 </r>
       <r>  -14.4144    1.0000 </r>
       <r>  -14.3551    1.0000 </r>
       <r>  -14.2471    1.0000 </r>
       <r>  -14.2422    1.0000 </r>
       <r>  -14.2395    1.0000 </r>
       <r>  -14.2393    1.0000 </r>
       <r>  -14.2013    1.0000 </r>
       <r>  -14.1912    1.0000 </r>
       <r>  -14.1675    1.0000 </r>
       <r>  -14.1660    1.0000 </r>
       <r>  -14.1218    1.0000 </r>
       <r>  -14.0362    1.0000 </r>
       <r>  -13.9969    1.0000 </r>
       <r>  -13.9944    1.0000 </r>
       <r>  -13.9471    1.0000 </r>
       <r>  -13.7941    1.0000 </r>
       <r>  -13.7354    1.0000 </r>
       <r>  -13.7118    1.0000 </r>
       <r>  -13.7086    1.0000 </r>
       <r>  -13.7062    1.0000 </r>
       <r>  -13.6973    1.0000 </r>
       <r>  -13.6955    1.0000 </r>
       <r>  -13.6760    1.0000 </r>
       <r>  -13.6729    1.0000 </r>
       <r>  -13.6082    1.0000 </r>
       <r>  -13.5307    1.0000 </r>
       <r>  -13.5303    1.0000 </r>
       <r>  -13.5163    1.0000 </r>
       <r>  -13.5153    1.0000 </r>
       <r>  -13.5056    1.0000 </r>
       <r>  -13.3597    1.0000 </r>
       <r>  -13.3379    1.0000 </r>
       <r>  -13.2555    1.0000 </r>
       <r>  -13.2234    1.0000 </r>
       <r>  -13.1143    1.0000 </r>
       <r>  -13.0609    1.0000 </r>
       <r>  -13.0537    1.0000 </r>
       <r>  -13.0515    1.0000 </r>
       <r>  -13.0447    1.0000 </r>
       <r>  -13.0395    1.0000 </r>
       <r>  -13.0355    1.0000 </r>
       <r>  -13.0352    1.0000 </r>
       <r>  -13.0331    1.0000 </r>
       <r>  -12.9770    1.0000 </r>
       <r>  -12.9315    1.0000 </r>
       <r>  -12.8880    1.0000 </r>
       <r>  -12.8852    1.0000 </r>
       <r>  -12.8821    1.0000 </r>
       <r>  -12.8802    1.0000 </r>
       <r>  -12.8759    1.0000 </r>
       <r>  -12.8748    1.0000 </r>
       <r>  -12.8732    1.0000 </r>
       <r>  -12.8711    1.0000 </r>
       <r>  -12.8687    1.0000 </r>
       <r>  -12.8664    1.0000 </r>
       <r>  -12.8633    1.0000 </r>
       <r>  -12.8630    1.0000 </r>
       <r>  -12.8608    1.0000 </r>
       <r>  -12.7159    1.0000 </r>
       <r>  -12.7143    1.0000 </r>
       <r>  -12.7137    1.0000 </r>
       <r>  -12.7135    1.0000 </r>
       <r>  -12.6824    1.0000 </r>
       <r>  -12.6093    1.0000 </r>
       <r>  -12.5910    1.0000 </r>
       <r>  -12.5837    1.0000 </r>
       <r>  -12.5695    1.0000 </r>
       <r>  -12.5550    1.0000 </r>
       <r>  -12.5342    1.0000 </r>
       <r>  -12.4988    1.0000 </r>
       <r>  -12.4379    1.0000 </r>
       <r>  -12.4314    1.0000 </r>
       <r>  -12.4246    1.0000 </r>
       <r>  -12.4200    1.0000 </r>
       <r>  -12.3355    1.0000 </r>
       <r>  -12.3328    1.0000 </r>
       <r>  -12.3275    1.0000 </r>
       <r>  -12.3239    1.0000 </r>
       <r>  -12.2434    1.0000 </r>
       <r>  -12.2414    1.0000 </r>
       <r>  -12.2386    1.0000 </r>
       <r>  -12.2355    1.0000 </r>
       <r>  -12.2209    1.0000 </r>
       <r>  -12.2153    1.0000 </r>
       <r>  -12.2107    1.0000 </r>
       <r>  -12.2075    1.0000 </r>
       <r>  -12.1769    1.0000 </r>
       <r>  -12.1765    1.0000 </r>
       <r>  -12.1697    1.0000 </r>
       <r>  -12.1696    1.0000 </r>
       <r>  -12.0957    1.0000 </r>
       <r>  -12.0955    1.0000 </r>
       <r>  -12.0895    1.0000 </r>
       <r>  -12.0876    1.0000 </r>
       <r>  -12.0865    1.0000 </r>
       <r>  -12.0846    1.0000 </r>
       <r>  -11.9502    1.0000 </r>
       <r>  -11.9485    1.0000 </r>
       <r>  -11.9465    1.0000 </r>
       <r>  -11.9448    1.0000 </r>
       <r>  -11.8158    1.0000 </r>
       <r>  -11.8151    1.0000 </r>
       <r>  -11.8065    1.0000 </r>
       <r>  -11.8056    1.0000 </r>
       <r>  -11.8042    1.0000 </r>
       <r>  -11.8039    1.0000 </r>
       <r>  -11.7881    1.0000 </r>
       <r>  -11.7828    1.0000 </r>
       <r>  -11.7818    1.0000 </r>
       <r>  -11.7771    1.0000 </r>
       <r>  -11.6684    1.0000 </r>
       <r>  -11.6682    1.0000 </r>
       <r>  -11.6614    1.0000 </r>
       <r>  -11.6614    1.0000 </r>
       <r>   -8.3632    1.0000 </r>
       <r>   -7.2840    1.0000 </r>
       <r>   -7.2710    1.0000 </r>
       <r>   -6.7937    1.0000 </r>
       <r>   -6.7047    1.0000 </r>
       <r>   -6.6832    1.0000 </r>
       <r>   -6.4379    1.0000 </r>
       <r>   -6.4063    1.0000 </r>
       <r>   -6.3219    1.0000 </r>
       <r>   -6.3072    1.0000 </r>
       <r>   -6.3050    1.0000 </r>
       <r>   -6.3041    1.0000 </r>
       <r>   -6.3001    1.0000 </r>
       <r>   -6.2869    1.0000 </r>
       <r>   -6.2779    1.0000 </r>
       <r>   -6.2720    1.0000 </r>
       <r>   -6.2719    1.0000 </r>
       <r>   -6.2697    1.0000 </r>
       <r>   -6.2163    1.0000 </r>
       <r>   -6.2140    1.0000 </r>
       <r>   -6.2130    1.0000 </r>
       <r>   -6.2045    1.0000 </r>
       <r>   -6.1984    1.0000 </r>
       <r>   -6.1956    1.0000 </r>
       <r>   -6.1586    1.0000 </r>
       <r>   -6.1584    1.0000 </r>
       <r>   -6.1492    1.0000 </r>
       <r>   -6.1491    1.0000 </r>
       <r>   -6.0724    1.0000 </r>
       <r>   -6.0711    1.0000 </r>
       <r>   -5.9321    1.0000 </r>
       <r>   -5.9295    1.0000 </r>
       <r>   -5.9075    1.0000 </r>
       <r>   -5.9073    1.0000 </r>
       <r>   -5.8439    1.0000 </r>
       <r>   -5.7892    1.0000 </r>
       <r>   -5.7820    1.0000 </r>
       <r>   -5.7745    1.0000 </r>
       <r>   -5.7676    1.0000 </r>
       <r>   -5.7648    1.0000 </r>
       <r>   -5.7635    1.0000 </r>
       <r>   -5.7632    1.0000 </r>
       <r>   -5.7609    1.0000 </r>
       <r>   -5.7566    1.0000 </r>
       <r>   -5.7539    1.0000 </r>
       <r>   -5.7516    1.0000 </r>
       <r>   -5.7439    1.0000 </r>
       <r>   -5.6847    1.0000 </r>
       <r>   -5.6546    1.0000 </r>
       <r>   -5.6423    1.0000 </r>
       <r>   -5.6228    1.0000 </r>
       <r>   -5.6228    1.0000 </r>
       <r>   -5.6197    1.0000 </r>
       <r>   -5.6196    1.0000 </r>
       <r>   -5.2294    1.0000 </r>
       <r>   -5.2266    1.0000 </r>
       <r>   -5.2237    1.0000 </r>
       <r>   -5.2233    1.0000 </r>
       <r>   -5.2223    1.0000 </r>
       <r>   -5.2214    1.0000 </r>
       <r>   -5.2208    1.0000 </r>
       <r>   -5.2202    1.0000 </r>
       <r>   -5.2188    1.0000 </r>
       <r>   -5.2185    1.0000 </r>
       <r>   -5.2181    1.0000 </r>
       <r>   -5.2173    1.0000 </r>
       <r>   -5.1150    1.0000 </r>
       <r>   -5.1104    1.0000 </r>
       <r>   -5.0907    1.0000 </r>
       <r>   -5.0906    1.0000 </r>
       <r>   -5.0878    1.0000 </r>
       <r>   -5.0876    1.0000 </r>
       <r>   -5.0874    1.0000 </r>
       <r>   -5.0871    1.0000 </r>
       <r>   -5.0260    1.0000 </r>
       <r>   -4.9209    1.0000 </r>
       <r>   -4.8319    1.0000 </r>
       <r>   -4.6117    1.0000 </r>
       <r>   -4.5545    1.0000 </r>
       <r>   -4.5412    1.0000 </r>
       <r>   -4.4770    1.0000 </r>
       <r>   -4.4731    1.0000 </r>
       <r>   -4.4721    1.0000 </r>
       <r>   -4.4712    1.0000 </r>
       <r>   -4.4707    1.0000 </r>
       <r>   -4.4681    1.0000 </r>
       <r>   -4.4677    1.0000 </r>
       <r>   -4.4656    1.0000 </r>
       <r>   -4.3413    1.0000 </r>
       <r>   -4.3410    1.0000 </r>
       <r>   -4.3408    1.0000 </r>
       <r>   -4.3407    1.0000 </r>
       <r>   -4.3175    1.0000 </r>
       <r>   -4.3163    1.0000 </r>
       <r>   -4.2019    1.0000 </r>
       <r>   -4.0978    1.0000 </r>
       <r>   -4.0873    1.0000 </r>
       <r>   -4.0870    1.0000 </r>
       <r>   -4.0849    1.0000 </r>
       <r>   -4.0835    1.0000 </r>
       <r>   -4.0744    1.0000 </r>
       <r>   -4.0738    1.0000 </r>
       <r>   -4.0722    1.0000 </r>
       <r>   -4.0711    1.0000 </r>
       <r>   -4.0288    1.0000 </r>
       <r>   -3.9501    1.0000 </r>
       <r>   -3.9499    1.0000 </r>
       <r>   -3.9467    1.0000 </r>
       <r>   -3.9466    1.0000 </r>
       <r>   -3.9091    1.0000 </r>
       <r>   -3.8653    1.0000 </r>
       <r>   -3.7856    1.0000 </r>
       <r>   -3.7516    1.0000 </r>
       <r>   -3.6225    1.0000 </r>
       <r>   -3.6204    1.0000 </r>
       <r>   -3.6144    1.0000 </r>
       <r>   -3.6127    1.0000 </r>
       <r>   -3.6070    1.0000 </r>
       <r>   -3.6042    1.0000 </r>
       <r>   -3.5999    1.0000 </r>
       <r>   -3.5989    1.0000 </r>
       <r>   -3.5145    1.0000 </r>
       <r>   -3.4796    1.0000 </r>
       <r>   -3.4794    1.0000 </r>
       <r>   -3.4779    1.0000 </r>
       <r>   -3.4740    1.0000 </r>
       <r>   -3.4739    1.0000 </r>
       <r>   -3.4687    1.0000 </r>
       <r>   -3.4680    1.0000 </r>
       <r>   -3.4650    1.0000 </r>
       <r>   -3.4641    1.0000 </r>
       <r>   -3.4505    1.0000 </r>
       <r>   -3.3496    1.0000 </r>
       <r>   -3.3383    1.0000 </r>
       <r>   -3.3382    1.0000 </r>
       <r>   -3.1561    1.0000 </r>
       <r>   -3.1316    1.0000 </r>
       <r>   -3.0972    1.0000 </r>
       <r>   -3.0769    1.0000 </r>
       <r>   -3.0746    1.0000 </r>
       <r>   -3.0701    1.0000 </r>
       <r>   -3.0694    1.0000 </r>
       <r>   -2.9932    1.0000 </r>
       <r>   -2.9383    1.0000 </r>
       <r>   -2.9376    1.0000 </r>
       <r>   -2.9326    1.0000 </r>
       <r>   -2.8560    1.0000 </r>
       <r>   -2.8101    1.0000 </r>
       <r>   -2.7790    1.0000 </r>
       <r>   -2.7708    1.0000 </r>
       <r>   -2.7699    1.0000 </r>
       <r>   -2.7568    1.0000 </r>
       <r>   -2.7542    1.0000 </r>
       <r>   -2.7361    1.0000 </r>
       <r>   -2.7261    1.0000 </r>
       <r>   -2.6834    1.0000 </r>
       <r>   -2.6782    1.0000 </r>
       <r>   -2.6688    1.0000 </r>
       <r>   -2.6675    1.0000 </r>
       <r>   -2.6662    1.0000 </r>
       <r>   -2.5441    1.0000 </r>
       <r>   -2.5437    1.0000 </r>
       <r>   -2.5232    1.0000 </r>
       <r>   -2.5224    1.0000 </r>
       <r>   -2.5124    1.0000 </r>
       <r>   -2.4609    1.0000 </r>
       <r>   -2.4245    1.0000 </r>
       <r>   -2.4159    1.0000 </r>
       <r>   -2.3862    1.0000 </r>
       <r>   -2.3803    1.0000 </r>
       <r>   -2.3748    1.0000 </r>
       <r>   -2.3743    1.0000 </r>
       <r>   -2.3730    1.0000 </r>
       <r>   -2.3712    1.0000 </r>
       <r>   -2.3706    1.0000 </r>
       <r>   -2.3701    1.0000 </r>
       <r>   -2.3686    1.0000 </r>
       <r>   -2.3600    1.0000 </r>
       <r>   -2.3578    1.0000 </r>
       <r>   -2.3554    1.0000 </r>
       <r>   -2.3291    1.0000 </r>
       <r>   -2.2677    1.0000 </r>
       <r>   -2.2410    1.0000 </r>
       <r>   -2.2404    1.0000 </r>
       <r>   -2.2403    1.0000 </r>
       <r>   -2.2400    1.0000 </r>
       <r>   -2.2117    1.0000 </r>
       <r>   -2.1749    1.0000 </r>
       <r>   -2.1447    1.0000 </r>
       <r>   -2.1293    1.0000 </r>
       <r>   -2.0889    1.0000 </r>
       <r>   -2.0884    1.0000 </r>
       <r>   -2.0883    1.0000 </r>
       <r>   -2.0875    1.0000 </r>
       <r>   -2.0572    1.0000 </r>
       <r>   -2.0547    1.0000 </r>
       <r>   -2.0543    1.0000 </r>
       <r>   -2.0520    1.0000 </r>
       <r>   -2.0411    1.0000 </r>
       <r>   -2.0322    1.0000 </r>
       <r>   -2.0102    1.0000 </r>
       <r>   -2.0092    1.0000 </r>
       <r>   -1.9825    1.0000 </r>
       <r>   -1.9428    1.0000 </r>
       <r>   -1.9428    1.0000 </r>
       <r>   -1.9332    1.0000 </r>
       <r>   -1.9331    1.0000 </r>
       <r>   -1.8965    1.0000 </r>
       <r>   -1.8719    1.0000 </r>
       <r>   -1.8668    1.0000 </r>
       <r>   -1.8666    1.0000 </r>
       <r>   -1.8654    1.0000 </r>
       <r>   -1.8582    1.0000 </r>
       <r>   -1.8547    1.0000 </r>
       <r>   -1.8230    1.0000 </r>
       <r>   -1.8210    1.0000 </r>
       <r>   -1.8172    1.0000 </r>
       <r>   -1.8146    1.0000 </r>
       <r>   -1.7858    1.0000 </r>
       <r>   -1.7779    1.0000 </r>
       <r>   -1.7769    1.0000 </r>
       <r>   -1.7762    1.0000 </r>
       <r>   -1.7760    1.0000 </r>
       <r>   -1.7752    1.0000 </r>
       <r>   -1.7748    1.0000 </r>
       <r>   -1.7743    1.0000 </r>
       <r>   -1.7694    1.0000 </r>
       <r>   -1.7167    1.0000 </r>
       <r>   -1.7086    1.0000 </r>
       <r>   -1.7078    1.0000 </r>
       <r>   -1.6959    1.0000 </r>
       <r>   -1.6608    1.0000 </r>
       <r>   -1.6505    1.0000 </r>
       <r>   -1.6451    1.0000 </r>
       <r>   -1.6451    1.0000 </r>
       <r>   -1.6449    1.0000 </r>
       <r>   -1.6448    1.0000 </r>
       <r>   -1.6352    1.0000 </r>
       <r>   -1.6162    1.0000 </r>
       <r>   -1.6139    1.0000 </r>
       <r>   -1.6047    1.0000 </r>
       <r>   -1.6039    1.0000 </r>
       <r>   -1.5824    1.0000 </r>
       <r>   -1.5805    1.0000 </r>
       <r>   -1.5797    1.0000 </r>
       <r>   -1.5672    1.0000 </r>
       <r>   -1.5664    1.0000 </r>
       <r>   -1.5588    1.0000 </r>
       <r>   -1.5567    1.0000 </r>
       <r>   -1.5522    1.0000 </r>
       <r>   -1.4910    1.0000 </r>
       <r>   -1.4557    1.0000 </r>
       <r>   -1.4409    1.0000 </r>
       <r>   -1.4317    1.0000 </r>
       <r>   -1.3497    1.0000 </r>
       <r>   -1.3490    1.0000 </r>
       <r>   -1.3388    1.0000 </r>
       <r>   -1.3381    1.0000 </r>
       <r>   -1.2300    1.0000 </r>
       <r>   -1.2295    1.0000 </r>
       <r>   -1.2265    1.0000 </r>
       <r>   -1.2261    1.0000 </r>
       <r>   -1.2129    1.0000 </r>
       <r>   -1.2107    1.0000 </r>
       <r>   -1.2103    1.0000 </r>
       <r>   -1.2030    1.0000 </r>
       <r>   -1.1908    1.0000 </r>
       <r>   -1.0912    1.0000 </r>
       <r>   -1.0912    1.0000 </r>
       <r>   -1.0862    1.0000 </r>
       <r>   -1.0861    1.0000 </r>
       <r>   -1.0522    1.0000 </r>
       <r>   -1.0269    1.0000 </r>
       <r>   -1.0139    1.0000 </r>
       <r>   -0.9784    1.0000 </r>
       <r>   -0.9334    1.0000 </r>
       <r>   -0.8684    1.0000 </r>
       <r>   -0.8465    1.0000 </r>
       <r>   -0.7811    1.0000 </r>
       <r>   -0.7783    1.0000 </r>
       <r>   -0.7585    1.0000 </r>
       <r>   -0.7237    1.0000 </r>
       <r>   -0.7168    1.0000 </r>
       <r>   -0.7140    1.0000 </r>
       <r>   -0.7121    1.0000 </r>
       <r>   -0.7101    1.0000 </r>
       <r>   -0.6787    1.0000 </r>
       <r>   -0.6763    1.0000 </r>
       <r>   -0.6758    1.0000 </r>
       <r>   -0.6733    1.0000 </r>
       <r>   -0.6628    1.0000 </r>
       <r>   -0.6577    1.0000 </r>
       <r>   -0.6561    1.0000 </r>
       <r>   -0.6262    1.0000 </r>
       <r>   -0.5217    1.0000 </r>
       <r>   -0.5173    1.0000 </r>
       <r>   -0.5158    1.0000 </r>
       <r>   -0.5151    1.0000 </r>
       <r>   -0.4611    1.0000 </r>
       <r>   -0.4597    1.0000 </r>
       <r>   -0.4577    1.0000 </r>
       <r>   -0.4558    1.0000 </r>
       <r>   -0.4546    1.0000 </r>
       <r>   -0.4539    1.0000 </r>
       <r>   -0.4521    1.0000 </r>
       <r>   -0.4487    1.0000 </r>
       <r>   -0.4401    1.0000 </r>
       <r>   -0.4115    1.0000 </r>
       <r>   -0.3839    1.0000 </r>
       <r>   -0.3835    1.0000 </r>
       <r>   -0.3834    1.0000 </r>
       <r>   -0.3707    1.0000 </r>
       <r>   -0.3602    1.0000 </r>
       <r>   -0.3558    1.0000 </r>
       <r>   -0.3540    1.0000 </r>
       <r>   -0.3484    1.0000 </r>
       <r>   -0.3431    1.0000 </r>
       <r>   -0.3427    1.0000 </r>
       <r>   -0.3269    1.0000 </r>
       <r>   -0.3263    1.0000 </r>
       <r>   -0.3261    1.0000 </r>
       <r>   -0.3258    1.0000 </r>
       <r>   -0.2804    1.0000 </r>
       <r>   -0.2255    1.0000 </r>
       <r>   -0.2250    1.0000 </r>
       <r>   -0.1256    1.0000 </r>
       <r>   -0.0465    1.0000 </r>
       <r>    0.0032    1.0000 </r>
       <r>    0.0421    1.0000 </r>
       <r>    0.1173    1.0000 </r>
       <r>    0.1522    1.0000 </r>
       <r>    0.1550    1.0000 </r>
       <r>    0.1675    1.0000 </r>
       <r>    0.1869    1.0000 </r>
       <r>    0.1978    1.0000 </r>
       <r>    0.2117    1.0000 </r>
       <r>    0.2139    1.0000 </r>
       <r>    0.2178    1.0000 </r>
       <r>    0.2203    1.0000 </r>
       <r>    0.2383    1.0000 </r>
       <r>    0.2413    1.0000 </r>
       <r>    0.2857    1.0000 </r>
       <r>    0.3103    1.0000 </r>
       <r>    0.3154    1.0000 </r>
       <r>    0.3440    1.0000 </r>
       <r>    0.3473    1.0000 </r>
       <r>    0.3495    1.0000 </r>
       <r>    0.3507    1.0000 </r>
       <r>    0.3654    1.0000 </r>
       <r>    0.3760    1.0000 </r>
       <r>    0.3946    1.0000 </r>
       <r>    0.4549    1.0000 </r>
       <r>    0.4579    1.0000 </r>
       <r>    0.4589    1.0000 </r>
       <r>    0.4629    1.0000 </r>
       <r>    0.4640    1.0000 </r>
       <r>    0.4647    1.0000 </r>
       <r>    0.4765    1.0000 </r>
       <r>    0.4772    1.0000 </r>
       <r>    0.5556    1.0000 </r>
       <r>    0.5599    1.0000 </r>
       <r>    0.5655    1.0000 </r>
       <r>    0.5868    1.0000 </r>
       <r>    0.5941    1.0000 </r>
       <r>    0.6847    1.0000 </r>
       <r>    0.6939    1.0000 </r>
       <r>    0.7012    1.0000 </r>
       <r>    0.7027    1.0000 </r>
       <r>    0.7233    1.0000 </r>
       <r>    0.8078    1.0000 </r>
       <r>    0.8083    1.0000 </r>
       <r>    0.8389    1.0000 </r>
       <r>    0.8559    1.0000 </r>
       <r>    0.8577    1.0000 </r>
       <r>    0.8779    1.0000 </r>
       <r>    0.8810    1.0000 </r>
       <r>    0.8846    1.0000 </r>
       <r>    0.9144    1.0000 </r>
       <r>    0.9913    1.0000 </r>
       <r>    0.9918    1.0000 </r>
       <r>    0.9937    1.0000 </r>
       <r>    1.0027    1.0000 </r>
       <r>    1.0197    1.0000 </r>
       <r>    1.0322    1.0000 </r>
       <r>    1.0821    1.0000 </r>
       <r>    1.0984    1.0000 </r>
       <r>    1.2064    1.0000 </r>
       <r>    1.2078    1.0000 </r>
       <r>    1.2154    1.0000 </r>
       <r>    1.2330    1.0000 </r>
       <r>    1.2443    1.0000 </r>
       <r>    1.2467    1.0000 </r>
       <r>    1.2541    1.0000 </r>
       <r>    1.2591    1.0000 </r>
       <r>    1.3157    1.0000 </r>
       <r>    1.3158    1.0000 </r>
       <r>    1.3655    1.0000 </r>
       <r>    1.3661    1.0000 </r>
       <r>    1.4015    1.0000 </r>
       <r>    1.4056    1.0000 </r>
       <r>    1.4382    1.0000 </r>
       <r>    1.4426    1.0000 </r>
       <r>    1.4980    1.0000 </r>
       <r>    1.5013    1.0000 </r>
       <r>    1.5380    1.0000 </r>
       <r>    1.5775    1.0000 </r>
       <r>    1.5877    1.0000 </r>
       <r>    1.5892    1.0000 </r>
       <r>    1.7634    1.0000 </r>
       <r>    1.7686    1.0000 </r>
       <r>    1.8452    1.0000 </r>
       <r>    1.8555    1.0000 </r>
       <r>    1.8599    1.0000 </r>
       <r>    1.8614    1.0000 </r>
       <r>    1.9193    1.0000 </r>
       <r>    1.9243    1.0000 </r>
       <r>    1.9543    1.0000 </r>
       <r>    1.9574    1.0000 </r>
       <r>    1.9792    1.0000 </r>
       <r>    1.9814    1.0000 </r>
       <r>    2.0238    1.0000 </r>
       <r>    2.0244    1.0000 </r>
       <r>    2.0642    1.0000 </r>
       <r>    2.0692    1.0000 </r>
       <r>    2.0949    1.0000 </r>
       <r>    2.0977    1.0000 </r>
       <r>    2.2230    1.0000 </r>
       <r>    2.2305    1.0000 </r>
       <r>    2.3998    1.0000 </r>
       <r>    2.4000    1.0000 </r>
       <r>    2.4036    1.0000 </r>
       <r>    2.4054    1.0000 </r>
       <r>    4.6618    1.0000 </r>
       <r>    5.8853    0.0000 </r>
       <r>    6.6169    0.0000 </r>
       <r>    6.6374    0.0000 </r>
       <r>    6.6377    0.0000 </r>
       <r>    6.8796    0.0000 </r>
       <r>    6.9250    0.0000 </r>
       <r>    6.9923    0.0000 </r>
       <r>    7.0035    0.0000 </r>
       <r>    7.0783    0.0000 </r>
       <r>    7.0879    0.0000 </r>
       <r>    7.1523    0.0000 </r>
       <r>    7.2118    0.0000 </r>
       <r>    7.2123    0.0000 </r>
       <r>    7.2279    0.0000 </r>
       <r>    7.2434    0.0000 </r>
       <r>    7.2823    0.0000 </r>
       <r>    7.2974    0.0000 </r>
       <r>    7.3075    0.0000 </r>
       <r>    7.3268    0.0000 </r>
       <r>    7.3325    0.0000 </r>
       <r>    7.3386    0.0000 </r>
       <r>    7.3426    0.0000 </r>
       <r>    7.3437    0.0000 </r>
       <r>    7.3610    0.0000 </r>
       <r>    7.3624    0.0000 </r>
       <r>    7.3840    0.0000 </r>
       <r>    7.3846    0.0000 </r>
       <r>    7.3924    0.0000 </r>
       <r>    7.3942    0.0000 </r>
       <r>    7.4266    0.0000 </r>
       <r>    7.4315    0.0000 </r>
       <r>    7.4587    0.0000 </r>
       <r>    7.6859    0.0000 </r>
       <r>    7.7383    0.0000 </r>
       <r>    7.7420    0.0000 </r>
       <r>    7.7458    0.0000 </r>
       <r>    7.7917    0.0000 </r>
       <r>    7.8211    0.0000 </r>
       <r>    7.8446    0.0000 </r>
       <r>    7.8740    0.0000 </r>
       <r>    7.8890    0.0000 </r>
       <r>    7.9072    0.0000 </r>
       <r>    7.9144    0.0000 </r>
       <r>    7.9199    0.0000 </r>
       <r>    7.9435    0.0000 </r>
       <r>    7.9667    0.0000 </r>
       <r>    8.0638    0.0000 </r>
       <r>    8.1125    0.0000 </r>
       <r>    8.1666    0.0000 </r>
       <r>    8.1695    0.0000 </r>
       <r>    8.1714    0.0000 </r>
       <r>    8.1852    0.0000 </r>
       <r>    8.2080    0.0000 </r>
       <r>    8.2203    0.0000 </r>
       <r>    8.2215    0.0000 </r>
       <r>    8.2332    0.0000 </r>
       <r>    8.2407    0.0000 </r>
       <r>    8.2547    0.0000 </r>
       <r>    8.2828    0.0000 </r>
       <r>    8.3926    0.0000 </r>
       <r>    8.5594    0.0000 </r>
       <r>    8.5803    0.0000 </r>
       <r>    8.5916    0.0000 </r>
       <r>    8.6333    0.0000 </r>
       <r>    8.6341    0.0000 </r>
       <r>    8.6443    0.0000 </r>
       <r>    8.6613    0.0000 </r>
       <r>    8.6687    0.0000 </r>
       <r>    8.6803    0.0000 </r>
       <r>    8.6872    0.0000 </r>
       <r>    8.6883    0.0000 </r>
       <r>    8.7312    0.0000 </r>
       <r>    8.8816    0.0000 </r>
       <r>    8.9560    0.0000 </r>
       <r>    8.9908    0.0000 </r>
       <r>    8.9978    0.0000 </r>
       <r>    9.0085    0.0000 </r>
       <r>    9.0559    0.0000 </r>
       <r>    9.1243    0.0000 </r>
       <r>    9.2100    0.0000 </r>
       <r>    9.2402    0.0000 </r>
       <r>    9.2645    0.0000 </r>
       <r>    9.2667    0.0000 </r>
       <r>    9.2700    0.0000 </r>
       <r>    9.2813    0.0000 </r>
       <r>    9.2949    0.0000 </r>
       <r>    9.2986    0.0000 </r>
       <r>    9.3032    0.0000 </r>
       <r>    9.3194    0.0000 </r>
       <r>    9.3253    0.0000 </r>
       <r>    9.3282    0.0000 </r>
       <r>    9.3288    0.0000 </r>
       <r>    9.3559    0.0000 </r>
       <r>    9.3983    0.0000 </r>
       <r>    9.4734    0.0000 </r>
       <r>    9.6111    0.0000 </r>
       <r>    9.6277    0.0000 </r>
       <r>    9.6818    0.0000 </r>
       <r>    9.6890    0.0000 </r>
       <r>    9.6906    0.0000 </r>
       <r>    9.7184    0.0000 </r>
       <r>    9.8768    0.0000 </r>
       <r>   10.0651    0.0000 </r>
       <r>   10.0885    0.0000 </r>
       <r>   10.0899    0.0000 </r>
       <r>   10.1020    0.0000 </r>
       <r>   10.1428    0.0000 </r>
       <r>   10.1704    0.0000 </r>
       <r>   10.1737    0.0000 </r>
       <r>   10.1898    0.0000 </r>
       <r>   10.1966    0.0000 </r>
       <r>   10.2256    0.0000 </r>
       <r>   10.2365    0.0000 </r>
       <r>   10.2813    0.0000 </r>
       <r>   10.3019    0.0000 </r>
       <r>   10.3034    0.0000 </r>
       <r>   10.3762    0.0000 </r>
       <r>   10.3802    0.0000 </r>
       <r>   10.3895    0.0000 </r>
       <r>   10.3934    0.0000 </r>
       <r>   10.4135    0.0000 </r>
       <r>   10.4365    0.0000 </r>
       <r>   10.4425    0.0000 </r>
       <r>   10.4661    0.0000 </r>
       <r>   10.5062    0.0000 </r>
       <r>   10.5267    0.0000 </r>
       <r>   10.6257    0.0000 </r>
       <r>   10.6677    0.0000 </r>
       <r>   10.7192    0.0000 </r>
       <r>   10.7207    0.0000 </r>
       <r>   10.7231    0.0000 </r>
       <r>   10.7316    0.0000 </r>
       <r>   10.7516    0.0000 </r>
       <r>   10.7597    0.0000 </r>
       <r>   10.7633    0.0000 </r>
       <r>   10.7829    0.0000 </r>
       <r>   10.7868    0.0000 </r>
       <r>   10.7925    0.0000 </r>
       <r>   10.8133    0.0000 </r>
       <r>   10.8143    0.0000 </r>
       <r>   11.2392    0.0000 </r>
       <r>   11.2568    0.0000 </r>
       <r>   11.5027    0.0000 </r>
       <r>   11.6143    0.0000 </r>
       <r>   11.6462    0.0000 </r>
       <r>   11.6731    0.0000 </r>
       <r>   11.7135    0.0000 </r>
       <r>   11.7404    0.0000 </r>
       <r>   11.7647    0.0000 </r>
       <r>   11.7983    0.0000 </r>
       <r>   12.2488    0.0000 </r>
      </set>
      <set comment="kpoint 5">
       <r>  -17.2940    1.0000 </r>
       <r>  -15.7203    1.0000 </r>
       <r>  -15.7201    1.0000 </r>
       <r>  -15.5736    1.0000 </r>
       <r>  -15.3957    1.0000 </r>
       <r>  -15.3103    1.0000 </r>
       <r>  -15.1589    1.0000 </r>
       <r>  -15.1584    1.0000 </r>
       <r>  -15.1581    1.0000 </r>
       <r>  -15.0708    1.0000 </r>
       <r>  -14.8868    1.0000 </r>
       <r>  -14.8657    1.0000 </r>
       <r>  -14.8640    1.0000 </r>
       <r>  -14.8472    1.0000 </r>
       <r>  -14.8441    1.0000 </r>
       <r>  -14.8428    1.0000 </r>
       <r>  -14.8391    1.0000 </r>
       <r>  -14.8372    1.0000 </r>
       <r>  -14.8252    1.0000 </r>
       <r>  -14.7656    1.0000 </r>
       <r>  -14.7632    1.0000 </r>
       <r>  -14.7417    1.0000 </r>
       <r>  -14.7209    1.0000 </r>
       <r>  -14.7205    1.0000 </r>
       <r>  -14.6442    1.0000 </r>
       <r>  -14.6343    1.0000 </r>
       <r>  -14.6334    1.0000 </r>
       <r>  -14.6199    1.0000 </r>
       <r>  -14.6189    1.0000 </r>
       <r>  -14.6119    1.0000 </r>
       <r>  -14.5609    1.0000 </r>
       <r>  -14.2538    1.0000 </r>
       <r>  -14.2536    1.0000 </r>
       <r>  -14.2427    1.0000 </r>
       <r>  -13.9160    1.0000 </r>
       <r>  -13.9151    1.0000 </r>
       <r>  -13.8545    1.0000 </r>
       <r>  -13.8463    1.0000 </r>
       <r>  -13.8449    1.0000 </r>
       <r>  -13.8425    1.0000 </r>
       <r>  -13.8391    1.0000 </r>
       <r>  -13.8391    1.0000 </r>
       <r>  -13.8374    1.0000 </r>
       <r>  -13.8111    1.0000 </r>
       <r>  -13.7968    1.0000 </r>
       <r>  -13.7957    1.0000 </r>
       <r>  -13.7845    1.0000 </r>
       <r>  -13.7794    1.0000 </r>
       <r>  -13.7775    1.0000 </r>
       <r>  -13.7515    1.0000 </r>
       <r>  -13.7510    1.0000 </r>
       <r>  -13.7507    1.0000 </r>
       <r>  -13.6392    1.0000 </r>
       <r>  -13.6384    1.0000 </r>
       <r>  -13.6378    1.0000 </r>
       <r>  -13.6364    1.0000 </r>
       <r>  -13.6363    1.0000 </r>
       <r>  -13.6357    1.0000 </r>
       <r>  -13.3981    1.0000 </r>
       <r>  -13.3975    1.0000 </r>
       <r>  -13.3941    1.0000 </r>
       <r>  -13.3940    1.0000 </r>
       <r>  -13.3934    1.0000 </r>
       <r>  -13.3898    1.0000 </r>
       <r>  -13.3743    1.0000 </r>
       <r>  -13.3723    1.0000 </r>
       <r>  -13.3572    1.0000 </r>
       <r>  -13.3515    1.0000 </r>
       <r>  -13.3496    1.0000 </r>
       <r>  -13.3458    1.0000 </r>
       <r>  -13.2682    1.0000 </r>
       <r>  -13.2680    1.0000 </r>
       <r>  -13.2052    1.0000 </r>
       <r>  -13.2048    1.0000 </r>
       <r>  -13.2041    1.0000 </r>
       <r>  -13.2040    1.0000 </r>
       <r>  -13.2037    1.0000 </r>
       <r>  -13.2027    1.0000 </r>
       <r>  -12.8945    1.0000 </r>
       <r>  -12.8585    1.0000 </r>
       <r>  -12.8583    1.0000 </r>
       <r>  -12.7737    1.0000 </r>
       <r>  -12.6760    1.0000 </r>
       <r>  -12.5897    1.0000 </r>
       <r>  -12.5894    1.0000 </r>
       <r>  -12.5888    1.0000 </r>
       <r>  -12.5331    1.0000 </r>
       <r>  -12.5329    1.0000 </r>
       <r>  -12.4971    1.0000 </r>
       <r>  -12.4970    1.0000 </r>
       <r>  -12.4675    1.0000 </r>
       <r>  -12.3505    1.0000 </r>
       <r>  -12.3360    1.0000 </r>
       <r>  -12.3323    1.0000 </r>
       <r>  -12.3222    1.0000 </r>
       <r>  -12.3198    1.0000 </r>
       <r>  -12.3166    1.0000 </r>
       <r>  -12.3135    1.0000 </r>
       <r>  -12.3119    1.0000 </r>
       <r>  -12.3057    1.0000 </r>
       <r>  -12.3036    1.0000 </r>
       <r>  -12.2968    1.0000 </r>
       <r>  -12.2945    1.0000 </r>
       <r>  -12.2920    1.0000 </r>
       <r>  -12.2896    1.0000 </r>
       <r>  -12.2886    1.0000 </r>
       <r>  -12.2874    1.0000 </r>
       <r>  -12.2785    1.0000 </r>
       <r>  -12.2740    1.0000 </r>
       <r>  -12.2711    1.0000 </r>
       <r>  -12.2695    1.0000 </r>
       <r>  -12.2689    1.0000 </r>
       <r>  -12.2665    1.0000 </r>
       <r>  -12.2562    1.0000 </r>
       <r>  -12.2492    1.0000 </r>
       <r>  -12.1942    1.0000 </r>
       <r>  -12.1917    1.0000 </r>
       <r>  -12.1909    1.0000 </r>
       <r>  -12.1851    1.0000 </r>
       <r>  -12.1830    1.0000 </r>
       <r>  -12.1796    1.0000 </r>
       <r>  -12.1585    1.0000 </r>
       <r>  -12.1582    1.0000 </r>
       <r>  -12.1540    1.0000 </r>
       <r>  -12.1534    1.0000 </r>
       <r>  -12.1518    1.0000 </r>
       <r>  -12.1518    1.0000 </r>
       <r>  -12.1444    1.0000 </r>
       <r>  -12.1440    1.0000 </r>
       <r>  -12.1422    1.0000 </r>
       <r>  -12.1420    1.0000 </r>
       <r>  -12.1395    1.0000 </r>
       <r>  -12.1393    1.0000 </r>
       <r>  -12.0618    1.0000 </r>
       <r>  -12.0617    1.0000 </r>
       <r>  -12.0615    1.0000 </r>
       <r>  -11.9614    1.0000 </r>
       <r>  -11.9614    1.0000 </r>
       <r>  -11.5964    1.0000 </r>
       <r>  -11.5944    1.0000 </r>
       <r>  -11.5939    1.0000 </r>
       <r>  -11.5913    1.0000 </r>
       <r>  -11.4688    1.0000 </r>
       <r>  -11.4688    1.0000 </r>
       <r>   -8.3734    1.0000 </r>
       <r>   -7.3292    1.0000 </r>
       <r>   -7.3290    1.0000 </r>
       <r>   -6.6089    1.0000 </r>
       <r>   -6.6087    1.0000 </r>
       <r>   -6.5437    1.0000 </r>
       <r>   -6.5260    1.0000 </r>
       <r>   -6.5257    1.0000 </r>
       <r>   -6.5249    1.0000 </r>
       <r>   -6.5209    1.0000 </r>
       <r>   -6.5196    1.0000 </r>
       <r>   -6.5102    1.0000 </r>
       <r>   -6.4869    1.0000 </r>
       <r>   -6.3900    1.0000 </r>
       <r>   -6.3899    1.0000 </r>
       <r>   -6.3899    1.0000 </r>
       <r>   -6.3164    1.0000 </r>
       <r>   -6.3163    1.0000 </r>
       <r>   -6.0963    1.0000 </r>
       <r>   -6.0962    1.0000 </r>
       <r>   -6.0297    1.0000 </r>
       <r>   -6.0294    1.0000 </r>
       <r>   -6.0063    1.0000 </r>
       <r>   -5.9874    1.0000 </r>
       <r>   -5.9065    1.0000 </r>
       <r>   -5.9064    1.0000 </r>
       <r>   -5.7172    1.0000 </r>
       <r>   -5.7164    1.0000 </r>
       <r>   -5.7113    1.0000 </r>
       <r>   -5.7104    1.0000 </r>
       <r>   -5.7093    1.0000 </r>
       <r>   -5.7085    1.0000 </r>
       <r>   -5.7029    1.0000 </r>
       <r>   -5.7022    1.0000 </r>
       <r>   -5.6942    1.0000 </r>
       <r>   -5.6896    1.0000 </r>
       <r>   -5.6888    1.0000 </r>
       <r>   -5.6860    1.0000 </r>
       <r>   -5.6842    1.0000 </r>
       <r>   -5.6838    1.0000 </r>
       <r>   -5.6794    1.0000 </r>
       <r>   -5.6773    1.0000 </r>
       <r>   -5.6716    1.0000 </r>
       <r>   -5.6705    1.0000 </r>
       <r>   -5.6703    1.0000 </r>
       <r>   -5.6694    1.0000 </r>
       <r>   -5.6646    1.0000 </r>
       <r>   -5.6637    1.0000 </r>
       <r>   -5.6630    1.0000 </r>
       <r>   -5.6595    1.0000 </r>
       <r>   -5.5810    1.0000 </r>
       <r>   -5.5803    1.0000 </r>
       <r>   -5.5590    1.0000 </r>
       <r>   -5.5585    1.0000 </r>
       <r>   -5.5584    1.0000 </r>
       <r>   -5.5578    1.0000 </r>
       <r>   -5.5551    1.0000 </r>
       <r>   -5.5543    1.0000 </r>
       <r>   -5.5539    1.0000 </r>
       <r>   -5.5539    1.0000 </r>
       <r>   -5.5506    1.0000 </r>
       <r>   -5.5505    1.0000 </r>
       <r>   -5.5472    1.0000 </r>
       <r>   -5.5469    1.0000 </r>
       <r>   -5.5468    1.0000 </r>
       <r>   -5.5468    1.0000 </r>
       <r>   -5.4184    1.0000 </r>
       <r>   -5.4183    1.0000 </r>
       <r>   -5.3696    1.0000 </r>
       <r>   -5.2477    1.0000 </r>
       <r>   -5.1470    1.0000 </r>
       <r>   -5.1469    1.0000 </r>
       <r>   -4.9932    1.0000 </r>
       <r>   -4.9234    1.0000 </r>
       <r>   -4.9233    1.0000 </r>
       <r>   -4.8739    1.0000 </r>
       <r>   -4.7462    1.0000 </r>
       <r>   -4.7461    1.0000 </r>
       <r>   -4.7458    1.0000 </r>
       <r>   -4.7457    1.0000 </r>
       <r>   -4.6191    1.0000 </r>
       <r>   -4.6191    1.0000 </r>
       <r>   -4.4821    1.0000 </r>
       <r>   -4.4814    1.0000 </r>
       <r>   -4.4795    1.0000 </r>
       <r>   -4.4767    1.0000 </r>
       <r>   -4.4751    1.0000 </r>
       <r>   -4.4747    1.0000 </r>
       <r>   -4.4731    1.0000 </r>
       <r>   -4.4723    1.0000 </r>
       <r>   -4.4710    1.0000 </r>
       <r>   -4.4688    1.0000 </r>
       <r>   -4.4670    1.0000 </r>
       <r>   -4.4656    1.0000 </r>
       <r>   -4.3393    1.0000 </r>
       <r>   -4.3390    1.0000 </r>
       <r>   -4.3390    1.0000 </r>
       <r>   -4.3389    1.0000 </r>
       <r>   -4.3388    1.0000 </r>
       <r>   -4.3386    1.0000 </r>
       <r>   -4.3022    1.0000 </r>
       <r>   -4.0490    1.0000 </r>
       <r>   -3.9420    1.0000 </r>
       <r>   -3.9419    1.0000 </r>
       <r>   -3.6298    1.0000 </r>
       <r>   -3.6297    1.0000 </r>
       <r>   -3.6150    1.0000 </r>
       <r>   -3.5984    1.0000 </r>
       <r>   -3.5594    1.0000 </r>
       <r>   -3.5190    1.0000 </r>
       <r>   -3.5189    1.0000 </r>
       <r>   -3.5126    1.0000 </r>
       <r>   -3.3590    1.0000 </r>
       <r>   -3.3201    1.0000 </r>
       <r>   -3.3200    1.0000 </r>
       <r>   -3.3060    1.0000 </r>
       <r>   -3.3058    1.0000 </r>
       <r>   -3.2525    1.0000 </r>
       <r>   -3.2518    1.0000 </r>
       <r>   -3.2206    1.0000 </r>
       <r>   -3.1823    1.0000 </r>
       <r>   -3.1735    1.0000 </r>
       <r>   -3.1733    1.0000 </r>
       <r>   -3.1032    1.0000 </r>
       <r>   -3.1001    1.0000 </r>
       <r>   -3.0980    1.0000 </r>
       <r>   -3.0970    1.0000 </r>
       <r>   -3.0968    1.0000 </r>
       <r>   -3.0967    1.0000 </r>
       <r>   -3.0963    1.0000 </r>
       <r>   -3.0961    1.0000 </r>
       <r>   -3.0958    1.0000 </r>
       <r>   -3.0954    1.0000 </r>
       <r>   -3.0939    1.0000 </r>
       <r>   -3.0908    1.0000 </r>
       <r>   -3.0219    1.0000 </r>
       <r>   -3.0207    1.0000 </r>
       <r>   -2.9689    1.0000 </r>
       <r>   -2.9689    1.0000 </r>
       <r>   -2.9688    1.0000 </r>
       <r>   -2.9688    1.0000 </r>
       <r>   -2.9688    1.0000 </r>
       <r>   -2.9687    1.0000 </r>
       <r>   -2.9663    1.0000 </r>
       <r>   -2.9263    1.0000 </r>
       <r>   -2.9261    1.0000 </r>
       <r>   -2.9217    1.0000 </r>
       <r>   -2.9215    1.0000 </r>
       <r>   -2.9196    1.0000 </r>
       <r>   -2.9193    1.0000 </r>
       <r>   -2.9138    1.0000 </r>
       <r>   -2.9136    1.0000 </r>
       <r>   -2.9090    1.0000 </r>
       <r>   -2.9042    1.0000 </r>
       <r>   -2.9031    1.0000 </r>
       <r>   -2.8977    1.0000 </r>
       <r>   -2.8960    1.0000 </r>
       <r>   -2.8931    1.0000 </r>
       <r>   -2.8895    1.0000 </r>
       <r>   -2.8866    1.0000 </r>
       <r>   -2.8816    1.0000 </r>
       <r>   -2.8812    1.0000 </r>
       <r>   -2.8801    1.0000 </r>
       <r>   -2.8793    1.0000 </r>
       <r>   -2.8754    1.0000 </r>
       <r>   -2.8742    1.0000 </r>
       <r>   -2.8728    1.0000 </r>
       <r>   -2.8696    1.0000 </r>
       <r>   -2.8598    1.0000 </r>
       <r>   -2.8306    1.0000 </r>
       <r>   -2.8293    1.0000 </r>
       <r>   -2.8042    1.0000 </r>
       <r>   -2.8027    1.0000 </r>
       <r>   -2.7916    1.0000 </r>
       <r>   -2.7722    1.0000 </r>
       <r>   -2.7721    1.0000 </r>
       <r>   -2.7719    1.0000 </r>
       <r>   -2.7710    1.0000 </r>
       <r>   -2.7677    1.0000 </r>
       <r>   -2.7676    1.0000 </r>
       <r>   -2.7626    1.0000 </r>
       <r>   -2.7624    1.0000 </r>
       <r>   -2.7596    1.0000 </r>
       <r>   -2.7593    1.0000 </r>
       <r>   -2.7586    1.0000 </r>
       <r>   -2.7585    1.0000 </r>
       <r>   -2.4054    1.0000 </r>
       <r>   -2.2444    1.0000 </r>
       <r>   -2.2442    1.0000 </r>
       <r>   -2.2172    1.0000 </r>
       <r>   -2.1192    1.0000 </r>
       <r>   -2.0979    1.0000 </r>
       <r>   -2.0919    1.0000 </r>
       <r>   -2.0918    1.0000 </r>
       <r>   -2.0866    1.0000 </r>
       <r>   -2.0230    1.0000 </r>
       <r>   -2.0220    1.0000 </r>
       <r>   -1.9512    1.0000 </r>
       <r>   -1.9512    1.0000 </r>
       <r>   -1.9017    1.0000 </r>
       <r>   -1.7159    1.0000 </r>
       <r>   -1.7146    1.0000 </r>
       <r>   -1.7137    1.0000 </r>
       <r>   -1.7108    1.0000 </r>
       <r>   -1.7099    1.0000 </r>
       <r>   -1.7085    1.0000 </r>
       <r>   -1.6913    1.0000 </r>
       <r>   -1.6901    1.0000 </r>
       <r>   -1.6812    1.0000 </r>
       <r>   -1.6659    1.0000 </r>
       <r>   -1.6377    1.0000 </r>
       <r>   -1.6372    1.0000 </r>
       <r>   -1.5949    1.0000 </r>
       <r>   -1.5939    1.0000 </r>
       <r>   -1.5807    1.0000 </r>
       <r>   -1.5806    1.0000 </r>
       <r>   -1.5806    1.0000 </r>
       <r>   -1.5747    1.0000 </r>
       <r>   -1.5746    1.0000 </r>
       <r>   -1.5689    1.0000 </r>
       <r>   -1.5482    1.0000 </r>
       <r>   -1.5232    1.0000 </r>
       <r>   -1.5231    1.0000 </r>
       <r>   -1.5060    1.0000 </r>
       <r>   -1.5042    1.0000 </r>
       <r>   -1.5020    1.0000 </r>
       <r>   -1.5012    1.0000 </r>
       <r>   -1.5004    1.0000 </r>
       <r>   -1.4990    1.0000 </r>
       <r>   -1.4986    1.0000 </r>
       <r>   -1.4927    1.0000 </r>
       <r>   -1.4917    1.0000 </r>
       <r>   -1.4915    1.0000 </r>
       <r>   -1.4913    1.0000 </r>
       <r>   -1.4902    1.0000 </r>
       <r>   -1.4885    1.0000 </r>
       <r>   -1.4867    1.0000 </r>
       <r>   -1.4851    1.0000 </r>
       <r>   -1.4818    1.0000 </r>
       <r>   -1.4463    1.0000 </r>
       <r>   -1.4451    1.0000 </r>
       <r>   -1.4309    1.0000 </r>
       <r>   -1.4304    1.0000 </r>
       <r>   -1.4295    1.0000 </r>
       <r>   -1.3870    1.0000 </r>
       <r>   -1.3792    1.0000 </r>
       <r>   -1.3784    1.0000 </r>
       <r>   -1.3754    1.0000 </r>
       <r>   -1.3722    1.0000 </r>
       <r>   -1.3713    1.0000 </r>
       <r>   -1.3638    1.0000 </r>
       <r>   -1.3637    1.0000 </r>
       <r>   -1.3630    1.0000 </r>
       <r>   -1.3596    1.0000 </r>
       <r>   -1.3595    1.0000 </r>
       <r>   -1.3595    1.0000 </r>
       <r>   -1.2387    1.0000 </r>
       <r>   -1.2235    1.0000 </r>
       <r>   -1.2231    1.0000 </r>
       <r>   -1.1574    1.0000 </r>
       <r>   -1.1526    1.0000 </r>
       <r>   -1.1515    1.0000 </r>
       <r>   -1.1507    1.0000 </r>
       <r>   -1.1504    1.0000 </r>
       <r>   -1.1498    1.0000 </r>
       <r>   -1.1495    1.0000 </r>
       <r>   -1.1490    1.0000 </r>
       <r>   -1.1488    1.0000 </r>
       <r>   -1.1474    1.0000 </r>
       <r>   -1.1470    1.0000 </r>
       <r>   -1.1460    1.0000 </r>
       <r>   -1.1446    1.0000 </r>
       <r>   -1.1405    1.0000 </r>
       <r>   -1.1253    1.0000 </r>
       <r>   -1.1049    1.0000 </r>
       <r>   -1.0195    1.0000 </r>
       <r>   -1.0194    1.0000 </r>
       <r>   -1.0193    1.0000 </r>
       <r>   -1.0191    1.0000 </r>
       <r>   -1.0189    1.0000 </r>
       <r>   -1.0189    1.0000 </r>
       <r>   -1.0094    1.0000 </r>
       <r>   -1.0088    1.0000 </r>
       <r>   -0.9934    1.0000 </r>
       <r>   -0.8605    1.0000 </r>
       <r>   -0.8604    1.0000 </r>
       <r>   -0.8599    1.0000 </r>
       <r>   -0.8511    1.0000 </r>
       <r>   -0.8507    1.0000 </r>
       <r>   -0.8495    1.0000 </r>
       <r>   -0.8470    1.0000 </r>
       <r>   -0.8414    1.0000 </r>
       <r>   -0.8366    1.0000 </r>
       <r>   -0.8345    1.0000 </r>
       <r>   -0.8318    1.0000 </r>
       <r>   -0.8255    1.0000 </r>
       <r>   -0.7529    1.0000 </r>
       <r>   -0.7469    1.0000 </r>
       <r>   -0.7456    1.0000 </r>
       <r>   -0.7444    1.0000 </r>
       <r>   -0.7434    1.0000 </r>
       <r>   -0.7406    1.0000 </r>
       <r>   -0.7230    1.0000 </r>
       <r>   -0.7212    1.0000 </r>
       <r>   -0.7211    1.0000 </r>
       <r>   -0.7155    1.0000 </r>
       <r>   -0.7154    1.0000 </r>
       <r>   -0.7127    1.0000 </r>
       <r>   -0.4613    1.0000 </r>
       <r>   -0.4600    1.0000 </r>
       <r>   -0.4243    1.0000 </r>
       <r>   -0.3432    1.0000 </r>
       <r>   -0.3394    1.0000 </r>
       <r>   -0.3387    1.0000 </r>
       <r>   -0.3351    1.0000 </r>
       <r>   -0.2588    1.0000 </r>
       <r>   -0.2587    1.0000 </r>
       <r>   -0.1350    1.0000 </r>
       <r>   -0.1272    1.0000 </r>
       <r>   -0.1258    1.0000 </r>
       <r>   -0.1225    1.0000 </r>
       <r>   -0.1225    1.0000 </r>
       <r>   -0.1209    1.0000 </r>
       <r>   -0.0884    1.0000 </r>
       <r>   -0.0880    1.0000 </r>
       <r>   -0.0388    1.0000 </r>
       <r>    0.0022    1.0000 </r>
       <r>    0.0038    1.0000 </r>
       <r>    0.1437    1.0000 </r>
       <r>    0.2119    1.0000 </r>
       <r>    0.2145    1.0000 </r>
       <r>    0.2159    1.0000 </r>
       <r>    0.2165    1.0000 </r>
       <r>    0.2187    1.0000 </r>
       <r>    0.2191    1.0000 </r>
       <r>    0.2217    1.0000 </r>
       <r>    0.2231    1.0000 </r>
       <r>    0.2312    1.0000 </r>
       <r>    0.2357    1.0000 </r>
       <r>    0.2375    1.0000 </r>
       <r>    0.2387    1.0000 </r>
       <r>    0.2437    1.0000 </r>
       <r>    0.2472    1.0000 </r>
       <r>    0.2477    1.0000 </r>
       <r>    0.3442    1.0000 </r>
       <r>    0.3447    1.0000 </r>
       <r>    0.3536    1.0000 </r>
       <r>    0.3552    1.0000 </r>
       <r>    0.3555    1.0000 </r>
       <r>    0.3604    1.0000 </r>
       <r>    0.3607    1.0000 </r>
       <r>    0.3629    1.0000 </r>
       <r>    0.4278    1.0000 </r>
       <r>    0.4358    1.0000 </r>
       <r>    0.4372    1.0000 </r>
       <r>    0.4378    1.0000 </r>
       <r>    0.4384    1.0000 </r>
       <r>    0.4416    1.0000 </r>
       <r>    0.4520    1.0000 </r>
       <r>    0.5752    1.0000 </r>
       <r>    0.6352    1.0000 </r>
       <r>    0.6354    1.0000 </r>
       <r>    0.7160    1.0000 </r>
       <r>    0.7166    1.0000 </r>
       <r>    0.7435    1.0000 </r>
       <r>    0.7436    1.0000 </r>
       <r>    0.7454    1.0000 </r>
       <r>    0.7756    1.0000 </r>
       <r>    0.7813    1.0000 </r>
       <r>    0.7819    1.0000 </r>
       <r>    0.9026    1.0000 </r>
       <r>    0.9238    1.0000 </r>
       <r>    0.9253    1.0000 </r>
       <r>    0.9255    1.0000 </r>
       <r>    0.9412    1.0000 </r>
       <r>    0.9421    1.0000 </r>
       <r>    0.9434    1.0000 </r>
       <r>    0.9443    1.0000 </r>
       <r>    0.9495    1.0000 </r>
       <r>    0.9516    1.0000 </r>
       <r>    0.9520    1.0000 </r>
       <r>    0.9619    1.0000 </r>
       <r>    0.9633    1.0000 </r>
       <r>    0.9663    1.0000 </r>
       <r>    0.9676    1.0000 </r>
       <r>    1.1304    1.0000 </r>
       <r>    1.1338    1.0000 </r>
       <r>    1.1341    1.0000 </r>
       <r>    1.1377    1.0000 </r>
       <r>    1.1812    1.0000 </r>
       <r>    1.1820    1.0000 </r>
       <r>    1.1827    1.0000 </r>
       <r>    1.2614    1.0000 </r>
       <r>    1.2614    1.0000 </r>
       <r>    1.4099    1.0000 </r>
       <r>    1.4103    1.0000 </r>
       <r>    1.4900    1.0000 </r>
       <r>    1.5431    1.0000 </r>
       <r>    1.5823    1.0000 </r>
       <r>    1.5829    1.0000 </r>
       <r>    1.6166    1.0000 </r>
       <r>    1.6177    1.0000 </r>
       <r>    1.6468    1.0000 </r>
       <r>    1.6641    1.0000 </r>
       <r>    1.6663    1.0000 </r>
       <r>    1.6669    1.0000 </r>
       <r>    1.7222    1.0000 </r>
       <r>    1.7241    1.0000 </r>
       <r>    1.7294    1.0000 </r>
       <r>    1.7648    1.0000 </r>
       <r>    1.7877    1.0000 </r>
       <r>    1.7899    1.0000 </r>
       <r>    1.7902    1.0000 </r>
       <r>    1.8041    1.0000 </r>
       <r>    1.8047    1.0000 </r>
       <r>    1.8129    1.0000 </r>
       <r>    1.8131    1.0000 </r>
       <r>    1.8224    1.0000 </r>
       <r>    1.8236    1.0000 </r>
       <r>    1.8267    1.0000 </r>
       <r>    1.8272    1.0000 </r>
       <r>    1.8935    1.0000 </r>
       <r>    1.8943    1.0000 </r>
       <r>    1.8947    1.0000 </r>
       <r>    2.0439    1.0000 </r>
       <r>    2.0439    1.0000 </r>
       <r>    2.3646    1.0000 </r>
       <r>    2.3720    1.0000 </r>
       <r>    2.3766    1.0000 </r>
       <r>    2.3783    1.0000 </r>
       <r>    2.5006    1.0000 </r>
       <r>    2.5006    1.0000 </r>
       <r>    4.6598    1.0000 </r>
       <r>    5.9134    0.0000 </r>
       <r>    6.4836    0.0000 </r>
       <r>    6.4839    0.0000 </r>
       <r>    6.6875    0.0000 </r>
       <r>    6.7480    0.0000 </r>
       <r>    6.8611    0.0000 </r>
       <r>    6.8618    0.0000 </r>
       <r>    6.8655    0.0000 </r>
       <r>    7.1105    0.0000 </r>
       <r>    7.1833    0.0000 </r>
       <r>    7.1835    0.0000 </r>
       <r>    7.1884    0.0000 </r>
       <r>    7.1885    0.0000 </r>
       <r>    7.2627    0.0000 </r>
       <r>    7.2637    0.0000 </r>
       <r>    7.3168    0.0000 </r>
       <r>    7.3168    0.0000 </r>
       <r>    7.3519    0.0000 </r>
       <r>    7.4111    0.0000 </r>
       <r>    7.4113    0.0000 </r>
       <r>    7.5195    0.0000 </r>
       <r>    7.5200    0.0000 </r>
       <r>    7.5722    0.0000 </r>
       <r>    7.5788    0.0000 </r>
       <r>    7.5789    0.0000 </r>
       <r>    7.5970    0.0000 </r>
       <r>    7.6307    0.0000 </r>
       <r>    7.6310    0.0000 </r>
       <r>    7.6358    0.0000 </r>
       <r>    7.6941    0.0000 </r>
       <r>    7.6948    0.0000 </r>
       <r>    7.7142    0.0000 </r>
       <r>    7.7220    0.0000 </r>
       <r>    7.7263    0.0000 </r>
       <r>    7.7265    0.0000 </r>
       <r>    7.7425    0.0000 </r>
       <r>    7.7430    0.0000 </r>
       <r>    7.7489    0.0000 </r>
       <r>    7.7531    0.0000 </r>
       <r>    7.7573    0.0000 </r>
       <r>    7.7576    0.0000 </r>
       <r>    7.8172    0.0000 </r>
       <r>    7.8180    0.0000 </r>
       <r>    7.8189    0.0000 </r>
       <r>    8.0138    0.0000 </r>
       <r>    8.0832    0.0000 </r>
       <r>    8.0845    0.0000 </r>
       <r>    8.0956    0.0000 </r>
       <r>    8.1454    0.0000 </r>
       <r>    8.1462    0.0000 </r>
       <r>    8.1861    0.0000 </r>
       <r>    8.1866    0.0000 </r>
       <r>    8.2141    0.0000 </r>
       <r>    8.2215    0.0000 </r>
       <r>    8.2220    0.0000 </r>
       <r>    8.2274    0.0000 </r>
       <r>    8.3064    0.0000 </r>
       <r>    8.3198    0.0000 </r>
       <r>    8.3205    0.0000 </r>
       <r>    8.3239    0.0000 </r>
       <r>    8.3309    0.0000 </r>
       <r>    8.3429    0.0000 </r>
       <r>    8.3431    0.0000 </r>
       <r>    8.3481    0.0000 </r>
       <r>    8.3483    0.0000 </r>
       <r>    8.3617    0.0000 </r>
       <r>    8.3630    0.0000 </r>
       <r>    8.3636    0.0000 </r>
       <r>    8.3642    0.0000 </r>
       <r>    8.3660    0.0000 </r>
       <r>    8.8095    0.0000 </r>
       <r>    8.8857    0.0000 </r>
       <r>    8.8863    0.0000 </r>
       <r>    9.0801    0.0000 </r>
       <r>    9.0811    0.0000 </r>
       <r>    9.0824    0.0000 </r>
       <r>    9.0824    0.0000 </r>
       <r>    9.1299    0.0000 </r>
       <r>    9.1300    0.0000 </r>
       <r>    9.1325    0.0000 </r>
       <r>    9.1575    0.0000 </r>
       <r>    9.1708    0.0000 </r>
       <r>    9.1961    0.0000 </r>
       <r>    9.1970    0.0000 </r>
       <r>    9.2200    0.0000 </r>
       <r>    9.2259    0.0000 </r>
       <r>    9.2270    0.0000 </r>
       <r>    9.2412    0.0000 </r>
       <r>    9.2735    0.0000 </r>
       <r>    9.2739    0.0000 </r>
       <r>    9.3895    0.0000 </r>
       <r>    9.3902    0.0000 </r>
       <r>    9.3904    0.0000 </r>
       <r>    9.4329    0.0000 </r>
       <r>    9.5275    0.0000 </r>
       <r>    9.5277    0.0000 </r>
       <r>    9.6643    0.0000 </r>
       <r>    9.7643    0.0000 </r>
       <r>    9.7648    0.0000 </r>
       <r>    9.7895    0.0000 </r>
       <r>    9.7903    0.0000 </r>
       <r>    9.7995    0.0000 </r>
       <r>    9.9507    0.0000 </r>
       <r>    9.9517    0.0000 </r>
       <r>    9.9519    0.0000 </r>
       <r>    9.9720    0.0000 </r>
       <r>    9.9746    0.0000 </r>
       <r>    9.9750    0.0000 </r>
       <r>   10.0714    0.0000 </r>
       <r>   10.1261    0.0000 </r>
       <r>   10.1267    0.0000 </r>
       <r>   10.1440    0.0000 </r>
       <r>   10.1444    0.0000 </r>
       <r>   10.1678    0.0000 </r>
       <r>   10.1822    0.0000 </r>
       <r>   10.1825    0.0000 </r>
       <r>   10.1908    0.0000 </r>
       <r>   10.1961    0.0000 </r>
       <r>   10.1975    0.0000 </r>
       <r>   10.2732    0.0000 </r>
       <r>   10.5411    0.0000 </r>
       <r>   10.6163    0.0000 </r>
       <r>   10.6174    0.0000 </r>
       <r>   10.6396    0.0000 </r>
       <r>   10.6400    0.0000 </r>
       <r>   10.6622    0.0000 </r>
       <r>   10.8079    0.0000 </r>
       <r>   10.8149    0.0000 </r>
       <r>   10.8157    0.0000 </r>
       <r>   10.8189    0.0000 </r>
       <r>   10.8192    0.0000 </r>
       <r>   10.8208    0.0000 </r>
       <r>   11.3190    0.0000 </r>
       <r>   11.3254    0.0000 </r>
       <r>   11.3443    0.0000 </r>
       <r>   11.4130    0.0000 </r>
       <r>   11.4466    0.0000 </r>
       <r>   11.5057    0.0000 </r>
       <r>   11.5111    0.0000 </r>
       <r>   11.5447    0.0000 </r>
       <r>   11.5651    0.0000 </r>
       <r>   11.6133    0.0000 </r>
       <r>   11.6290    0.0000 </r>
       <r>   11.6705    0.0000 </r>
       <r>   11.7024    0.0000 </r>
       <r>   11.7443    0.0000 </r>
       <r>   11.7570    0.0000 </r>
       <r>   11.7738    0.0000 </r>
       <r>   11.7991    0.0000 </r>
       <r>   11.8278    0.0000 </r>
       <r>   11.8817    0.0000 </r>
      </set>
      <set comment="kpoint 6">
       <r>  -17.2938    1.0000 </r>
       <r>  -15.7753    1.0000 </r>
       <r>  -15.7304    1.0000 </r>
       <r>  -15.4176    1.0000 </r>
       <r>  -15.3044    1.0000 </r>
       <r>  -15.2762    1.0000 </r>
       <r>  -15.2411    1.0000 </r>
       <r>  -15.2060    1.0000 </r>
       <r>  -15.1435    1.0000 </r>
       <r>  -15.0916    1.0000 </r>
       <r>  -15.0609    1.0000 </r>
       <r>  -15.0345    1.0000 </r>
       <r>  -15.0145    1.0000 </r>
       <r>  -14.9853    1.0000 </r>
       <r>  -14.9837    1.0000 </r>
       <r>  -14.9071    1.0000 </r>
       <r>  -14.9005    1.0000 </r>
       <r>  -14.8555    1.0000 </r>
       <r>  -14.7583    1.0000 </r>
       <r>  -14.7573    1.0000 </r>
       <r>  -14.6187    1.0000 </r>
       <r>  -14.5680    1.0000 </r>
       <r>  -14.5520    1.0000 </r>
       <r>  -14.4668    1.0000 </r>
       <r>  -14.4624    1.0000 </r>
       <r>  -14.4598    1.0000 </r>
       <r>  -14.4590    1.0000 </r>
       <r>  -14.4252    1.0000 </r>
       <r>  -14.4012    1.0000 </r>
       <r>  -14.3968    1.0000 </r>
       <r>  -14.3854    1.0000 </r>
       <r>  -14.3441    1.0000 </r>
       <r>  -14.2473    1.0000 </r>
       <r>  -14.2454    1.0000 </r>
       <r>  -14.2434    1.0000 </r>
       <r>  -14.2430    1.0000 </r>
       <r>  -14.2080    1.0000 </r>
       <r>  -14.2063    1.0000 </r>
       <r>  -14.1726    1.0000 </r>
       <r>  -14.1489    1.0000 </r>
       <r>  -14.1113    1.0000 </r>
       <r>  -14.0356    1.0000 </r>
       <r>  -13.9977    1.0000 </r>
       <r>  -13.9974    1.0000 </r>
       <r>  -13.9481    1.0000 </r>
       <r>  -13.7882    1.0000 </r>
       <r>  -13.7432    1.0000 </r>
       <r>  -13.7417    1.0000 </r>
       <r>  -13.7113    1.0000 </r>
       <r>  -13.7096    1.0000 </r>
       <r>  -13.7040    1.0000 </r>
       <r>  -13.6835    1.0000 </r>
       <r>  -13.6557    1.0000 </r>
       <r>  -13.6546    1.0000 </r>
       <r>  -13.6044    1.0000 </r>
       <r>  -13.5335    1.0000 </r>
       <r>  -13.5332    1.0000 </r>
       <r>  -13.5182    1.0000 </r>
       <r>  -13.5177    1.0000 </r>
       <r>  -13.5056    1.0000 </r>
       <r>  -13.3598    1.0000 </r>
       <r>  -13.3379    1.0000 </r>
       <r>  -13.2553    1.0000 </r>
       <r>  -13.2233    1.0000 </r>
       <r>  -13.1105    1.0000 </r>
       <r>  -13.0693    1.0000 </r>
       <r>  -13.0636    1.0000 </r>
       <r>  -13.0620    1.0000 </r>
       <r>  -13.0606    1.0000 </r>
       <r>  -13.0327    1.0000 </r>
       <r>  -13.0271    1.0000 </r>
       <r>  -13.0229    1.0000 </r>
       <r>  -13.0166    1.0000 </r>
       <r>  -12.9746    1.0000 </r>
       <r>  -12.9295    1.0000 </r>
       <r>  -12.8933    1.0000 </r>
       <r>  -12.8927    1.0000 </r>
       <r>  -12.8891    1.0000 </r>
       <r>  -12.8888    1.0000 </r>
       <r>  -12.8790    1.0000 </r>
       <r>  -12.8775    1.0000 </r>
       <r>  -12.8773    1.0000 </r>
       <r>  -12.8770    1.0000 </r>
       <r>  -12.8664    1.0000 </r>
       <r>  -12.8578    1.0000 </r>
       <r>  -12.8572    1.0000 </r>
       <r>  -12.8514    1.0000 </r>
       <r>  -12.8508    1.0000 </r>
       <r>  -12.7154    1.0000 </r>
       <r>  -12.7151    1.0000 </r>
       <r>  -12.7147    1.0000 </r>
       <r>  -12.7146    1.0000 </r>
       <r>  -12.6841    1.0000 </r>
       <r>  -12.6099    1.0000 </r>
       <r>  -12.6001    1.0000 </r>
       <r>  -12.5782    1.0000 </r>
       <r>  -12.5718    1.0000 </r>
       <r>  -12.5499    1.0000 </r>
       <r>  -12.5331    1.0000 </r>
       <r>  -12.4978    1.0000 </r>
       <r>  -12.4377    1.0000 </r>
       <r>  -12.4295    1.0000 </r>
       <r>  -12.4248    1.0000 </r>
       <r>  -12.4225    1.0000 </r>
       <r>  -12.3423    1.0000 </r>
       <r>  -12.3401    1.0000 </r>
       <r>  -12.3222    1.0000 </r>
       <r>  -12.3188    1.0000 </r>
       <r>  -12.2497    1.0000 </r>
       <r>  -12.2445    1.0000 </r>
       <r>  -12.2390    1.0000 </r>
       <r>  -12.2316    1.0000 </r>
       <r>  -12.2173    1.0000 </r>
       <r>  -12.2167    1.0000 </r>
       <r>  -12.2044    1.0000 </r>
       <r>  -12.2039    1.0000 </r>
       <r>  -12.1764    1.0000 </r>
       <r>  -12.1762    1.0000 </r>
       <r>  -12.1713    1.0000 </r>
       <r>  -12.1710    1.0000 </r>
       <r>  -12.0962    1.0000 </r>
       <r>  -12.0959    1.0000 </r>
       <r>  -12.0887    1.0000 </r>
       <r>  -12.0870    1.0000 </r>
       <r>  -12.0865    1.0000 </r>
       <r>  -12.0845    1.0000 </r>
       <r>  -11.9511    1.0000 </r>
       <r>  -11.9481    1.0000 </r>
       <r>  -11.9465    1.0000 </r>
       <r>  -11.9434    1.0000 </r>
       <r>  -11.8165    1.0000 </r>
       <r>  -11.8159    1.0000 </r>
       <r>  -11.8116    1.0000 </r>
       <r>  -11.8080    1.0000 </r>
       <r>  -11.8054    1.0000 </r>
       <r>  -11.8045    1.0000 </r>
       <r>  -11.7848    1.0000 </r>
       <r>  -11.7830    1.0000 </r>
       <r>  -11.7793    1.0000 </r>
       <r>  -11.7745    1.0000 </r>
       <r>  -11.6688    1.0000 </r>
       <r>  -11.6687    1.0000 </r>
       <r>  -11.6610    1.0000 </r>
       <r>  -11.6610    1.0000 </r>
       <r>   -8.3632    1.0000 </r>
       <r>   -7.2842    1.0000 </r>
       <r>   -7.2708    1.0000 </r>
       <r>   -6.7937    1.0000 </r>
       <r>   -6.7045    1.0000 </r>
       <r>   -6.6827    1.0000 </r>
       <r>   -6.4382    1.0000 </r>
       <r>   -6.4064    1.0000 </r>
       <r>   -6.3225    1.0000 </r>
       <r>   -6.3099    1.0000 </r>
       <r>   -6.3081    1.0000 </r>
       <r>   -6.3048    1.0000 </r>
       <r>   -6.3003    1.0000 </r>
       <r>   -6.2873    1.0000 </r>
       <r>   -6.2752    1.0000 </r>
       <r>   -6.2729    1.0000 </r>
       <r>   -6.2685    1.0000 </r>
       <r>   -6.2649    1.0000 </r>
       <r>   -6.2159    1.0000 </r>
       <r>   -6.2154    1.0000 </r>
       <r>   -6.2117    1.0000 </r>
       <r>   -6.2078    1.0000 </r>
       <r>   -6.1964    1.0000 </r>
       <r>   -6.1950    1.0000 </r>
       <r>   -6.1593    1.0000 </r>
       <r>   -6.1591    1.0000 </r>
       <r>   -6.1488    1.0000 </r>
       <r>   -6.1488    1.0000 </r>
       <r>   -6.0725    1.0000 </r>
       <r>   -6.0713    1.0000 </r>
       <r>   -5.9374    1.0000 </r>
       <r>   -5.9294    1.0000 </r>
       <r>   -5.9100    1.0000 </r>
       <r>   -5.9025    1.0000 </r>
       <r>   -5.8436    1.0000 </r>
       <r>   -5.7899    1.0000 </r>
       <r>   -5.7816    1.0000 </r>
       <r>   -5.7719    1.0000 </r>
       <r>   -5.7713    1.0000 </r>
       <r>   -5.7690    1.0000 </r>
       <r>   -5.7641    1.0000 </r>
       <r>   -5.7630    1.0000 </r>
       <r>   -5.7584    1.0000 </r>
       <r>   -5.7580    1.0000 </r>
       <r>   -5.7568    1.0000 </r>
       <r>   -5.7490    1.0000 </r>
       <r>   -5.7392    1.0000 </r>
       <r>   -5.6844    1.0000 </r>
       <r>   -5.6542    1.0000 </r>
       <r>   -5.6417    1.0000 </r>
       <r>   -5.6234    1.0000 </r>
       <r>   -5.6233    1.0000 </r>
       <r>   -5.6199    1.0000 </r>
       <r>   -5.6197    1.0000 </r>
       <r>   -5.2287    1.0000 </r>
       <r>   -5.2281    1.0000 </r>
       <r>   -5.2252    1.0000 </r>
       <r>   -5.2240    1.0000 </r>
       <r>   -5.2219    1.0000 </r>
       <r>   -5.2212    1.0000 </r>
       <r>   -5.2191    1.0000 </r>
       <r>   -5.2181    1.0000 </r>
       <r>   -5.2180    1.0000 </r>
       <r>   -5.2175    1.0000 </r>
       <r>   -5.2168    1.0000 </r>
       <r>   -5.2161    1.0000 </r>
       <r>   -5.1147    1.0000 </r>
       <r>   -5.1103    1.0000 </r>
       <r>   -5.0908    1.0000 </r>
       <r>   -5.0906    1.0000 </r>
       <r>   -5.0879    1.0000 </r>
       <r>   -5.0878    1.0000 </r>
       <r>   -5.0875    1.0000 </r>
       <r>   -5.0875    1.0000 </r>
       <r>   -5.0261    1.0000 </r>
       <r>   -4.9212    1.0000 </r>
       <r>   -4.8319    1.0000 </r>
       <r>   -4.6117    1.0000 </r>
       <r>   -4.5542    1.0000 </r>
       <r>   -4.5412    1.0000 </r>
       <r>   -4.4777    1.0000 </r>
       <r>   -4.4739    1.0000 </r>
       <r>   -4.4722    1.0000 </r>
       <r>   -4.4715    1.0000 </r>
       <r>   -4.4706    1.0000 </r>
       <r>   -4.4687    1.0000 </r>
       <r>   -4.4681    1.0000 </r>
       <r>   -4.4679    1.0000 </r>
       <r>   -4.3414    1.0000 </r>
       <r>   -4.3411    1.0000 </r>
       <r>   -4.3409    1.0000 </r>
       <r>   -4.3408    1.0000 </r>
       <r>   -4.3165    1.0000 </r>
       <r>   -4.2890    1.0000 </r>
       <r>   -4.2021    1.0000 </r>
       <r>   -4.0977    1.0000 </r>
       <r>   -4.0897    1.0000 </r>
       <r>   -4.0881    1.0000 </r>
       <r>   -4.0853    1.0000 </r>
       <r>   -4.0838    1.0000 </r>
       <r>   -4.0743    1.0000 </r>
       <r>   -4.0738    1.0000 </r>
       <r>   -4.0707    1.0000 </r>
       <r>   -4.0695    1.0000 </r>
       <r>   -4.0286    1.0000 </r>
       <r>   -3.9503    1.0000 </r>
       <r>   -3.9502    1.0000 </r>
       <r>   -3.9465    1.0000 </r>
       <r>   -3.9465    1.0000 </r>
       <r>   -3.9094    1.0000 </r>
       <r>   -3.8655    1.0000 </r>
       <r>   -3.7859    1.0000 </r>
       <r>   -3.6238    1.0000 </r>
       <r>   -3.6221    1.0000 </r>
       <r>   -3.6161    1.0000 </r>
       <r>   -3.6153    1.0000 </r>
       <r>   -3.6074    1.0000 </r>
       <r>   -3.6022    1.0000 </r>
       <r>   -3.6011    1.0000 </r>
       <r>   -3.5969    1.0000 </r>
       <r>   -3.5952    1.0000 </r>
       <r>   -3.4798    1.0000 </r>
       <r>   -3.4798    1.0000 </r>
       <r>   -3.4785    1.0000 </r>
       <r>   -3.4739    1.0000 </r>
       <r>   -3.4739    1.0000 </r>
       <r>   -3.4691    1.0000 </r>
       <r>   -3.4678    1.0000 </r>
       <r>   -3.4658    1.0000 </r>
       <r>   -3.4655    1.0000 </r>
       <r>   -3.3912    1.0000 </r>
       <r>   -3.3578    1.0000 </r>
       <r>   -3.3469    1.0000 </r>
       <r>   -3.3414    1.0000 </r>
       <r>   -3.3395    1.0000 </r>
       <r>   -3.3383    1.0000 </r>
       <r>   -3.3381    1.0000 </r>
       <r>   -3.1562    1.0000 </r>
       <r>   -3.0974    1.0000 </r>
       <r>   -3.0769    1.0000 </r>
       <r>   -3.0729    1.0000 </r>
       <r>   -3.0718    1.0000 </r>
       <r>   -3.0661    1.0000 </r>
       <r>   -3.0037    1.0000 </r>
       <r>   -2.9998    1.0000 </r>
       <r>   -2.9916    1.0000 </r>
       <r>   -2.9384    1.0000 </r>
       <r>   -2.9377    1.0000 </r>
       <r>   -2.8560    1.0000 </r>
       <r>   -2.8417    1.0000 </r>
       <r>   -2.7699    1.0000 </r>
       <r>   -2.7660    1.0000 </r>
       <r>   -2.7565    1.0000 </r>
       <r>   -2.7266    1.0000 </r>
       <r>   -2.6786    1.0000 </r>
       <r>   -2.6746    1.0000 </r>
       <r>   -2.6723    1.0000 </r>
       <r>   -2.6628    1.0000 </r>
       <r>   -2.6418    1.0000 </r>
       <r>   -2.5487    1.0000 </r>
       <r>   -2.5456    1.0000 </r>
       <r>   -2.5453    1.0000 </r>
       <r>   -2.5176    1.0000 </r>
       <r>   -2.4673    1.0000 </r>
       <r>   -2.3929    1.0000 </r>
       <r>   -2.3872    1.0000 </r>
       <r>   -2.3777    1.0000 </r>
       <r>   -2.3744    1.0000 </r>
       <r>   -2.3731    1.0000 </r>
       <r>   -2.3720    1.0000 </r>
       <r>   -2.3715    1.0000 </r>
       <r>   -2.3705    1.0000 </r>
       <r>   -2.3685    1.0000 </r>
       <r>   -2.3665    1.0000 </r>
       <r>   -2.3659    1.0000 </r>
       <r>   -2.3478    1.0000 </r>
       <r>   -2.2860    1.0000 </r>
       <r>   -2.2629    1.0000 </r>
       <r>   -2.2569    1.0000 </r>
       <r>   -2.2410    1.0000 </r>
       <r>   -2.2406    1.0000 </r>
       <r>   -2.2405    1.0000 </r>
       <r>   -2.2402    1.0000 </r>
       <r>   -2.2374    1.0000 </r>
       <r>   -2.2088    1.0000 </r>
       <r>   -2.2082    1.0000 </r>
       <r>   -2.1999    1.0000 </r>
       <r>   -2.1649    1.0000 </r>
       <r>   -2.1586    1.0000 </r>
       <r>   -2.1444    1.0000 </r>
       <r>   -2.1266    1.0000 </r>
       <r>   -2.0987    1.0000 </r>
       <r>   -2.0934    1.0000 </r>
       <r>   -2.0921    1.0000 </r>
       <r>   -2.0868    1.0000 </r>
       <r>   -2.0864    1.0000 </r>
       <r>   -2.0575    1.0000 </r>
       <r>   -2.0562    1.0000 </r>
       <r>   -2.0508    1.0000 </r>
       <r>   -2.0492    1.0000 </r>
       <r>   -2.0109    1.0000 </r>
       <r>   -1.9651    1.0000 </r>
       <r>   -1.9434    1.0000 </r>
       <r>   -1.9433    1.0000 </r>
       <r>   -1.9372    1.0000 </r>
       <r>   -1.9327    1.0000 </r>
       <r>   -1.9327    1.0000 </r>
       <r>   -1.9307    1.0000 </r>
       <r>   -1.9061    1.0000 </r>
       <r>   -1.9054    1.0000 </r>
       <r>   -1.8960    1.0000 </r>
       <r>   -1.8844    1.0000 </r>
       <r>   -1.8644    1.0000 </r>
       <r>   -1.8611    1.0000 </r>
       <r>   -1.8601    1.0000 </r>
       <r>   -1.8591    1.0000 </r>
       <r>   -1.8582    1.0000 </r>
       <r>   -1.8563    1.0000 </r>
       <r>   -1.8560    1.0000 </r>
       <r>   -1.8521    1.0000 </r>
       <r>   -1.7823    1.0000 </r>
       <r>   -1.7783    1.0000 </r>
       <r>   -1.7776    1.0000 </r>
       <r>   -1.7775    1.0000 </r>
       <r>   -1.7754    1.0000 </r>
       <r>   -1.7739    1.0000 </r>
       <r>   -1.7727    1.0000 </r>
       <r>   -1.7720    1.0000 </r>
       <r>   -1.7456    1.0000 </r>
       <r>   -1.7436    1.0000 </r>
       <r>   -1.7414    1.0000 </r>
       <r>   -1.7411    1.0000 </r>
       <r>   -1.7153    1.0000 </r>
       <r>   -1.7084    1.0000 </r>
       <r>   -1.6885    1.0000 </r>
       <r>   -1.6620    1.0000 </r>
       <r>   -1.6452    1.0000 </r>
       <r>   -1.6452    1.0000 </r>
       <r>   -1.6449    1.0000 </r>
       <r>   -1.6448    1.0000 </r>
       <r>   -1.6098    1.0000 </r>
       <r>   -1.6090    1.0000 </r>
       <r>   -1.5858    1.0000 </r>
       <r>   -1.5851    1.0000 </r>
       <r>   -1.5805    1.0000 </r>
       <r>   -1.5594    1.0000 </r>
       <r>   -1.5535    1.0000 </r>
       <r>   -1.5467    1.0000 </r>
       <r>   -1.4631    1.0000 </r>
       <r>   -1.4490    1.0000 </r>
       <r>   -1.4414    1.0000 </r>
       <r>   -1.4312    1.0000 </r>
       <r>   -1.2633    1.0000 </r>
       <r>   -1.2573    1.0000 </r>
       <r>   -1.2539    1.0000 </r>
       <r>   -1.2349    1.0000 </r>
       <r>   -1.2347    1.0000 </r>
       <r>   -1.2270    1.0000 </r>
       <r>   -1.2243    1.0000 </r>
       <r>   -1.2094    1.0000 </r>
       <r>   -1.2082    1.0000 </r>
       <r>   -1.2064    1.0000 </r>
       <r>   -1.2062    1.0000 </r>
       <r>   -1.1944    1.0000 </r>
       <r>   -1.1875    1.0000 </r>
       <r>   -1.1867    1.0000 </r>
       <r>   -1.1853    1.0000 </r>
       <r>   -1.1582    1.0000 </r>
       <r>   -1.1200    1.0000 </r>
       <r>   -1.0881    1.0000 </r>
       <r>   -1.0879    1.0000 </r>
       <r>   -1.0823    1.0000 </r>
       <r>   -1.0822    1.0000 </r>
       <r>   -1.0562    1.0000 </r>
       <r>   -1.0161    1.0000 </r>
       <r>   -0.9350    1.0000 </r>
       <r>   -0.9294    1.0000 </r>
       <r>   -0.9164    1.0000 </r>
       <r>   -0.9103    1.0000 </r>
       <r>   -0.9087    1.0000 </r>
       <r>   -0.8571    1.0000 </r>
       <r>   -0.8453    1.0000 </r>
       <r>   -0.8354    1.0000 </r>
       <r>   -0.7768    1.0000 </r>
       <r>   -0.7324    1.0000 </r>
       <r>   -0.7082    1.0000 </r>
       <r>   -0.7056    1.0000 </r>
       <r>   -0.6561    1.0000 </r>
       <r>   -0.6386    1.0000 </r>
       <r>   -0.5970    1.0000 </r>
       <r>   -0.5954    1.0000 </r>
       <r>   -0.5298    1.0000 </r>
       <r>   -0.5185    1.0000 </r>
       <r>   -0.5172    1.0000 </r>
       <r>   -0.5150    1.0000 </r>
       <r>   -0.5126    1.0000 </r>
       <r>   -0.4626    1.0000 </r>
       <r>   -0.4606    1.0000 </r>
       <r>   -0.4583    1.0000 </r>
       <r>   -0.4566    1.0000 </r>
       <r>   -0.4547    1.0000 </r>
       <r>   -0.4533    1.0000 </r>
       <r>   -0.4514    1.0000 </r>
       <r>   -0.4445    1.0000 </r>
       <r>   -0.4192    1.0000 </r>
       <r>   -0.3835    1.0000 </r>
       <r>   -0.3834    1.0000 </r>
       <r>   -0.3752    1.0000 </r>
       <r>   -0.3512    1.0000 </r>
       <r>   -0.3475    1.0000 </r>
       <r>   -0.3466    1.0000 </r>
       <r>   -0.3445    1.0000 </r>
       <r>   -0.3266    1.0000 </r>
       <r>   -0.3260    1.0000 </r>
       <r>   -0.3258    1.0000 </r>
       <r>   -0.3255    1.0000 </r>
       <r>   -0.2798    1.0000 </r>
       <r>   -0.2651    1.0000 </r>
       <r>   -0.2641    1.0000 </r>
       <r>   -0.2576    1.0000 </r>
       <r>   -0.2558    1.0000 </r>
       <r>   -0.2544    1.0000 </r>
       <r>   -0.2523    1.0000 </r>
       <r>   -0.2250    1.0000 </r>
       <r>   -0.2243    1.0000 </r>
       <r>   -0.2185    1.0000 </r>
       <r>   -0.2141    1.0000 </r>
       <r>   -0.1410    1.0000 </r>
       <r>   -0.1407    1.0000 </r>
       <r>   -0.0465    1.0000 </r>
       <r>   -0.0096    1.0000 </r>
       <r>    0.0003    1.0000 </r>
       <r>    0.0080    1.0000 </r>
       <r>    0.0110    1.0000 </r>
       <r>    0.0179    1.0000 </r>
       <r>    0.0190    1.0000 </r>
       <r>    0.0355    1.0000 </r>
       <r>    0.0362    1.0000 </r>
       <r>    0.0494    1.0000 </r>
       <r>    0.1864    1.0000 </r>
       <r>    0.2772    1.0000 </r>
       <r>    0.3163    1.0000 </r>
       <r>    0.3395    1.0000 </r>
       <r>    0.3415    1.0000 </r>
       <r>    0.3444    1.0000 </r>
       <r>    0.3482    1.0000 </r>
       <r>    0.3503    1.0000 </r>
       <r>    0.3942    1.0000 </r>
       <r>    0.4201    1.0000 </r>
       <r>    0.4766    1.0000 </r>
       <r>    0.4773    1.0000 </r>
       <r>    0.4876    1.0000 </r>
       <r>    0.5112    1.0000 </r>
       <r>    0.5533    1.0000 </r>
       <r>    0.5577    1.0000 </r>
       <r>    0.5659    1.0000 </r>
       <r>    0.5774    1.0000 </r>
       <r>    0.5861    1.0000 </r>
       <r>    0.5883    1.0000 </r>
       <r>    0.6152    1.0000 </r>
       <r>    0.6302    1.0000 </r>
       <r>    0.6526    1.0000 </r>
       <r>    0.6937    1.0000 </r>
       <r>    0.7036    1.0000 </r>
       <r>    0.7260    1.0000 </r>
       <r>    0.7293    1.0000 </r>
       <r>    0.8535    1.0000 </r>
       <r>    0.8551    1.0000 </r>
       <r>    0.8568    1.0000 </r>
       <r>    0.8623    1.0000 </r>
       <r>    0.8647    1.0000 </r>
       <r>    0.8651    1.0000 </r>
       <r>    0.8661    1.0000 </r>
       <r>    0.8742    1.0000 </r>
       <r>    0.8747    1.0000 </r>
       <r>    0.8754    1.0000 </r>
       <r>    0.8846    1.0000 </r>
       <r>    0.8904    1.0000 </r>
       <r>    0.8941    1.0000 </r>
       <r>    0.8947    1.0000 </r>
       <r>    0.9046    1.0000 </r>
       <r>    0.9059    1.0000 </r>
       <r>    0.9934    1.0000 </r>
       <r>    1.0031    1.0000 </r>
       <r>    1.0579    1.0000 </r>
       <r>    1.0655    1.0000 </r>
       <r>    1.0778    1.0000 </r>
       <r>    1.0781    1.0000 </r>
       <r>    1.0925    1.0000 </r>
       <r>    1.0941    1.0000 </r>
       <r>    1.1013    1.0000 </r>
       <r>    1.1086    1.0000 </r>
       <r>    1.1111    1.0000 </r>
       <r>    1.2445    1.0000 </r>
       <r>    1.2588    1.0000 </r>
       <r>    1.3045    1.0000 </r>
       <r>    1.4335    1.0000 </r>
       <r>    1.4464    1.0000 </r>
       <r>    1.4572    1.0000 </r>
       <r>    1.4622    1.0000 </r>
       <r>    1.5916    1.0000 </r>
       <r>    1.5996    1.0000 </r>
       <r>    1.6024    1.0000 </r>
       <r>    1.6057    1.0000 </r>
       <r>    1.6139    1.0000 </r>
       <r>    1.6224    1.0000 </r>
       <r>    1.6522    1.0000 </r>
       <r>    1.6658    1.0000 </r>
       <r>    1.7134    1.0000 </r>
       <r>    1.7153    1.0000 </r>
       <r>    1.7671    1.0000 </r>
       <r>    1.7729    1.0000 </r>
       <r>    1.8437    1.0000 </r>
       <r>    1.8504    1.0000 </r>
       <r>    1.8533    1.0000 </r>
       <r>    1.8623    1.0000 </r>
       <r>    1.8659    1.0000 </r>
       <r>    1.8707    1.0000 </r>
       <r>    1.8783    1.0000 </r>
       <r>    1.8809    1.0000 </r>
       <r>    1.9868    1.0000 </r>
       <r>    2.0018    1.0000 </r>
       <r>    2.1865    1.0000 </r>
       <r>    2.1908    1.0000 </r>
       <r>    2.1963    1.0000 </r>
       <r>    2.2000    1.0000 </r>
       <r>    2.2055    1.0000 </r>
       <r>    2.2094    1.0000 </r>
       <r>    2.3787    1.0000 </r>
       <r>    2.3808    1.0000 </r>
       <r>    2.3893    1.0000 </r>
       <r>    2.3901    1.0000 </r>
       <r>    4.6560    1.0000 </r>
       <r>    5.9201    0.0000 </r>
       <r>    6.6054    0.0000 </r>
       <r>    6.6227    0.0000 </r>
       <r>    6.6276    0.0000 </r>
       <r>    6.8745    0.0000 </r>
       <r>    6.9356    0.0000 </r>
       <r>    7.0004    0.0000 </r>
       <r>    7.0145    0.0000 </r>
       <r>    7.0436    0.0000 </r>
       <r>    7.0542    0.0000 </r>
       <r>    7.0680    0.0000 </r>
       <r>    7.0801    0.0000 </r>
       <r>    7.1067    0.0000 </r>
       <r>    7.1140    0.0000 </r>
       <r>    7.1462    0.0000 </r>
       <r>    7.1479    0.0000 </r>
       <r>    7.2301    0.0000 </r>
       <r>    7.2641    0.0000 </r>
       <r>    7.2647    0.0000 </r>
       <r>    7.2866    0.0000 </r>
       <r>    7.2868    0.0000 </r>
       <r>    7.4239    0.0000 </r>
       <r>    7.4495    0.0000 </r>
       <r>    7.4572    0.0000 </r>
       <r>    7.4753    0.0000 </r>
       <r>    7.4831    0.0000 </r>
       <r>    7.5665    0.0000 </r>
       <r>    7.5717    0.0000 </r>
       <r>    7.6138    0.0000 </r>
       <r>    7.6453    0.0000 </r>
       <r>    7.6607    0.0000 </r>
       <r>    7.6647    0.0000 </r>
       <r>    7.6657    0.0000 </r>
       <r>    7.6671    0.0000 </r>
       <r>    7.6831    0.0000 </r>
       <r>    7.7017    0.0000 </r>
       <r>    7.7313    0.0000 </r>
       <r>    7.7351    0.0000 </r>
       <r>    7.7821    0.0000 </r>
       <r>    7.8445    0.0000 </r>
       <r>    7.8753    0.0000 </r>
       <r>    7.8982    0.0000 </r>
       <r>    7.9692    0.0000 </r>
       <r>    7.9754    0.0000 </r>
       <r>    8.0061    0.0000 </r>
       <r>    8.0075    0.0000 </r>
       <r>    8.0813    0.0000 </r>
       <r>    8.0975    0.0000 </r>
       <r>    8.0990    0.0000 </r>
       <r>    8.1905    0.0000 </r>
       <r>    8.2099    0.0000 </r>
       <r>    8.2339    0.0000 </r>
       <r>    8.2802    0.0000 </r>
       <r>    8.3364    0.0000 </r>
       <r>    8.3381    0.0000 </r>
       <r>    8.3621    0.0000 </r>
       <r>    8.4660    0.0000 </r>
       <r>    8.4801    0.0000 </r>
       <r>    8.4888    0.0000 </r>
       <r>    8.4945    0.0000 </r>
       <r>    8.4967    0.0000 </r>
       <r>    8.5072    0.0000 </r>
       <r>    8.5103    0.0000 </r>
       <r>    8.5108    0.0000 </r>
       <r>    8.5328    0.0000 </r>
       <r>    8.5568    0.0000 </r>
       <r>    8.5630    0.0000 </r>
       <r>    8.6277    0.0000 </r>
       <r>    8.7563    0.0000 </r>
       <r>    8.8113    0.0000 </r>
       <r>    8.8786    0.0000 </r>
       <r>    8.8979    0.0000 </r>
       <r>    8.9155    0.0000 </r>
       <r>    8.9645    0.0000 </r>
       <r>    9.0020    0.0000 </r>
       <r>    9.0082    0.0000 </r>
       <r>    9.0162    0.0000 </r>
       <r>    9.0179    0.0000 </r>
       <r>    9.0218    0.0000 </r>
       <r>    9.0290    0.0000 </r>
       <r>    9.0922    0.0000 </r>
       <r>    9.1314    0.0000 </r>
       <r>    9.1626    0.0000 </r>
       <r>    9.1651    0.0000 </r>
       <r>    9.1771    0.0000 </r>
       <r>    9.2070    0.0000 </r>
       <r>    9.2084    0.0000 </r>
       <r>    9.2100    0.0000 </r>
       <r>    9.3005    0.0000 </r>
       <r>    9.3162    0.0000 </r>
       <r>    9.3992    0.0000 </r>
       <r>    9.4247    0.0000 </r>
       <r>    9.4414    0.0000 </r>
       <r>    9.4462    0.0000 </r>
       <r>    9.5808    0.0000 </r>
       <r>    9.6000    0.0000 </r>
       <r>    9.6026    0.0000 </r>
       <r>    9.6065    0.0000 </r>
       <r>    9.6074    0.0000 </r>
       <r>    9.6127    0.0000 </r>
       <r>    9.6357    0.0000 </r>
       <r>    9.6713    0.0000 </r>
       <r>    9.7072    0.0000 </r>
       <r>    9.7107    0.0000 </r>
       <r>    9.7289    0.0000 </r>
       <r>    9.7359    0.0000 </r>
       <r>    9.7722    0.0000 </r>
       <r>    9.8160    0.0000 </r>
       <r>    9.8247    0.0000 </r>
       <r>    9.9222    0.0000 </r>
       <r>    9.9243    0.0000 </r>
       <r>    9.9367    0.0000 </r>
       <r>    9.9655    0.0000 </r>
       <r>    9.9681    0.0000 </r>
       <r>   10.0294    0.0000 </r>
       <r>   10.0653    0.0000 </r>
       <r>   10.1006    0.0000 </r>
       <r>   10.1012    0.0000 </r>
       <r>   10.3001    0.0000 </r>
       <r>   10.3390    0.0000 </r>
       <r>   10.4258    0.0000 </r>
       <r>   10.4263    0.0000 </r>
       <r>   10.5245    0.0000 </r>
       <r>   10.5256    0.0000 </r>
       <r>   10.5496    0.0000 </r>
       <r>   10.5526    0.0000 </r>
       <r>   10.8649    0.0000 </r>
       <r>   10.9850    0.0000 </r>
       <r>   11.2068    0.0000 </r>
       <r>   11.2099    0.0000 </r>
       <r>   11.2803    0.0000 </r>
       <r>   11.4027    0.0000 </r>
       <r>   11.4113    0.0000 </r>
       <r>   11.4331    0.0000 </r>
       <r>   11.4635    0.0000 </r>
       <r>   11.4915    0.0000 </r>
       <r>   11.5303    0.0000 </r>
       <r>   11.5756    0.0000 </r>
       <r>   11.5816    0.0000 </r>
       <r>   11.5870    0.0000 </r>
       <r>   11.6002    0.0000 </r>
       <r>   11.6187    0.0000 </r>
       <r>   11.6485    0.0000 </r>
       <r>   11.7079    0.0000 </r>
       <r>   11.7405    0.0000 </r>
       <r>   11.8064    0.0000 </r>
       <r>   11.8668    0.0000 </r>
       <r>   11.9308    0.0000 </r>
       <r>   11.9647    0.0000 </r>
       <r>   11.9950    0.0000 </r>
       <r>   12.0565    0.0000 </r>
      </set>
      <set comment="kpoint 7">
       <r>  -17.2938    1.0000 </r>
       <r>  -15.7755    1.0000 </r>
       <r>  -15.7303    1.0000 </r>
       <r>  -15.4168    1.0000 </r>
       <r>  -15.3048    1.0000 </r>
       <r>  -15.2753    1.0000 </r>
       <r>  -15.2422    1.0000 </r>
       <r>  -15.2053    1.0000 </r>
       <r>  -15.1447    1.0000 </r>
       <r>  -15.0917    1.0000 </r>
       <r>  -15.0614    1.0000 </r>
       <r>  -15.0342    1.0000 </r>
       <r>  -15.0151    1.0000 </r>
       <r>  -14.9856    1.0000 </r>
       <r>  -14.9828    1.0000 </r>
       <r>  -14.9060    1.0000 </r>
       <r>  -14.9009    1.0000 </r>
       <r>  -14.8556    1.0000 </r>
       <r>  -14.7580    1.0000 </r>
       <r>  -14.7574    1.0000 </r>
       <r>  -14.6185    1.0000 </r>
       <r>  -14.5677    1.0000 </r>
       <r>  -14.5519    1.0000 </r>
       <r>  -14.4663    1.0000 </r>
       <r>  -14.4624    1.0000 </r>
       <r>  -14.4604    1.0000 </r>
       <r>  -14.4594    1.0000 </r>
       <r>  -14.4247    1.0000 </r>
       <r>  -14.4014    1.0000 </r>
       <r>  -14.3972    1.0000 </r>
       <r>  -14.3864    1.0000 </r>
       <r>  -14.3434    1.0000 </r>
       <r>  -14.2472    1.0000 </r>
       <r>  -14.2454    1.0000 </r>
       <r>  -14.2437    1.0000 </r>
       <r>  -14.2431    1.0000 </r>
       <r>  -14.2073    1.0000 </r>
       <r>  -14.2065    1.0000 </r>
       <r>  -14.1717    1.0000 </r>
       <r>  -14.1496    1.0000 </r>
       <r>  -14.1112    1.0000 </r>
       <r>  -14.0359    1.0000 </r>
       <r>  -13.9977    1.0000 </r>
       <r>  -13.9973    1.0000 </r>
       <r>  -13.9484    1.0000 </r>
       <r>  -13.7880    1.0000 </r>
       <r>  -13.7418    1.0000 </r>
       <r>  -13.7404    1.0000 </r>
       <r>  -13.7131    1.0000 </r>
       <r>  -13.7102    1.0000 </r>
       <r>  -13.7026    1.0000 </r>
       <r>  -13.6823    1.0000 </r>
       <r>  -13.6571    1.0000 </r>
       <r>  -13.6558    1.0000 </r>
       <r>  -13.6046    1.0000 </r>
       <r>  -13.5330    1.0000 </r>
       <r>  -13.5326    1.0000 </r>
       <r>  -13.5189    1.0000 </r>
       <r>  -13.5181    1.0000 </r>
       <r>  -13.5058    1.0000 </r>
       <r>  -13.3597    1.0000 </r>
       <r>  -13.3378    1.0000 </r>
       <r>  -13.2552    1.0000 </r>
       <r>  -13.2233    1.0000 </r>
       <r>  -13.1099    1.0000 </r>
       <r>  -13.0685    1.0000 </r>
       <r>  -13.0638    1.0000 </r>
       <r>  -13.0624    1.0000 </r>
       <r>  -13.0613    1.0000 </r>
       <r>  -13.0330    1.0000 </r>
       <r>  -13.0275    1.0000 </r>
       <r>  -13.0241    1.0000 </r>
       <r>  -13.0159    1.0000 </r>
       <r>  -12.9742    1.0000 </r>
       <r>  -12.9291    1.0000 </r>
       <r>  -12.8934    1.0000 </r>
       <r>  -12.8918    1.0000 </r>
       <r>  -12.8904    1.0000 </r>
       <r>  -12.8888    1.0000 </r>
       <r>  -12.8782    1.0000 </r>
       <r>  -12.8778    1.0000 </r>
       <r>  -12.8772    1.0000 </r>
       <r>  -12.8772    1.0000 </r>
       <r>  -12.8665    1.0000 </r>
       <r>  -12.8580    1.0000 </r>
       <r>  -12.8562    1.0000 </r>
       <r>  -12.8522    1.0000 </r>
       <r>  -12.8506    1.0000 </r>
       <r>  -12.7153    1.0000 </r>
       <r>  -12.7152    1.0000 </r>
       <r>  -12.7148    1.0000 </r>
       <r>  -12.7145    1.0000 </r>
       <r>  -12.6837    1.0000 </r>
       <r>  -12.6099    1.0000 </r>
       <r>  -12.5986    1.0000 </r>
       <r>  -12.5767    1.0000 </r>
       <r>  -12.5729    1.0000 </r>
       <r>  -12.5513    1.0000 </r>
       <r>  -12.5335    1.0000 </r>
       <r>  -12.4986    1.0000 </r>
       <r>  -12.4378    1.0000 </r>
       <r>  -12.4293    1.0000 </r>
       <r>  -12.4247    1.0000 </r>
       <r>  -12.4228    1.0000 </r>
       <r>  -12.3423    1.0000 </r>
       <r>  -12.3384    1.0000 </r>
       <r>  -12.3219    1.0000 </r>
       <r>  -12.3172    1.0000 </r>
       <r>  -12.2463    1.0000 </r>
       <r>  -12.2451    1.0000 </r>
       <r>  -12.2368    1.0000 </r>
       <r>  -12.2326    1.0000 </r>
       <r>  -12.2190    1.0000 </r>
       <r>  -12.2180    1.0000 </r>
       <r>  -12.2081    1.0000 </r>
       <r>  -12.2053    1.0000 </r>
       <r>  -12.1764    1.0000 </r>
       <r>  -12.1763    1.0000 </r>
       <r>  -12.1707    1.0000 </r>
       <r>  -12.1705    1.0000 </r>
       <r>  -12.0958    1.0000 </r>
       <r>  -12.0957    1.0000 </r>
       <r>  -12.0889    1.0000 </r>
       <r>  -12.0872    1.0000 </r>
       <r>  -12.0872    1.0000 </r>
       <r>  -12.0848    1.0000 </r>
       <r>  -11.9510    1.0000 </r>
       <r>  -11.9492    1.0000 </r>
       <r>  -11.9459    1.0000 </r>
       <r>  -11.9439    1.0000 </r>
       <r>  -11.8161    1.0000 </r>
       <r>  -11.8155    1.0000 </r>
       <r>  -11.8081    1.0000 </r>
       <r>  -11.8074    1.0000 </r>
       <r>  -11.8042    1.0000 </r>
       <r>  -11.8035    1.0000 </r>
       <r>  -11.7871    1.0000 </r>
       <r>  -11.7833    1.0000 </r>
       <r>  -11.7808    1.0000 </r>
       <r>  -11.7758    1.0000 </r>
       <r>  -11.6685    1.0000 </r>
       <r>  -11.6683    1.0000 </r>
       <r>  -11.6613    1.0000 </r>
       <r>  -11.6613    1.0000 </r>
       <r>   -8.3632    1.0000 </r>
       <r>   -7.2841    1.0000 </r>
       <r>   -7.2708    1.0000 </r>
       <r>   -6.7938    1.0000 </r>
       <r>   -6.7048    1.0000 </r>
       <r>   -6.6829    1.0000 </r>
       <r>   -6.4380    1.0000 </r>
       <r>   -6.4063    1.0000 </r>
       <r>   -6.3219    1.0000 </r>
       <r>   -6.3089    1.0000 </r>
       <r>   -6.3062    1.0000 </r>
       <r>   -6.3040    1.0000 </r>
       <r>   -6.2995    1.0000 </r>
       <r>   -6.2866    1.0000 </r>
       <r>   -6.2757    1.0000 </r>
       <r>   -6.2747    1.0000 </r>
       <r>   -6.2691    1.0000 </r>
       <r>   -6.2685    1.0000 </r>
       <r>   -6.2161    1.0000 </r>
       <r>   -6.2149    1.0000 </r>
       <r>   -6.2111    1.0000 </r>
       <r>   -6.2084    1.0000 </r>
       <r>   -6.1967    1.0000 </r>
       <r>   -6.1947    1.0000 </r>
       <r>   -6.1589    1.0000 </r>
       <r>   -6.1587    1.0000 </r>
       <r>   -6.1492    1.0000 </r>
       <r>   -6.1491    1.0000 </r>
       <r>   -6.0725    1.0000 </r>
       <r>   -6.0714    1.0000 </r>
       <r>   -5.9352    1.0000 </r>
       <r>   -5.9279    1.0000 </r>
       <r>   -5.9109    1.0000 </r>
       <r>   -5.9036    1.0000 </r>
       <r>   -5.8438    1.0000 </r>
       <r>   -5.7895    1.0000 </r>
       <r>   -5.7819    1.0000 </r>
       <r>   -5.7718    1.0000 </r>
       <r>   -5.7706    1.0000 </r>
       <r>   -5.7676    1.0000 </r>
       <r>   -5.7640    1.0000 </r>
       <r>   -5.7626    1.0000 </r>
       <r>   -5.7594    1.0000 </r>
       <r>   -5.7576    1.0000 </r>
       <r>   -5.7565    1.0000 </r>
       <r>   -5.7500    1.0000 </r>
       <r>   -5.7397    1.0000 </r>
       <r>   -5.6844    1.0000 </r>
       <r>   -5.6543    1.0000 </r>
       <r>   -5.6418    1.0000 </r>
       <r>   -5.6233    1.0000 </r>
       <r>   -5.6231    1.0000 </r>
       <r>   -5.6200    1.0000 </r>
       <r>   -5.6199    1.0000 </r>
       <r>   -5.2289    1.0000 </r>
       <r>   -5.2271    1.0000 </r>
       <r>   -5.2266    1.0000 </r>
       <r>   -5.2249    1.0000 </r>
       <r>   -5.2217    1.0000 </r>
       <r>   -5.2205    1.0000 </r>
       <r>   -5.2193    1.0000 </r>
       <r>   -5.2190    1.0000 </r>
       <r>   -5.2181    1.0000 </r>
       <r>   -5.2177    1.0000 </r>
       <r>   -5.2170    1.0000 </r>
       <r>   -5.2166    1.0000 </r>
       <r>   -5.1147    1.0000 </r>
       <r>   -5.1104    1.0000 </r>
       <r>   -5.0908    1.0000 </r>
       <r>   -5.0907    1.0000 </r>
       <r>   -5.0878    1.0000 </r>
       <r>   -5.0878    1.0000 </r>
       <r>   -5.0876    1.0000 </r>
       <r>   -5.0875    1.0000 </r>
       <r>   -5.0260    1.0000 </r>
       <r>   -4.9211    1.0000 </r>
       <r>   -4.8319    1.0000 </r>
       <r>   -4.6116    1.0000 </r>
       <r>   -4.5543    1.0000 </r>
       <r>   -4.5412    1.0000 </r>
       <r>   -4.4752    1.0000 </r>
       <r>   -4.4744    1.0000 </r>
       <r>   -4.4723    1.0000 </r>
       <r>   -4.4717    1.0000 </r>
       <r>   -4.4704    1.0000 </r>
       <r>   -4.4691    1.0000 </r>
       <r>   -4.4685    1.0000 </r>
       <r>   -4.4665    1.0000 </r>
       <r>   -4.3413    1.0000 </r>
       <r>   -4.3411    1.0000 </r>
       <r>   -4.3409    1.0000 </r>
       <r>   -4.3408    1.0000 </r>
       <r>   -4.3165    1.0000 </r>
       <r>   -4.2890    1.0000 </r>
       <r>   -4.2020    1.0000 </r>
       <r>   -4.0978    1.0000 </r>
       <r>   -4.0883    1.0000 </r>
       <r>   -4.0876    1.0000 </r>
       <r>   -4.0849    1.0000 </r>
       <r>   -4.0833    1.0000 </r>
       <r>   -4.0746    1.0000 </r>
       <r>   -4.0744    1.0000 </r>
       <r>   -4.0714    1.0000 </r>
       <r>   -4.0703    1.0000 </r>
       <r>   -4.0287    1.0000 </r>
       <r>   -3.9502    1.0000 </r>
       <r>   -3.9501    1.0000 </r>
       <r>   -3.9467    1.0000 </r>
       <r>   -3.9466    1.0000 </r>
       <r>   -3.9093    1.0000 </r>
       <r>   -3.8654    1.0000 </r>
       <r>   -3.7857    1.0000 </r>
       <r>   -3.6229    1.0000 </r>
       <r>   -3.6214    1.0000 </r>
       <r>   -3.6154    1.0000 </r>
       <r>   -3.6142    1.0000 </r>
       <r>   -3.6082    1.0000 </r>
       <r>   -3.6031    1.0000 </r>
       <r>   -3.6022    1.0000 </r>
       <r>   -3.5988    1.0000 </r>
       <r>   -3.5970    1.0000 </r>
       <r>   -3.4797    1.0000 </r>
       <r>   -3.4795    1.0000 </r>
       <r>   -3.4783    1.0000 </r>
       <r>   -3.4741    1.0000 </r>
       <r>   -3.4741    1.0000 </r>
       <r>   -3.4682    1.0000 </r>
       <r>   -3.4674    1.0000 </r>
       <r>   -3.4660    1.0000 </r>
       <r>   -3.4651    1.0000 </r>
       <r>   -3.3905    1.0000 </r>
       <r>   -3.3585    1.0000 </r>
       <r>   -3.3472    1.0000 </r>
       <r>   -3.3403    1.0000 </r>
       <r>   -3.3392    1.0000 </r>
       <r>   -3.3382    1.0000 </r>
       <r>   -3.3381    1.0000 </r>
       <r>   -3.1563    1.0000 </r>
       <r>   -3.0973    1.0000 </r>
       <r>   -3.0769    1.0000 </r>
       <r>   -3.0738    1.0000 </r>
       <r>   -3.0717    1.0000 </r>
       <r>   -3.0667    1.0000 </r>
       <r>   -3.0031    1.0000 </r>
       <r>   -3.0001    1.0000 </r>
       <r>   -2.9919    1.0000 </r>
       <r>   -2.9383    1.0000 </r>
       <r>   -2.9377    1.0000 </r>
       <r>   -2.8561    1.0000 </r>
       <r>   -2.8423    1.0000 </r>
       <r>   -2.7700    1.0000 </r>
       <r>   -2.7661    1.0000 </r>
       <r>   -2.7564    1.0000 </r>
       <r>   -2.7266    1.0000 </r>
       <r>   -2.6770    1.0000 </r>
       <r>   -2.6739    1.0000 </r>
       <r>   -2.6723    1.0000 </r>
       <r>   -2.6628    1.0000 </r>
       <r>   -2.6428    1.0000 </r>
       <r>   -2.5488    1.0000 </r>
       <r>   -2.5456    1.0000 </r>
       <r>   -2.5452    1.0000 </r>
       <r>   -2.5177    1.0000 </r>
       <r>   -2.4673    1.0000 </r>
       <r>   -2.3930    1.0000 </r>
       <r>   -2.3874    1.0000 </r>
       <r>   -2.3774    1.0000 </r>
       <r>   -2.3750    1.0000 </r>
       <r>   -2.3739    1.0000 </r>
       <r>   -2.3726    1.0000 </r>
       <r>   -2.3713    1.0000 </r>
       <r>   -2.3710    1.0000 </r>
       <r>   -2.3686    1.0000 </r>
       <r>   -2.3685    1.0000 </r>
       <r>   -2.3665    1.0000 </r>
       <r>   -2.3475    1.0000 </r>
       <r>   -2.2860    1.0000 </r>
       <r>   -2.2635    1.0000 </r>
       <r>   -2.2568    1.0000 </r>
       <r>   -2.2410    1.0000 </r>
       <r>   -2.2406    1.0000 </r>
       <r>   -2.2405    1.0000 </r>
       <r>   -2.2403    1.0000 </r>
       <r>   -2.2374    1.0000 </r>
       <r>   -2.2083    1.0000 </r>
       <r>   -2.2083    1.0000 </r>
       <r>   -2.1998    1.0000 </r>
       <r>   -2.1648    1.0000 </r>
       <r>   -2.1586    1.0000 </r>
       <r>   -2.1439    1.0000 </r>
       <r>   -2.1262    1.0000 </r>
       <r>   -2.0990    1.0000 </r>
       <r>   -2.0919    1.0000 </r>
       <r>   -2.0909    1.0000 </r>
       <r>   -2.0862    1.0000 </r>
       <r>   -2.0854    1.0000 </r>
       <r>   -2.0584    1.0000 </r>
       <r>   -2.0570    1.0000 </r>
       <r>   -2.0516    1.0000 </r>
       <r>   -2.0504    1.0000 </r>
       <r>   -2.0103    1.0000 </r>
       <r>   -1.9643    1.0000 </r>
       <r>   -1.9430    1.0000 </r>
       <r>   -1.9430    1.0000 </r>
       <r>   -1.9366    1.0000 </r>
       <r>   -1.9331    1.0000 </r>
       <r>   -1.9330    1.0000 </r>
       <r>   -1.9311    1.0000 </r>
       <r>   -1.9067    1.0000 </r>
       <r>   -1.9053    1.0000 </r>
       <r>   -1.8962    1.0000 </r>
       <r>   -1.8827    1.0000 </r>
       <r>   -1.8644    1.0000 </r>
       <r>   -1.8618    1.0000 </r>
       <r>   -1.8597    1.0000 </r>
       <r>   -1.8588    1.0000 </r>
       <r>   -1.8575    1.0000 </r>
       <r>   -1.8567    1.0000 </r>
       <r>   -1.8560    1.0000 </r>
       <r>   -1.8527    1.0000 </r>
       <r>   -1.7808    1.0000 </r>
       <r>   -1.7785    1.0000 </r>
       <r>   -1.7775    1.0000 </r>
       <r>   -1.7771    1.0000 </r>
       <r>   -1.7749    1.0000 </r>
       <r>   -1.7738    1.0000 </r>
       <r>   -1.7723    1.0000 </r>
       <r>   -1.7700    1.0000 </r>
       <r>   -1.7456    1.0000 </r>
       <r>   -1.7437    1.0000 </r>
       <r>   -1.7415    1.0000 </r>
       <r>   -1.7411    1.0000 </r>
       <r>   -1.7153    1.0000 </r>
       <r>   -1.7084    1.0000 </r>
       <r>   -1.6884    1.0000 </r>
       <r>   -1.6616    1.0000 </r>
       <r>   -1.6452    1.0000 </r>
       <r>   -1.6450    1.0000 </r>
       <r>   -1.6449    1.0000 </r>
       <r>   -1.6449    1.0000 </r>
       <r>   -1.6102    1.0000 </r>
       <r>   -1.6085    1.0000 </r>
       <r>   -1.5861    1.0000 </r>
       <r>   -1.5838    1.0000 </r>
       <r>   -1.5796    1.0000 </r>
       <r>   -1.5597    1.0000 </r>
       <r>   -1.5549    1.0000 </r>
       <r>   -1.5499    1.0000 </r>
       <r>   -1.4634    1.0000 </r>
       <r>   -1.4498    1.0000 </r>
       <r>   -1.4410    1.0000 </r>
       <r>   -1.4316    1.0000 </r>
       <r>   -1.2639    1.0000 </r>
       <r>   -1.2560    1.0000 </r>
       <r>   -1.2531    1.0000 </r>
       <r>   -1.2356    1.0000 </r>
       <r>   -1.2350    1.0000 </r>
       <r>   -1.2244    1.0000 </r>
       <r>   -1.2239    1.0000 </r>
       <r>   -1.2099    1.0000 </r>
       <r>   -1.2081    1.0000 </r>
       <r>   -1.2064    1.0000 </r>
       <r>   -1.2052    1.0000 </r>
       <r>   -1.1946    1.0000 </r>
       <r>   -1.1879    1.0000 </r>
       <r>   -1.1869    1.0000 </r>
       <r>   -1.1860    1.0000 </r>
       <r>   -1.1592    1.0000 </r>
       <r>   -1.1201    1.0000 </r>
       <r>   -1.0879    1.0000 </r>
       <r>   -1.0877    1.0000 </r>
       <r>   -1.0825    1.0000 </r>
       <r>   -1.0824    1.0000 </r>
       <r>   -1.0562    1.0000 </r>
       <r>   -1.0159    1.0000 </r>
       <r>   -0.9340    1.0000 </r>
       <r>   -0.9296    1.0000 </r>
       <r>   -0.9155    1.0000 </r>
       <r>   -0.9108    1.0000 </r>
       <r>   -0.9089    1.0000 </r>
       <r>   -0.8570    1.0000 </r>
       <r>   -0.8453    1.0000 </r>
       <r>   -0.8355    1.0000 </r>
       <r>   -0.7765    1.0000 </r>
       <r>   -0.7325    1.0000 </r>
       <r>   -0.7085    1.0000 </r>
       <r>   -0.7058    1.0000 </r>
       <r>   -0.6565    1.0000 </r>
       <r>   -0.6388    1.0000 </r>
       <r>   -0.5975    1.0000 </r>
       <r>   -0.5948    1.0000 </r>
       <r>   -0.5304    1.0000 </r>
       <r>   -0.5195    1.0000 </r>
       <r>   -0.5177    1.0000 </r>
       <r>   -0.5159    1.0000 </r>
       <r>   -0.5143    1.0000 </r>
       <r>   -0.4610    1.0000 </r>
       <r>   -0.4602    1.0000 </r>
       <r>   -0.4579    1.0000 </r>
       <r>   -0.4565    1.0000 </r>
       <r>   -0.4544    1.0000 </r>
       <r>   -0.4537    1.0000 </r>
       <r>   -0.4514    1.0000 </r>
       <r>   -0.4448    1.0000 </r>
       <r>   -0.4183    1.0000 </r>
       <r>   -0.3835    1.0000 </r>
       <r>   -0.3834    1.0000 </r>
       <r>   -0.3749    1.0000 </r>
       <r>   -0.3515    1.0000 </r>
       <r>   -0.3500    1.0000 </r>
       <r>   -0.3470    1.0000 </r>
       <r>   -0.3464    1.0000 </r>
       <r>   -0.3266    1.0000 </r>
       <r>   -0.3260    1.0000 </r>
       <r>   -0.3258    1.0000 </r>
       <r>   -0.3255    1.0000 </r>
       <r>   -0.2800    1.0000 </r>
       <r>   -0.2644    1.0000 </r>
       <r>   -0.2635    1.0000 </r>
       <r>   -0.2580    1.0000 </r>
       <r>   -0.2560    1.0000 </r>
       <r>   -0.2552    1.0000 </r>
       <r>   -0.2529    1.0000 </r>
       <r>   -0.2250    1.0000 </r>
       <r>   -0.2243    1.0000 </r>
       <r>   -0.2179    1.0000 </r>
       <r>   -0.2135    1.0000 </r>
       <r>   -0.1416    1.0000 </r>
       <r>   -0.1407    1.0000 </r>
       <r>   -0.0466    1.0000 </r>
       <r>   -0.0089    1.0000 </r>
       <r>    0.0009    1.0000 </r>
       <r>    0.0095    1.0000 </r>
       <r>    0.0113    1.0000 </r>
       <r>    0.0168    1.0000 </r>
       <r>    0.0195    1.0000 </r>
       <r>    0.0343    1.0000 </r>
       <r>    0.0356    1.0000 </r>
       <r>    0.0499    1.0000 </r>
       <r>    0.1869    1.0000 </r>
       <r>    0.2769    1.0000 </r>
       <r>    0.3160    1.0000 </r>
       <r>    0.3394    1.0000 </r>
       <r>    0.3438    1.0000 </r>
       <r>    0.3459    1.0000 </r>
       <r>    0.3479    1.0000 </r>
       <r>    0.3501    1.0000 </r>
       <r>    0.3947    1.0000 </r>
       <r>    0.4204    1.0000 </r>
       <r>    0.4766    1.0000 </r>
       <r>    0.4772    1.0000 </r>
       <r>    0.4880    1.0000 </r>
       <r>    0.5103    1.0000 </r>
       <r>    0.5571    1.0000 </r>
       <r>    0.5586    1.0000 </r>
       <r>    0.5656    1.0000 </r>
       <r>    0.5774    1.0000 </r>
       <r>    0.5872    1.0000 </r>
       <r>    0.5888    1.0000 </r>
       <r>    0.6149    1.0000 </r>
       <r>    0.6294    1.0000 </r>
       <r>    0.6517    1.0000 </r>
       <r>    0.6941    1.0000 </r>
       <r>    0.7033    1.0000 </r>
       <r>    0.7276    1.0000 </r>
       <r>    0.7294    1.0000 </r>
       <r>    0.8536    1.0000 </r>
       <r>    0.8551    1.0000 </r>
       <r>    0.8568    1.0000 </r>
       <r>    0.8624    1.0000 </r>
       <r>    0.8644    1.0000 </r>
       <r>    0.8654    1.0000 </r>
       <r>    0.8656    1.0000 </r>
       <r>    0.8740    1.0000 </r>
       <r>    0.8749    1.0000 </r>
       <r>    0.8758    1.0000 </r>
       <r>    0.8837    1.0000 </r>
       <r>    0.8859    1.0000 </r>
       <r>    0.8938    1.0000 </r>
       <r>    0.8940    1.0000 </r>
       <r>    0.9044    1.0000 </r>
       <r>    0.9059    1.0000 </r>
       <r>    0.9937    1.0000 </r>
       <r>    1.0028    1.0000 </r>
       <r>    1.0578    1.0000 </r>
       <r>    1.0655    1.0000 </r>
       <r>    1.0770    1.0000 </r>
       <r>    1.0783    1.0000 </r>
       <r>    1.0942    1.0000 </r>
       <r>    1.0948    1.0000 </r>
       <r>    1.1010    1.0000 </r>
       <r>    1.1086    1.0000 </r>
       <r>    1.1100    1.0000 </r>
       <r>    1.2443    1.0000 </r>
       <r>    1.2590    1.0000 </r>
       <r>    1.3040    1.0000 </r>
       <r>    1.4340    1.0000 </r>
       <r>    1.4464    1.0000 </r>
       <r>    1.4564    1.0000 </r>
       <r>    1.4629    1.0000 </r>
       <r>    1.5921    1.0000 </r>
       <r>    1.6018    1.0000 </r>
       <r>    1.6031    1.0000 </r>
       <r>    1.6052    1.0000 </r>
       <r>    1.6138    1.0000 </r>
       <r>    1.6223    1.0000 </r>
       <r>    1.6521    1.0000 </r>
       <r>    1.6659    1.0000 </r>
       <r>    1.7130    1.0000 </r>
       <r>    1.7134    1.0000 </r>
       <r>    1.7674    1.0000 </r>
       <r>    1.7733    1.0000 </r>
       <r>    1.8435    1.0000 </r>
       <r>    1.8513    1.0000 </r>
       <r>    1.8537    1.0000 </r>
       <r>    1.8626    1.0000 </r>
       <r>    1.8660    1.0000 </r>
       <r>    1.8704    1.0000 </r>
       <r>    1.8785    1.0000 </r>
       <r>    1.8797    1.0000 </r>
       <r>    1.9865    1.0000 </r>
       <r>    2.0013    1.0000 </r>
       <r>    2.1854    1.0000 </r>
       <r>    2.1905    1.0000 </r>
       <r>    2.1966    1.0000 </r>
       <r>    2.1996    1.0000 </r>
       <r>    2.2061    1.0000 </r>
       <r>    2.2102    1.0000 </r>
       <r>    2.3790    1.0000 </r>
       <r>    2.3813    1.0000 </r>
       <r>    2.3888    1.0000 </r>
       <r>    2.3900    1.0000 </r>
       <r>    4.6560    1.0000 </r>
       <r>    5.9201    0.0000 </r>
       <r>    6.6052    0.0000 </r>
       <r>    6.6228    0.0000 </r>
       <r>    6.6277    0.0000 </r>
       <r>    6.8742    0.0000 </r>
       <r>    6.9350    0.0000 </r>
       <r>    7.0011    0.0000 </r>
       <r>    7.0140    0.0000 </r>
       <r>    7.0442    0.0000 </r>
       <r>    7.0540    0.0000 </r>
       <r>    7.0681    0.0000 </r>
       <r>    7.0804    0.0000 </r>
       <r>    7.1069    0.0000 </r>
       <r>    7.1149    0.0000 </r>
       <r>    7.1454    0.0000 </r>
       <r>    7.1467    0.0000 </r>
       <r>    7.2316    0.0000 </r>
       <r>    7.2646    0.0000 </r>
       <r>    7.2655    0.0000 </r>
       <r>    7.2860    0.0000 </r>
       <r>    7.2864    0.0000 </r>
       <r>    7.4228    0.0000 </r>
       <r>    7.4492    0.0000 </r>
       <r>    7.4574    0.0000 </r>
       <r>    7.4751    0.0000 </r>
       <r>    7.4831    0.0000 </r>
       <r>    7.5671    0.0000 </r>
       <r>    7.5722    0.0000 </r>
       <r>    7.6145    0.0000 </r>
       <r>    7.6461    0.0000 </r>
       <r>    7.6606    0.0000 </r>
       <r>    7.6645    0.0000 </r>
       <r>    7.6657    0.0000 </r>
       <r>    7.6669    0.0000 </r>
       <r>    7.6827    0.0000 </r>
       <r>    7.7017    0.0000 </r>
       <r>    7.7325    0.0000 </r>
       <r>    7.7352    0.0000 </r>
       <r>    7.7817    0.0000 </r>
       <r>    7.8437    0.0000 </r>
       <r>    7.8758    0.0000 </r>
       <r>    7.8969    0.0000 </r>
       <r>    7.9695    0.0000 </r>
       <r>    7.9763    0.0000 </r>
       <r>    8.0052    0.0000 </r>
       <r>    8.0066    0.0000 </r>
       <r>    8.0818    0.0000 </r>
       <r>    8.0965    0.0000 </r>
       <r>    8.0989    0.0000 </r>
       <r>    8.1905    0.0000 </r>
       <r>    8.2099    0.0000 </r>
       <r>    8.2339    0.0000 </r>
       <r>    8.2810    0.0000 </r>
       <r>    8.3352    0.0000 </r>
       <r>    8.3378    0.0000 </r>
       <r>    8.3619    0.0000 </r>
       <r>    8.4658    0.0000 </r>
       <r>    8.4799    0.0000 </r>
       <r>    8.4886    0.0000 </r>
       <r>    8.4941    0.0000 </r>
       <r>    8.4967    0.0000 </r>
       <r>    8.5080    0.0000 </r>
       <r>    8.5102    0.0000 </r>
       <r>    8.5106    0.0000 </r>
       <r>    8.5326    0.0000 </r>
       <r>    8.5574    0.0000 </r>
       <r>    8.5635    0.0000 </r>
       <r>    8.6269    0.0000 </r>
       <r>    8.7565    0.0000 </r>
       <r>    8.8113    0.0000 </r>
       <r>    8.8787    0.0000 </r>
       <r>    8.8975    0.0000 </r>
       <r>    8.9158    0.0000 </r>
       <r>    8.9646    0.0000 </r>
       <r>    9.0025    0.0000 </r>
       <r>    9.0081    0.0000 </r>
       <r>    9.0166    0.0000 </r>
       <r>    9.0178    0.0000 </r>
       <r>    9.0220    0.0000 </r>
       <r>    9.0287    0.0000 </r>
       <r>    9.0924    0.0000 </r>
       <r>    9.1313    0.0000 </r>
       <r>    9.1625    0.0000 </r>
       <r>    9.1647    0.0000 </r>
       <r>    9.1778    0.0000 </r>
       <r>    9.2076    0.0000 </r>
       <r>    9.2080    0.0000 </r>
       <r>    9.2105    0.0000 </r>
       <r>    9.3005    0.0000 </r>
       <r>    9.3158    0.0000 </r>
       <r>    9.3992    0.0000 </r>
       <r>    9.4264    0.0000 </r>
       <r>    9.4416    0.0000 </r>
       <r>    9.4458    0.0000 </r>
       <r>    9.5807    0.0000 </r>
       <r>    9.6004    0.0000 </r>
       <r>    9.6030    0.0000 </r>
       <r>    9.6063    0.0000 </r>
       <r>    9.6074    0.0000 </r>
       <r>    9.6125    0.0000 </r>
       <r>    9.6358    0.0000 </r>
       <r>    9.6708    0.0000 </r>
       <r>    9.7067    0.0000 </r>
       <r>    9.7108    0.0000 </r>
       <r>    9.7285    0.0000 </r>
       <r>    9.7366    0.0000 </r>
       <r>    9.7727    0.0000 </r>
       <r>    9.8166    0.0000 </r>
       <r>    9.8249    0.0000 </r>
       <r>    9.9222    0.0000 </r>
       <r>    9.9248    0.0000 </r>
       <r>    9.9366    0.0000 </r>
       <r>    9.9649    0.0000 </r>
       <r>    9.9677    0.0000 </r>
       <r>   10.0293    0.0000 </r>
       <r>   10.0649    0.0000 </r>
       <r>   10.1005    0.0000 </r>
       <r>   10.1009    0.0000 </r>
       <r>   10.3002    0.0000 </r>
       <r>   10.3393    0.0000 </r>
       <r>   10.4247    0.0000 </r>
       <r>   10.4257    0.0000 </r>
       <r>   10.5249    0.0000 </r>
       <r>   10.5261    0.0000 </r>
       <r>   10.5491    0.0000 </r>
       <r>   10.5518    0.0000 </r>
       <r>   10.8618    0.0000 </r>
       <r>   10.9837    0.0000 </r>
       <r>   11.2069    0.0000 </r>
       <r>   11.2130    0.0000 </r>
       <r>   11.2761    0.0000 </r>
       <r>   11.4027    0.0000 </r>
       <r>   11.4126    0.0000 </r>
       <r>   11.4344    0.0000 </r>
       <r>   11.4700    0.0000 </r>
       <r>   11.5009    0.0000 </r>
       <r>   11.5254    0.0000 </r>
       <r>   11.5395    0.0000 </r>
       <r>   11.5762    0.0000 </r>
       <r>   11.5903    0.0000 </r>
       <r>   11.5993    0.0000 </r>
       <r>   11.6099    0.0000 </r>
       <r>   11.6221    0.0000 </r>
       <r>   11.6682    0.0000 </r>
       <r>   11.7443    0.0000 </r>
       <r>   11.7995    0.0000 </r>
       <r>   11.8488    0.0000 </r>
       <r>   11.8731    0.0000 </r>
       <r>   11.9239    0.0000 </r>
       <r>   12.0037    0.0000 </r>
       <r>   12.0327    0.0000 </r>
      </set>
      <set comment="kpoint 8">
       <r>  -17.2938    1.0000 </r>
       <r>  -15.7755    1.0000 </r>
       <r>  -15.7303    1.0000 </r>
       <r>  -15.4164    1.0000 </r>
       <r>  -15.3052    1.0000 </r>
       <r>  -15.2749    1.0000 </r>
       <r>  -15.2427    1.0000 </r>
       <r>  -15.2050    1.0000 </r>
       <r>  -15.1452    1.0000 </r>
       <r>  -15.0920    1.0000 </r>
       <r>  -15.0611    1.0000 </r>
       <r>  -15.0341    1.0000 </r>
       <r>  -15.0154    1.0000 </r>
       <r>  -14.9848    1.0000 </r>
       <r>  -14.9832    1.0000 </r>
       <r>  -14.9064    1.0000 </r>
       <r>  -14.9003    1.0000 </r>
       <r>  -14.8555    1.0000 </r>
       <r>  -14.7581    1.0000 </r>
       <r>  -14.7572    1.0000 </r>
       <r>  -14.6184    1.0000 </r>
       <r>  -14.5678    1.0000 </r>
       <r>  -14.5517    1.0000 </r>
       <r>  -14.4683    1.0000 </r>
       <r>  -14.4617    1.0000 </r>
       <r>  -14.4602    1.0000 </r>
       <r>  -14.4585    1.0000 </r>
       <r>  -14.4262    1.0000 </r>
       <r>  -14.4013    1.0000 </r>
       <r>  -14.3960    1.0000 </r>
       <r>  -14.3860    1.0000 </r>
       <r>  -14.3437    1.0000 </r>
       <r>  -14.2478    1.0000 </r>
       <r>  -14.2454    1.0000 </r>
       <r>  -14.2436    1.0000 </r>
       <r>  -14.2427    1.0000 </r>
       <r>  -14.2076    1.0000 </r>
       <r>  -14.2061    1.0000 </r>
       <r>  -14.1720    1.0000 </r>
       <r>  -14.1488    1.0000 </r>
       <r>  -14.1115    1.0000 </r>
       <r>  -14.0358    1.0000 </r>
       <r>  -13.9976    1.0000 </r>
       <r>  -13.9974    1.0000 </r>
       <r>  -13.9486    1.0000 </r>
       <r>  -13.7882    1.0000 </r>
       <r>  -13.7415    1.0000 </r>
       <r>  -13.7397    1.0000 </r>
       <r>  -13.7135    1.0000 </r>
       <r>  -13.7111    1.0000 </r>
       <r>  -13.7021    1.0000 </r>
       <r>  -13.6812    1.0000 </r>
       <r>  -13.6585    1.0000 </r>
       <r>  -13.6562    1.0000 </r>
       <r>  -13.6048    1.0000 </r>
       <r>  -13.5328    1.0000 </r>
       <r>  -13.5323    1.0000 </r>
       <r>  -13.5191    1.0000 </r>
       <r>  -13.5184    1.0000 </r>
       <r>  -13.5057    1.0000 </r>
       <r>  -13.3596    1.0000 </r>
       <r>  -13.3378    1.0000 </r>
       <r>  -13.2553    1.0000 </r>
       <r>  -13.2231    1.0000 </r>
       <r>  -13.1098    1.0000 </r>
       <r>  -13.0705    1.0000 </r>
       <r>  -13.0627    1.0000 </r>
       <r>  -13.0624    1.0000 </r>
       <r>  -13.0604    1.0000 </r>
       <r>  -13.0346    1.0000 </r>
       <r>  -13.0268    1.0000 </r>
       <r>  -13.0235    1.0000 </r>
       <r>  -13.0157    1.0000 </r>
       <r>  -12.9741    1.0000 </r>
       <r>  -12.9290    1.0000 </r>
       <r>  -12.8936    1.0000 </r>
       <r>  -12.8929    1.0000 </r>
       <r>  -12.8893    1.0000 </r>
       <r>  -12.8888    1.0000 </r>
       <r>  -12.8788    1.0000 </r>
       <r>  -12.8773    1.0000 </r>
       <r>  -12.8772    1.0000 </r>
       <r>  -12.8768    1.0000 </r>
       <r>  -12.8666    1.0000 </r>
       <r>  -12.8578    1.0000 </r>
       <r>  -12.8574    1.0000 </r>
       <r>  -12.8513    1.0000 </r>
       <r>  -12.8505    1.0000 </r>
       <r>  -12.7154    1.0000 </r>
       <r>  -12.7151    1.0000 </r>
       <r>  -12.7147    1.0000 </r>
       <r>  -12.7146    1.0000 </r>
       <r>  -12.6838    1.0000 </r>
       <r>  -12.6094    1.0000 </r>
       <r>  -12.5981    1.0000 </r>
       <r>  -12.5765    1.0000 </r>
       <r>  -12.5726    1.0000 </r>
       <r>  -12.5516    1.0000 </r>
       <r>  -12.5342    1.0000 </r>
       <r>  -12.4987    1.0000 </r>
       <r>  -12.4378    1.0000 </r>
       <r>  -12.4291    1.0000 </r>
       <r>  -12.4246    1.0000 </r>
       <r>  -12.4229    1.0000 </r>
       <r>  -12.3417    1.0000 </r>
       <r>  -12.3389    1.0000 </r>
       <r>  -12.3213    1.0000 </r>
       <r>  -12.3176    1.0000 </r>
       <r>  -12.2458    1.0000 </r>
       <r>  -12.2445    1.0000 </r>
       <r>  -12.2362    1.0000 </r>
       <r>  -12.2322    1.0000 </r>
       <r>  -12.2229    1.0000 </r>
       <r>  -12.2172    1.0000 </r>
       <r>  -12.2085    1.0000 </r>
       <r>  -12.2055    1.0000 </r>
       <r>  -12.1766    1.0000 </r>
       <r>  -12.1761    1.0000 </r>
       <r>  -12.1705    1.0000 </r>
       <r>  -12.1703    1.0000 </r>
       <r>  -12.0957    1.0000 </r>
       <r>  -12.0956    1.0000 </r>
       <r>  -12.0891    1.0000 </r>
       <r>  -12.0876    1.0000 </r>
       <r>  -12.0871    1.0000 </r>
       <r>  -12.0849    1.0000 </r>
       <r>  -11.9512    1.0000 </r>
       <r>  -11.9486    1.0000 </r>
       <r>  -11.9464    1.0000 </r>
       <r>  -11.9436    1.0000 </r>
       <r>  -11.8161    1.0000 </r>
       <r>  -11.8153    1.0000 </r>
       <r>  -11.8072    1.0000 </r>
       <r>  -11.8068    1.0000 </r>
       <r>  -11.8030    1.0000 </r>
       <r>  -11.8029    1.0000 </r>
       <r>  -11.7887    1.0000 </r>
       <r>  -11.7834    1.0000 </r>
       <r>  -11.7812    1.0000 </r>
       <r>  -11.7765    1.0000 </r>
       <r>  -11.6684    1.0000 </r>
       <r>  -11.6682    1.0000 </r>
       <r>  -11.6614    1.0000 </r>
       <r>  -11.6614    1.0000 </r>
       <r>   -8.3632    1.0000 </r>
       <r>   -7.2840    1.0000 </r>
       <r>   -7.2710    1.0000 </r>
       <r>   -6.7937    1.0000 </r>
       <r>   -6.7047    1.0000 </r>
       <r>   -6.6832    1.0000 </r>
       <r>   -6.4379    1.0000 </r>
       <r>   -6.4063    1.0000 </r>
       <r>   -6.3218    1.0000 </r>
       <r>   -6.3085    1.0000 </r>
       <r>   -6.3055    1.0000 </r>
       <r>   -6.3035    1.0000 </r>
       <r>   -6.2990    1.0000 </r>
       <r>   -6.2864    1.0000 </r>
       <r>   -6.2792    1.0000 </r>
       <r>   -6.2739    1.0000 </r>
       <r>   -6.2706    1.0000 </r>
       <r>   -6.2675    1.0000 </r>
       <r>   -6.2161    1.0000 </r>
       <r>   -6.2151    1.0000 </r>
       <r>   -6.2119    1.0000 </r>
       <r>   -6.2073    1.0000 </r>
       <r>   -6.1960    1.0000 </r>
       <r>   -6.1947    1.0000 </r>
       <r>   -6.1588    1.0000 </r>
       <r>   -6.1586    1.0000 </r>
       <r>   -6.1493    1.0000 </r>
       <r>   -6.1493    1.0000 </r>
       <r>   -6.0726    1.0000 </r>
       <r>   -6.0713    1.0000 </r>
       <r>   -5.9345    1.0000 </r>
       <r>   -5.9269    1.0000 </r>
       <r>   -5.9110    1.0000 </r>
       <r>   -5.9036    1.0000 </r>
       <r>   -5.8439    1.0000 </r>
       <r>   -5.7894    1.0000 </r>
       <r>   -5.7820    1.0000 </r>
       <r>   -5.7721    1.0000 </r>
       <r>   -5.7693    1.0000 </r>
       <r>   -5.7678    1.0000 </r>
       <r>   -5.7644    1.0000 </r>
       <r>   -5.7617    1.0000 </r>
       <r>   -5.7600    1.0000 </r>
       <r>   -5.7581    1.0000 </r>
       <r>   -5.7563    1.0000 </r>
       <r>   -5.7505    1.0000 </r>
       <r>   -5.7402    1.0000 </r>
       <r>   -5.6845    1.0000 </r>
       <r>   -5.6542    1.0000 </r>
       <r>   -5.6420    1.0000 </r>
       <r>   -5.6232    1.0000 </r>
       <r>   -5.6231    1.0000 </r>
       <r>   -5.6201    1.0000 </r>
       <r>   -5.6199    1.0000 </r>
       <r>   -5.2306    1.0000 </r>
       <r>   -5.2281    1.0000 </r>
       <r>   -5.2259    1.0000 </r>
       <r>   -5.2244    1.0000 </r>
       <r>   -5.2225    1.0000 </r>
       <r>   -5.2210    1.0000 </r>
       <r>   -5.2192    1.0000 </r>
       <r>   -5.2186    1.0000 </r>
       <r>   -5.2180    1.0000 </r>
       <r>   -5.2176    1.0000 </r>
       <r>   -5.2170    1.0000 </r>
       <r>   -5.2168    1.0000 </r>
       <r>   -5.1147    1.0000 </r>
       <r>   -5.1103    1.0000 </r>
       <r>   -5.0907    1.0000 </r>
       <r>   -5.0907    1.0000 </r>
       <r>   -5.0879    1.0000 </r>
       <r>   -5.0879    1.0000 </r>
       <r>   -5.0875    1.0000 </r>
       <r>   -5.0875    1.0000 </r>
       <r>   -5.0261    1.0000 </r>
       <r>   -4.9210    1.0000 </r>
       <r>   -4.8319    1.0000 </r>
       <r>   -4.6117    1.0000 </r>
       <r>   -4.5545    1.0000 </r>
       <r>   -4.5412    1.0000 </r>
       <r>   -4.4768    1.0000 </r>
       <r>   -4.4732    1.0000 </r>
       <r>   -4.4720    1.0000 </r>
       <r>   -4.4710    1.0000 </r>
       <r>   -4.4706    1.0000 </r>
       <r>   -4.4683    1.0000 </r>
       <r>   -4.4679    1.0000 </r>
       <r>   -4.4657    1.0000 </r>
       <r>   -4.3414    1.0000 </r>
       <r>   -4.3411    1.0000 </r>
       <r>   -4.3409    1.0000 </r>
       <r>   -4.3407    1.0000 </r>
       <r>   -4.3163    1.0000 </r>
       <r>   -4.2890    1.0000 </r>
       <r>   -4.2019    1.0000 </r>
       <r>   -4.0978    1.0000 </r>
       <r>   -4.0877    1.0000 </r>
       <r>   -4.0874    1.0000 </r>
       <r>   -4.0844    1.0000 </r>
       <r>   -4.0830    1.0000 </r>
       <r>   -4.0749    1.0000 </r>
       <r>   -4.0743    1.0000 </r>
       <r>   -4.0716    1.0000 </r>
       <r>   -4.0704    1.0000 </r>
       <r>   -4.0288    1.0000 </r>
       <r>   -3.9501    1.0000 </r>
       <r>   -3.9500    1.0000 </r>
       <r>   -3.9468    1.0000 </r>
       <r>   -3.9467    1.0000 </r>
       <r>   -3.9092    1.0000 </r>
       <r>   -3.8654    1.0000 </r>
       <r>   -3.7856    1.0000 </r>
       <r>   -3.6224    1.0000 </r>
       <r>   -3.6196    1.0000 </r>
       <r>   -3.6146    1.0000 </r>
       <r>   -3.6128    1.0000 </r>
       <r>   -3.6094    1.0000 </r>
       <r>   -3.6059    1.0000 </r>
       <r>   -3.6031    1.0000 </r>
       <r>   -3.5997    1.0000 </r>
       <r>   -3.5987    1.0000 </r>
       <r>   -3.4796    1.0000 </r>
       <r>   -3.4795    1.0000 </r>
       <r>   -3.4781    1.0000 </r>
       <r>   -3.4742    1.0000 </r>
       <r>   -3.4741    1.0000 </r>
       <r>   -3.4678    1.0000 </r>
       <r>   -3.4676    1.0000 </r>
       <r>   -3.4654    1.0000 </r>
       <r>   -3.4644    1.0000 </r>
       <r>   -3.3902    1.0000 </r>
       <r>   -3.3588    1.0000 </r>
       <r>   -3.3474    1.0000 </r>
       <r>   -3.3396    1.0000 </r>
       <r>   -3.3393    1.0000 </r>
       <r>   -3.3381    1.0000 </r>
       <r>   -3.3381    1.0000 </r>
       <r>   -3.1563    1.0000 </r>
       <r>   -3.0973    1.0000 </r>
       <r>   -3.0782    1.0000 </r>
       <r>   -3.0736    1.0000 </r>
       <r>   -3.0728    1.0000 </r>
       <r>   -3.0663    1.0000 </r>
       <r>   -3.0035    1.0000 </r>
       <r>   -2.9997    1.0000 </r>
       <r>   -2.9921    1.0000 </r>
       <r>   -2.9384    1.0000 </r>
       <r>   -2.9377    1.0000 </r>
       <r>   -2.8561    1.0000 </r>
       <r>   -2.8435    1.0000 </r>
       <r>   -2.7699    1.0000 </r>
       <r>   -2.7662    1.0000 </r>
       <r>   -2.7564    1.0000 </r>
       <r>   -2.7265    1.0000 </r>
       <r>   -2.6771    1.0000 </r>
       <r>   -2.6739    1.0000 </r>
       <r>   -2.6712    1.0000 </r>
       <r>   -2.6615    1.0000 </r>
       <r>   -2.6424    1.0000 </r>
       <r>   -2.5485    1.0000 </r>
       <r>   -2.5455    1.0000 </r>
       <r>   -2.5452    1.0000 </r>
       <r>   -2.5178    1.0000 </r>
       <r>   -2.4674    1.0000 </r>
       <r>   -2.3929    1.0000 </r>
       <r>   -2.3882    1.0000 </r>
       <r>   -2.3815    1.0000 </r>
       <r>   -2.3743    1.0000 </r>
       <r>   -2.3738    1.0000 </r>
       <r>   -2.3729    1.0000 </r>
       <r>   -2.3715    1.0000 </r>
       <r>   -2.3707    1.0000 </r>
       <r>   -2.3687    1.0000 </r>
       <r>   -2.3686    1.0000 </r>
       <r>   -2.3659    1.0000 </r>
       <r>   -2.3482    1.0000 </r>
       <r>   -2.2857    1.0000 </r>
       <r>   -2.2633    1.0000 </r>
       <r>   -2.2567    1.0000 </r>
       <r>   -2.2412    1.0000 </r>
       <r>   -2.2406    1.0000 </r>
       <r>   -2.2405    1.0000 </r>
       <r>   -2.2402    1.0000 </r>
       <r>   -2.2371    1.0000 </r>
       <r>   -2.2089    1.0000 </r>
       <r>   -2.2081    1.0000 </r>
       <r>   -2.2001    1.0000 </r>
       <r>   -2.1648    1.0000 </r>
       <r>   -2.1585    1.0000 </r>
       <r>   -2.1438    1.0000 </r>
       <r>   -2.1260    1.0000 </r>
       <r>   -2.0991    1.0000 </r>
       <r>   -2.0914    1.0000 </r>
       <r>   -2.0907    1.0000 </r>
       <r>   -2.0859    1.0000 </r>
       <r>   -2.0852    1.0000 </r>
       <r>   -2.0592    1.0000 </r>
       <r>   -2.0562    1.0000 </r>
       <r>   -2.0521    1.0000 </r>
       <r>   -2.0491    1.0000 </r>
       <r>   -2.0101    1.0000 </r>
       <r>   -1.9641    1.0000 </r>
       <r>   -1.9429    1.0000 </r>
       <r>   -1.9429    1.0000 </r>
       <r>   -1.9362    1.0000 </r>
       <r>   -1.9332    1.0000 </r>
       <r>   -1.9332    1.0000 </r>
       <r>   -1.9313    1.0000 </r>
       <r>   -1.9064    1.0000 </r>
       <r>   -1.9059    1.0000 </r>
       <r>   -1.8962    1.0000 </r>
       <r>   -1.8824    1.0000 </r>
       <r>   -1.8665    1.0000 </r>
       <r>   -1.8606    1.0000 </r>
       <r>   -1.8594    1.0000 </r>
       <r>   -1.8587    1.0000 </r>
       <r>   -1.8575    1.0000 </r>
       <r>   -1.8563    1.0000 </r>
       <r>   -1.8552    1.0000 </r>
       <r>   -1.8538    1.0000 </r>
       <r>   -1.7791    1.0000 </r>
       <r>   -1.7782    1.0000 </r>
       <r>   -1.7776    1.0000 </r>
       <r>   -1.7768    1.0000 </r>
       <r>   -1.7746    1.0000 </r>
       <r>   -1.7737    1.0000 </r>
       <r>   -1.7727    1.0000 </r>
       <r>   -1.7690    1.0000 </r>
       <r>   -1.7456    1.0000 </r>
       <r>   -1.7436    1.0000 </r>
       <r>   -1.7415    1.0000 </r>
       <r>   -1.7413    1.0000 </r>
       <r>   -1.7153    1.0000 </r>
       <r>   -1.7085    1.0000 </r>
       <r>   -1.6883    1.0000 </r>
       <r>   -1.6616    1.0000 </r>
       <r>   -1.6452    1.0000 </r>
       <r>   -1.6451    1.0000 </r>
       <r>   -1.6449    1.0000 </r>
       <r>   -1.6448    1.0000 </r>
       <r>   -1.6099    1.0000 </r>
       <r>   -1.6089    1.0000 </r>
       <r>   -1.5863    1.0000 </r>
       <r>   -1.5832    1.0000 </r>
       <r>   -1.5788    1.0000 </r>
       <r>   -1.5600    1.0000 </r>
       <r>   -1.5576    1.0000 </r>
       <r>   -1.5514    1.0000 </r>
       <r>   -1.4641    1.0000 </r>
       <r>   -1.4492    1.0000 </r>
       <r>   -1.4409    1.0000 </r>
       <r>   -1.4317    1.0000 </r>
       <r>   -1.2644    1.0000 </r>
       <r>   -1.2556    1.0000 </r>
       <r>   -1.2527    1.0000 </r>
       <r>   -1.2362    1.0000 </r>
       <r>   -1.2349    1.0000 </r>
       <r>   -1.2248    1.0000 </r>
       <r>   -1.2233    1.0000 </r>
       <r>   -1.2091    1.0000 </r>
       <r>   -1.2077    1.0000 </r>
       <r>   -1.2061    1.0000 </r>
       <r>   -1.2036    1.0000 </r>
       <r>   -1.1942    1.0000 </r>
       <r>   -1.1890    1.0000 </r>
       <r>   -1.1866    1.0000 </r>
       <r>   -1.1856    1.0000 </r>
       <r>   -1.1586    1.0000 </r>
       <r>   -1.1198    1.0000 </r>
       <r>   -1.0877    1.0000 </r>
       <r>   -1.0876    1.0000 </r>
       <r>   -1.0825    1.0000 </r>
       <r>   -1.0825    1.0000 </r>
       <r>   -1.0562    1.0000 </r>
       <r>   -1.0159    1.0000 </r>
       <r>   -0.9340    1.0000 </r>
       <r>   -0.9298    1.0000 </r>
       <r>   -0.9159    1.0000 </r>
       <r>   -0.9099    1.0000 </r>
       <r>   -0.9090    1.0000 </r>
       <r>   -0.8569    1.0000 </r>
       <r>   -0.8453    1.0000 </r>
       <r>   -0.8351    1.0000 </r>
       <r>   -0.7763    1.0000 </r>
       <r>   -0.7326    1.0000 </r>
       <r>   -0.7086    1.0000 </r>
       <r>   -0.7060    1.0000 </r>
       <r>   -0.6565    1.0000 </r>
       <r>   -0.6394    1.0000 </r>
       <r>   -0.5970    1.0000 </r>
       <r>   -0.5954    1.0000 </r>
       <r>   -0.5301    1.0000 </r>
       <r>   -0.5219    1.0000 </r>
       <r>   -0.5179    1.0000 </r>
       <r>   -0.5155    1.0000 </r>
       <r>   -0.5143    1.0000 </r>
       <r>   -0.4607    1.0000 </r>
       <r>   -0.4595    1.0000 </r>
       <r>   -0.4573    1.0000 </r>
       <r>   -0.4552    1.0000 </r>
       <r>   -0.4538    1.0000 </r>
       <r>   -0.4533    1.0000 </r>
       <r>   -0.4519    1.0000 </r>
       <r>   -0.4477    1.0000 </r>
       <r>   -0.4181    1.0000 </r>
       <r>   -0.3835    1.0000 </r>
       <r>   -0.3835    1.0000 </r>
       <r>   -0.3749    1.0000 </r>
       <r>   -0.3562    1.0000 </r>
       <r>   -0.3505    1.0000 </r>
       <r>   -0.3474    1.0000 </r>
       <r>   -0.3465    1.0000 </r>
       <r>   -0.3266    1.0000 </r>
       <r>   -0.3260    1.0000 </r>
       <r>   -0.3258    1.0000 </r>
       <r>   -0.3255    1.0000 </r>
       <r>   -0.2802    1.0000 </r>
       <r>   -0.2659    1.0000 </r>
       <r>   -0.2642    1.0000 </r>
       <r>   -0.2576    1.0000 </r>
       <r>   -0.2558    1.0000 </r>
       <r>   -0.2544    1.0000 </r>
       <r>   -0.2525    1.0000 </r>
       <r>   -0.2250    1.0000 </r>
       <r>   -0.2243    1.0000 </r>
       <r>   -0.2176    1.0000 </r>
       <r>   -0.2133    1.0000 </r>
       <r>   -0.1417    1.0000 </r>
       <r>   -0.1408    1.0000 </r>
       <r>   -0.0466    1.0000 </r>
       <r>   -0.0086    1.0000 </r>
       <r>    0.0010    1.0000 </r>
       <r>    0.0094    1.0000 </r>
       <r>    0.0111    1.0000 </r>
       <r>    0.0182    1.0000 </r>
       <r>    0.0192    1.0000 </r>
       <r>    0.0336    1.0000 </r>
       <r>    0.0353    1.0000 </r>
       <r>    0.0502    1.0000 </r>
       <r>    0.1871    1.0000 </r>
       <r>    0.2761    1.0000 </r>
       <r>    0.3157    1.0000 </r>
       <r>    0.3396    1.0000 </r>
       <r>    0.3439    1.0000 </r>
       <r>    0.3474    1.0000 </r>
       <r>    0.3495    1.0000 </r>
       <r>    0.3511    1.0000 </r>
       <r>    0.3948    1.0000 </r>
       <r>    0.4207    1.0000 </r>
       <r>    0.4766    1.0000 </r>
       <r>    0.4773    1.0000 </r>
       <r>    0.4885    1.0000 </r>
       <r>    0.5095    1.0000 </r>
       <r>    0.5572    1.0000 </r>
       <r>    0.5587    1.0000 </r>
       <r>    0.5655    1.0000 </r>
       <r>    0.5762    1.0000 </r>
       <r>    0.5877    1.0000 </r>
       <r>    0.5937    1.0000 </r>
       <r>    0.6149    1.0000 </r>
       <r>    0.6294    1.0000 </r>
       <r>    0.6524    1.0000 </r>
       <r>    0.6943    1.0000 </r>
       <r>    0.7031    1.0000 </r>
       <r>    0.7286    1.0000 </r>
       <r>    0.7294    1.0000 </r>
       <r>    0.8528    1.0000 </r>
       <r>    0.8556    1.0000 </r>
       <r>    0.8579    1.0000 </r>
       <r>    0.8628    1.0000 </r>
       <r>    0.8646    1.0000 </r>
       <r>    0.8649    1.0000 </r>
       <r>    0.8662    1.0000 </r>
       <r>    0.8745    1.0000 </r>
       <r>    0.8752    1.0000 </r>
       <r>    0.8755    1.0000 </r>
       <r>    0.8778    1.0000 </r>
       <r>    0.8848    1.0000 </r>
       <r>    0.8925    1.0000 </r>
       <r>    0.8947    1.0000 </r>
       <r>    0.9044    1.0000 </r>
       <r>    0.9059    1.0000 </r>
       <r>    0.9938    1.0000 </r>
       <r>    1.0027    1.0000 </r>
       <r>    1.0576    1.0000 </r>
       <r>    1.0651    1.0000 </r>
       <r>    1.0779    1.0000 </r>
       <r>    1.0780    1.0000 </r>
       <r>    1.0948    1.0000 </r>
       <r>    1.0950    1.0000 </r>
       <r>    1.1015    1.0000 </r>
       <r>    1.1074    1.0000 </r>
       <r>    1.1110    1.0000 </r>
       <r>    1.2443    1.0000 </r>
       <r>    1.2584    1.0000 </r>
       <r>    1.3038    1.0000 </r>
       <r>    1.4342    1.0000 </r>
       <r>    1.4467    1.0000 </r>
       <r>    1.4558    1.0000 </r>
       <r>    1.4629    1.0000 </r>
       <r>    1.5928    1.0000 </r>
       <r>    1.6008    1.0000 </r>
       <r>    1.6034    1.0000 </r>
       <r>    1.6055    1.0000 </r>
       <r>    1.6137    1.0000 </r>
       <r>    1.6213    1.0000 </r>
       <r>    1.6521    1.0000 </r>
       <r>    1.6659    1.0000 </r>
       <r>    1.7114    1.0000 </r>
       <r>    1.7153    1.0000 </r>
       <r>    1.7676    1.0000 </r>
       <r>    1.7732    1.0000 </r>
       <r>    1.8446    1.0000 </r>
       <r>    1.8518    1.0000 </r>
       <r>    1.8538    1.0000 </r>
       <r>    1.8618    1.0000 </r>
       <r>    1.8660    1.0000 </r>
       <r>    1.8698    1.0000 </r>
       <r>    1.8778    1.0000 </r>
       <r>    1.8806    1.0000 </r>
       <r>    1.9863    1.0000 </r>
       <r>    2.0017    1.0000 </r>
       <r>    2.1860    1.0000 </r>
       <r>    2.1902    1.0000 </r>
       <r>    2.1957    1.0000 </r>
       <r>    2.1999    1.0000 </r>
       <r>    2.2062    1.0000 </r>
       <r>    2.2099    1.0000 </r>
       <r>    2.3792    1.0000 </r>
       <r>    2.3815    1.0000 </r>
       <r>    2.3887    1.0000 </r>
       <r>    2.3898    1.0000 </r>
       <r>    4.6560    1.0000 </r>
       <r>    5.9201    0.0000 </r>
       <r>    6.6055    0.0000 </r>
       <r>    6.6230    0.0000 </r>
       <r>    6.6273    0.0000 </r>
       <r>    6.8744    0.0000 </r>
       <r>    6.9339    0.0000 </r>
       <r>    7.0014    0.0000 </r>
       <r>    7.0142    0.0000 </r>
       <r>    7.0446    0.0000 </r>
       <r>    7.0543    0.0000 </r>
       <r>    7.0684    0.0000 </r>
       <r>    7.0805    0.0000 </r>
       <r>    7.1072    0.0000 </r>
       <r>    7.1151    0.0000 </r>
       <r>    7.1440    0.0000 </r>
       <r>    7.1465    0.0000 </r>
       <r>    7.2320    0.0000 </r>
       <r>    7.2653    0.0000 </r>
       <r>    7.2656    0.0000 </r>
       <r>    7.2857    0.0000 </r>
       <r>    7.2862    0.0000 </r>
       <r>    7.4224    0.0000 </r>
       <r>    7.4487    0.0000 </r>
       <r>    7.4562    0.0000 </r>
       <r>    7.4751    0.0000 </r>
       <r>    7.4838    0.0000 </r>
       <r>    7.5681    0.0000 </r>
       <r>    7.5724    0.0000 </r>
       <r>    7.6152    0.0000 </r>
       <r>    7.6463    0.0000 </r>
       <r>    7.6605    0.0000 </r>
       <r>    7.6647    0.0000 </r>
       <r>    7.6654    0.0000 </r>
       <r>    7.6669    0.0000 </r>
       <r>    7.6831    0.0000 </r>
       <r>    7.7016    0.0000 </r>
       <r>    7.7334    0.0000 </r>
       <r>    7.7353    0.0000 </r>
       <r>    7.7821    0.0000 </r>
       <r>    7.8418    0.0000 </r>
       <r>    7.8763    0.0000 </r>
       <r>    7.8971    0.0000 </r>
       <r>    7.9698    0.0000 </r>
       <r>    7.9766    0.0000 </r>
       <r>    8.0045    0.0000 </r>
       <r>    8.0062    0.0000 </r>
       <r>    8.0819    0.0000 </r>
       <r>    8.0965    0.0000 </r>
       <r>    8.0977    0.0000 </r>
       <r>    8.1903    0.0000 </r>
       <r>    8.2104    0.0000 </r>
       <r>    8.2339    0.0000 </r>
       <r>    8.2813    0.0000 </r>
       <r>    8.3350    0.0000 </r>
       <r>    8.3362    0.0000 </r>
       <r>    8.3625    0.0000 </r>
       <r>    8.4653    0.0000 </r>
       <r>    8.4795    0.0000 </r>
       <r>    8.4886    0.0000 </r>
       <r>    8.4943    0.0000 </r>
       <r>    8.4967    0.0000 </r>
       <r>    8.5082    0.0000 </r>
       <r>    8.5099    0.0000 </r>
       <r>    8.5105    0.0000 </r>
       <r>    8.5329    0.0000 </r>
       <r>    8.5581    0.0000 </r>
       <r>    8.5637    0.0000 </r>
       <r>    8.6266    0.0000 </r>
       <r>    8.7566    0.0000 </r>
       <r>    8.8115    0.0000 </r>
       <r>    8.8788    0.0000 </r>
       <r>    8.8976    0.0000 </r>
       <r>    8.9156    0.0000 </r>
       <r>    8.9641    0.0000 </r>
       <r>    9.0016    0.0000 </r>
       <r>    9.0086    0.0000 </r>
       <r>    9.0165    0.0000 </r>
       <r>    9.0177    0.0000 </r>
       <r>    9.0218    0.0000 </r>
       <r>    9.0288    0.0000 </r>
       <r>    9.0922    0.0000 </r>
       <r>    9.1312    0.0000 </r>
       <r>    9.1625    0.0000 </r>
       <r>    9.1649    0.0000 </r>
       <r>    9.1770    0.0000 </r>
       <r>    9.2076    0.0000 </r>
       <r>    9.2083    0.0000 </r>
       <r>    9.2117    0.0000 </r>
       <r>    9.3003    0.0000 </r>
       <r>    9.3158    0.0000 </r>
       <r>    9.4003    0.0000 </r>
       <r>    9.4268    0.0000 </r>
       <r>    9.4419    0.0000 </r>
       <r>    9.4461    0.0000 </r>
       <r>    9.5809    0.0000 </r>
       <r>    9.6002    0.0000 </r>
       <r>    9.6035    0.0000 </r>
       <r>    9.6063    0.0000 </r>
       <r>    9.6075    0.0000 </r>
       <r>    9.6122    0.0000 </r>
       <r>    9.6360    0.0000 </r>
       <r>    9.6712    0.0000 </r>
       <r>    9.7067    0.0000 </r>
       <r>    9.7107    0.0000 </r>
       <r>    9.7292    0.0000 </r>
       <r>    9.7361    0.0000 </r>
       <r>    9.7724    0.0000 </r>
       <r>    9.8168    0.0000 </r>
       <r>    9.8250    0.0000 </r>
       <r>    9.9225    0.0000 </r>
       <r>    9.9246    0.0000 </r>
       <r>    9.9366    0.0000 </r>
       <r>    9.9646    0.0000 </r>
       <r>    9.9672    0.0000 </r>
       <r>   10.0296    0.0000 </r>
       <r>   10.0641    0.0000 </r>
       <r>   10.1001    0.0000 </r>
       <r>   10.1010    0.0000 </r>
       <r>   10.3009    0.0000 </r>
       <r>   10.3396    0.0000 </r>
       <r>   10.4240    0.0000 </r>
       <r>   10.4245    0.0000 </r>
       <r>   10.5253    0.0000 </r>
       <r>   10.5264    0.0000 </r>
       <r>   10.5476    0.0000 </r>
       <r>   10.5511    0.0000 </r>
       <r>   10.8625    0.0000 </r>
       <r>   10.9847    0.0000 </r>
       <r>   11.2068    0.0000 </r>
       <r>   11.2116    0.0000 </r>
       <r>   11.2839    0.0000 </r>
       <r>   11.4050    0.0000 </r>
       <r>   11.4179    0.0000 </r>
       <r>   11.4326    0.0000 </r>
       <r>   11.4426    0.0000 </r>
       <r>   11.4852    0.0000 </r>
       <r>   11.5112    0.0000 </r>
       <r>   11.5359    0.0000 </r>
       <r>   11.5760    0.0000 </r>
       <r>   11.5829    0.0000 </r>
       <r>   11.5926    0.0000 </r>
       <r>   11.6121    0.0000 </r>
       <r>   11.6360    0.0000 </r>
       <r>   11.6677    0.0000 </r>
       <r>   11.7018    0.0000 </r>
       <r>   11.7699    0.0000 </r>
       <r>   11.8237    0.0000 </r>
       <r>   11.8712    0.0000 </r>
       <r>   11.9106    0.0000 </r>
       <r>   11.9609    0.0000 </r>
       <r>   12.0534    0.0000 </r>
      </set>
     </set>
     <set comment="spin 2">
      <set comment="kpoint 1">
       <r>  -17.1664    1.0000 </r>
       <r>  -15.6766    1.0000 </r>
       <r>  -15.6764    1.0000 </r>
       <r>  -15.5709    1.0000 </r>
       <r>  -15.3632    1.0000 </r>
       <r>  -15.3443    1.0000 </r>
       <r>  -15.1577    1.0000 </r>
       <r>  -15.1571    1.0000 </r>
       <r>  -15.1527    1.0000 </r>
       <r>  -15.0716    1.0000 </r>
       <r>  -14.8854    1.0000 </r>
       <r>  -14.8723    1.0000 </r>
       <r>  -14.8710    1.0000 </r>
       <r>  -14.8451    1.0000 </r>
       <r>  -14.8211    1.0000 </r>
       <r>  -14.8187    1.0000 </r>
       <r>  -14.8182    1.0000 </r>
       <r>  -14.8168    1.0000 </r>
       <r>  -14.7995    1.0000 </r>
       <r>  -14.7893    1.0000 </r>
       <r>  -14.7870    1.0000 </r>
       <r>  -14.7722    1.0000 </r>
       <r>  -14.7210    1.0000 </r>
       <r>  -14.7206    1.0000 </r>
       <r>  -14.6471    1.0000 </r>
       <r>  -14.6262    1.0000 </r>
       <r>  -14.6252    1.0000 </r>
       <r>  -14.6147    1.0000 </r>
       <r>  -14.6136    1.0000 </r>
       <r>  -14.6055    1.0000 </r>
       <r>  -14.5442    1.0000 </r>
       <r>  -14.2501    1.0000 </r>
       <r>  -14.2499    1.0000 </r>
       <r>  -14.2412    1.0000 </r>
       <r>  -13.9174    1.0000 </r>
       <r>  -13.9163    1.0000 </r>
       <r>  -13.8624    1.0000 </r>
       <r>  -13.8306    1.0000 </r>
       <r>  -13.8296    1.0000 </r>
       <r>  -13.8250    1.0000 </r>
       <r>  -13.8243    1.0000 </r>
       <r>  -13.8136    1.0000 </r>
       <r>  -13.8114    1.0000 </r>
       <r>  -13.8092    1.0000 </r>
       <r>  -13.8080    1.0000 </r>
       <r>  -13.8058    1.0000 </r>
       <r>  -13.8018    1.0000 </r>
       <r>  -13.8017    1.0000 </r>
       <r>  -13.7998    1.0000 </r>
       <r>  -13.7603    1.0000 </r>
       <r>  -13.7550    1.0000 </r>
       <r>  -13.7549    1.0000 </r>
       <r>  -13.6362    1.0000 </r>
       <r>  -13.6355    1.0000 </r>
       <r>  -13.6348    1.0000 </r>
       <r>  -13.6337    1.0000 </r>
       <r>  -13.6335    1.0000 </r>
       <r>  -13.6331    1.0000 </r>
       <r>  -13.3993    1.0000 </r>
       <r>  -13.3969    1.0000 </r>
       <r>  -13.3880    1.0000 </r>
       <r>  -13.3840    1.0000 </r>
       <r>  -13.3821    1.0000 </r>
       <r>  -13.3799    1.0000 </r>
       <r>  -13.3670    1.0000 </r>
       <r>  -13.3663    1.0000 </r>
       <r>  -13.3632    1.0000 </r>
       <r>  -13.3630    1.0000 </r>
       <r>  -13.3622    1.0000 </r>
       <r>  -13.3571    1.0000 </r>
       <r>  -13.2691    1.0000 </r>
       <r>  -13.2690    1.0000 </r>
       <r>  -13.2037    1.0000 </r>
       <r>  -13.2024    1.0000 </r>
       <r>  -13.2019    1.0000 </r>
       <r>  -13.2010    1.0000 </r>
       <r>  -13.1998    1.0000 </r>
       <r>  -13.1993    1.0000 </r>
       <r>  -12.8860    1.0000 </r>
       <r>  -12.8558    1.0000 </r>
       <r>  -12.8555    1.0000 </r>
       <r>  -12.7716    1.0000 </r>
       <r>  -12.6723    1.0000 </r>
       <r>  -12.5885    1.0000 </r>
       <r>  -12.5883    1.0000 </r>
       <r>  -12.5881    1.0000 </r>
       <r>  -12.5328    1.0000 </r>
       <r>  -12.5325    1.0000 </r>
       <r>  -12.4965    1.0000 </r>
       <r>  -12.4964    1.0000 </r>
       <r>  -12.4672    1.0000 </r>
       <r>  -12.3437    1.0000 </r>
       <r>  -12.3389    1.0000 </r>
       <r>  -12.3278    1.0000 </r>
       <r>  -12.3213    1.0000 </r>
       <r>  -12.3175    1.0000 </r>
       <r>  -12.3155    1.0000 </r>
       <r>  -12.3107    1.0000 </r>
       <r>  -12.3086    1.0000 </r>
       <r>  -12.3084    1.0000 </r>
       <r>  -12.3071    1.0000 </r>
       <r>  -12.3006    1.0000 </r>
       <r>  -12.2991    1.0000 </r>
       <r>  -12.2880    1.0000 </r>
       <r>  -12.2847    1.0000 </r>
       <r>  -12.2841    1.0000 </r>
       <r>  -12.2813    1.0000 </r>
       <r>  -12.2772    1.0000 </r>
       <r>  -12.2754    1.0000 </r>
       <r>  -12.2737    1.0000 </r>
       <r>  -12.2728    1.0000 </r>
       <r>  -12.2712    1.0000 </r>
       <r>  -12.2694    1.0000 </r>
       <r>  -12.2619    1.0000 </r>
       <r>  -12.2539    1.0000 </r>
       <r>  -12.1929    1.0000 </r>
       <r>  -12.1901    1.0000 </r>
       <r>  -12.1897    1.0000 </r>
       <r>  -12.1866    1.0000 </r>
       <r>  -12.1848    1.0000 </r>
       <r>  -12.1809    1.0000 </r>
       <r>  -12.1583    1.0000 </r>
       <r>  -12.1580    1.0000 </r>
       <r>  -12.1537    1.0000 </r>
       <r>  -12.1529    1.0000 </r>
       <r>  -12.1515    1.0000 </r>
       <r>  -12.1514    1.0000 </r>
       <r>  -12.1439    1.0000 </r>
       <r>  -12.1435    1.0000 </r>
       <r>  -12.1416    1.0000 </r>
       <r>  -12.1414    1.0000 </r>
       <r>  -12.1390    1.0000 </r>
       <r>  -12.1388    1.0000 </r>
       <r>  -12.0617    1.0000 </r>
       <r>  -12.0616    1.0000 </r>
       <r>  -12.0614    1.0000 </r>
       <r>  -11.9602    1.0000 </r>
       <r>  -11.9602    1.0000 </r>
       <r>  -11.5964    1.0000 </r>
       <r>  -11.5941    1.0000 </r>
       <r>  -11.5938    1.0000 </r>
       <r>  -11.5910    1.0000 </r>
       <r>  -11.4687    1.0000 </r>
       <r>  -11.4687    1.0000 </r>
       <r>   -8.1768    1.0000 </r>
       <r>   -7.2991    1.0000 </r>
       <r>   -7.2989    1.0000 </r>
       <r>   -6.5942    1.0000 </r>
       <r>   -6.5939    1.0000 </r>
       <r>   -6.5338    1.0000 </r>
       <r>   -6.5253    1.0000 </r>
       <r>   -6.5248    1.0000 </r>
       <r>   -6.5242    1.0000 </r>
       <r>   -6.5213    1.0000 </r>
       <r>   -6.5199    1.0000 </r>
       <r>   -6.5033    1.0000 </r>
       <r>   -6.4693    1.0000 </r>
       <r>   -6.3898    1.0000 </r>
       <r>   -6.3898    1.0000 </r>
       <r>   -6.3897    1.0000 </r>
       <r>   -6.3093    1.0000 </r>
       <r>   -6.3092    1.0000 </r>
       <r>   -6.0935    1.0000 </r>
       <r>   -6.0934    1.0000 </r>
       <r>   -6.0275    1.0000 </r>
       <r>   -6.0273    1.0000 </r>
       <r>   -6.0045    1.0000 </r>
       <r>   -5.9865    1.0000 </r>
       <r>   -5.9061    1.0000 </r>
       <r>   -5.9061    1.0000 </r>
       <r>   -5.7148    1.0000 </r>
       <r>   -5.7140    1.0000 </r>
       <r>   -5.7130    1.0000 </r>
       <r>   -5.7121    1.0000 </r>
       <r>   -5.7074    1.0000 </r>
       <r>   -5.7059    1.0000 </r>
       <r>   -5.7044    1.0000 </r>
       <r>   -5.7041    1.0000 </r>
       <r>   -5.6922    1.0000 </r>
       <r>   -5.6902    1.0000 </r>
       <r>   -5.6872    1.0000 </r>
       <r>   -5.6860    1.0000 </r>
       <r>   -5.6837    1.0000 </r>
       <r>   -5.6819    1.0000 </r>
       <r>   -5.6813    1.0000 </r>
       <r>   -5.6798    1.0000 </r>
       <r>   -5.6695    1.0000 </r>
       <r>   -5.6685    1.0000 </r>
       <r>   -5.6685    1.0000 </r>
       <r>   -5.6673    1.0000 </r>
       <r>   -5.6666    1.0000 </r>
       <r>   -5.6665    1.0000 </r>
       <r>   -5.6650    1.0000 </r>
       <r>   -5.6607    1.0000 </r>
       <r>   -5.5747    1.0000 </r>
       <r>   -5.5741    1.0000 </r>
       <r>   -5.5618    1.0000 </r>
       <r>   -5.5610    1.0000 </r>
       <r>   -5.5588    1.0000 </r>
       <r>   -5.5583    1.0000 </r>
       <r>   -5.5582    1.0000 </r>
       <r>   -5.5577    1.0000 </r>
       <r>   -5.5538    1.0000 </r>
       <r>   -5.5537    1.0000 </r>
       <r>   -5.5505    1.0000 </r>
       <r>   -5.5503    1.0000 </r>
       <r>   -5.5470    1.0000 </r>
       <r>   -5.5467    1.0000 </r>
       <r>   -5.5467    1.0000 </r>
       <r>   -5.5465    1.0000 </r>
       <r>   -5.4177    1.0000 </r>
       <r>   -5.4176    1.0000 </r>
       <r>   -5.3587    1.0000 </r>
       <r>   -5.2307    1.0000 </r>
       <r>   -5.1381    1.0000 </r>
       <r>   -5.1380    1.0000 </r>
       <r>   -4.9855    1.0000 </r>
       <r>   -4.9187    1.0000 </r>
       <r>   -4.9186    1.0000 </r>
       <r>   -4.8706    1.0000 </r>
       <r>   -4.7490    1.0000 </r>
       <r>   -4.7489    1.0000 </r>
       <r>   -4.7424    1.0000 </r>
       <r>   -4.7424    1.0000 </r>
       <r>   -4.6191    1.0000 </r>
       <r>   -4.6191    1.0000 </r>
       <r>   -4.4798    1.0000 </r>
       <r>   -4.4780    1.0000 </r>
       <r>   -4.4761    1.0000 </r>
       <r>   -4.4752    1.0000 </r>
       <r>   -4.4746    1.0000 </r>
       <r>   -4.4736    1.0000 </r>
       <r>   -4.4733    1.0000 </r>
       <r>   -4.4725    1.0000 </r>
       <r>   -4.4725    1.0000 </r>
       <r>   -4.4715    1.0000 </r>
       <r>   -4.4691    1.0000 </r>
       <r>   -4.4675    1.0000 </r>
       <r>   -4.3391    1.0000 </r>
       <r>   -4.3389    1.0000 </r>
       <r>   -4.3388    1.0000 </r>
       <r>   -4.3387    1.0000 </r>
       <r>   -4.3387    1.0000 </r>
       <r>   -4.3384    1.0000 </r>
       <r>   -4.1438    1.0000 </r>
       <r>   -4.0360    1.0000 </r>
       <r>   -3.9236    1.0000 </r>
       <r>   -3.9235    1.0000 </r>
       <r>   -3.6229    1.0000 </r>
       <r>   -3.6229    1.0000 </r>
       <r>   -3.5973    1.0000 </r>
       <r>   -3.5852    1.0000 </r>
       <r>   -3.5818    1.0000 </r>
       <r>   -3.5153    1.0000 </r>
       <r>   -3.5151    1.0000 </r>
       <r>   -3.3534    1.0000 </r>
       <r>   -3.3181    1.0000 </r>
       <r>   -3.3179    1.0000 </r>
       <r>   -3.3149    1.0000 </r>
       <r>   -3.3141    1.0000 </r>
       <r>   -3.3030    1.0000 </r>
       <r>   -3.3028    1.0000 </r>
       <r>   -3.2199    1.0000 </r>
       <r>   -3.1818    1.0000 </r>
       <r>   -3.1727    1.0000 </r>
       <r>   -3.1725    1.0000 </r>
       <r>   -3.1702    1.0000 </r>
       <r>   -3.1689    1.0000 </r>
       <r>   -3.1314    1.0000 </r>
       <r>   -3.1051    1.0000 </r>
       <r>   -3.1026    1.0000 </r>
       <r>   -3.1016    1.0000 </r>
       <r>   -3.1010    1.0000 </r>
       <r>   -3.1006    1.0000 </r>
       <r>   -3.0994    1.0000 </r>
       <r>   -3.0936    1.0000 </r>
       <r>   -3.0923    1.0000 </r>
       <r>   -3.0916    1.0000 </r>
       <r>   -3.0911    1.0000 </r>
       <r>   -3.0902    1.0000 </r>
       <r>   -3.0880    1.0000 </r>
       <r>   -3.0489    1.0000 </r>
       <r>   -2.9687    1.0000 </r>
       <r>   -2.9686    1.0000 </r>
       <r>   -2.9686    1.0000 </r>
       <r>   -2.9685    1.0000 </r>
       <r>   -2.9685    1.0000 </r>
       <r>   -2.9684    1.0000 </r>
       <r>   -2.9619    1.0000 </r>
       <r>   -2.9236    1.0000 </r>
       <r>   -2.9235    1.0000 </r>
       <r>   -2.9232    1.0000 </r>
       <r>   -2.9228    1.0000 </r>
       <r>   -2.9173    1.0000 </r>
       <r>   -2.9168    1.0000 </r>
       <r>   -2.9161    1.0000 </r>
       <r>   -2.9160    1.0000 </r>
       <r>   -2.9072    1.0000 </r>
       <r>   -2.9059    1.0000 </r>
       <r>   -2.9008    1.0000 </r>
       <r>   -2.8995    1.0000 </r>
       <r>   -2.8948    1.0000 </r>
       <r>   -2.8908    1.0000 </r>
       <r>   -2.8904    1.0000 </r>
       <r>   -2.8892    1.0000 </r>
       <r>   -2.8792    1.0000 </r>
       <r>   -2.8790    1.0000 </r>
       <r>   -2.8786    1.0000 </r>
       <r>   -2.8778    1.0000 </r>
       <r>   -2.8767    1.0000 </r>
       <r>   -2.8767    1.0000 </r>
       <r>   -2.8756    1.0000 </r>
       <r>   -2.8707    1.0000 </r>
       <r>   -2.7721    1.0000 </r>
       <r>   -2.7720    1.0000 </r>
       <r>   -2.7718    1.0000 </r>
       <r>   -2.7708    1.0000 </r>
       <r>   -2.7676    1.0000 </r>
       <r>   -2.7675    1.0000 </r>
       <r>   -2.7625    1.0000 </r>
       <r>   -2.7623    1.0000 </r>
       <r>   -2.7595    1.0000 </r>
       <r>   -2.7591    1.0000 </r>
       <r>   -2.7585    1.0000 </r>
       <r>   -2.7583    1.0000 </r>
       <r>   -2.5616    1.0000 </r>
       <r>   -2.4531    1.0000 </r>
       <r>   -2.4524    1.0000 </r>
       <r>   -2.3096    1.0000 </r>
       <r>   -2.3073    1.0000 </r>
       <r>   -2.3066    1.0000 </r>
       <r>   -2.2803    1.0000 </r>
       <r>   -2.2788    1.0000 </r>
       <r>   -2.2665    1.0000 </r>
       <r>   -2.2307    1.0000 </r>
       <r>   -2.2292    1.0000 </r>
       <r>   -2.2187    1.0000 </r>
       <r>   -2.2176    1.0000 </r>
       <r>   -2.2121    1.0000 </r>
       <r>   -2.2086    1.0000 </r>
       <r>   -2.0970    1.0000 </r>
       <r>   -2.0881    1.0000 </r>
       <r>   -2.0881    1.0000 </r>
       <r>   -1.9433    1.0000 </r>
       <r>   -1.9433    1.0000 </r>
       <r>   -1.9028    1.0000 </r>
       <r>   -1.9019    1.0000 </r>
       <r>   -1.8933    1.0000 </r>
       <r>   -1.8914    1.0000 </r>
       <r>   -1.8438    1.0000 </r>
       <r>   -1.7799    1.0000 </r>
       <r>   -1.7796    1.0000 </r>
       <r>   -1.7792    1.0000 </r>
       <r>   -1.7149    1.0000 </r>
       <r>   -1.7132    1.0000 </r>
       <r>   -1.7126    1.0000 </r>
       <r>   -1.7117    1.0000 </r>
       <r>   -1.7110    1.0000 </r>
       <r>   -1.7094    1.0000 </r>
       <r>   -1.5807    1.0000 </r>
       <r>   -1.5807    1.0000 </r>
       <r>   -1.5806    1.0000 </r>
       <r>   -1.5474    1.0000 </r>
       <r>   -1.5425    1.0000 </r>
       <r>   -1.5424    1.0000 </r>
       <r>   -1.5215    1.0000 </r>
       <r>   -1.5213    1.0000 </r>
       <r>   -1.5044    1.0000 </r>
       <r>   -1.5013    1.0000 </r>
       <r>   -1.5005    1.0000 </r>
       <r>   -1.4996    1.0000 </r>
       <r>   -1.4990    1.0000 </r>
       <r>   -1.4986    1.0000 </r>
       <r>   -1.4972    1.0000 </r>
       <r>   -1.4959    1.0000 </r>
       <r>   -1.4943    1.0000 </r>
       <r>   -1.4925    1.0000 </r>
       <r>   -1.4922    1.0000 </r>
       <r>   -1.4907    1.0000 </r>
       <r>   -1.4853    1.0000 </r>
       <r>   -1.4850    1.0000 </r>
       <r>   -1.4773    1.0000 </r>
       <r>   -1.3674    1.0000 </r>
       <r>   -1.3673    1.0000 </r>
       <r>   -1.3673    1.0000 </r>
       <r>   -1.3673    1.0000 </r>
       <r>   -1.3672    1.0000 </r>
       <r>   -1.3671    1.0000 </r>
       <r>   -1.3190    1.0000 </r>
       <r>   -1.3183    1.0000 </r>
       <r>   -1.3116    1.0000 </r>
       <r>   -1.2477    1.0000 </r>
       <r>   -1.2392    1.0000 </r>
       <r>   -1.2389    1.0000 </r>
       <r>   -1.1796    1.0000 </r>
       <r>   -1.1773    1.0000 </r>
       <r>   -1.1747    1.0000 </r>
       <r>   -1.1570    1.0000 </r>
       <r>   -1.1518    1.0000 </r>
       <r>   -1.1510    1.0000 </r>
       <r>   -1.1506    1.0000 </r>
       <r>   -1.1504    1.0000 </r>
       <r>   -1.1497    1.0000 </r>
       <r>   -1.1494    1.0000 </r>
       <r>   -1.1490    1.0000 </r>
       <r>   -1.1487    1.0000 </r>
       <r>   -1.1476    1.0000 </r>
       <r>   -1.1474    1.0000 </r>
       <r>   -1.1469    1.0000 </r>
       <r>   -1.1455    1.0000 </r>
       <r>   -1.1409    1.0000 </r>
       <r>   -1.1340    1.0000 </r>
       <r>   -1.1244    1.0000 </r>
       <r>   -1.1160    1.0000 </r>
       <r>   -1.1155    1.0000 </r>
       <r>   -1.1030    1.0000 </r>
       <r>   -1.0195    1.0000 </r>
       <r>   -1.0194    1.0000 </r>
       <r>   -1.0193    1.0000 </r>
       <r>   -1.0191    1.0000 </r>
       <r>   -1.0189    1.0000 </r>
       <r>   -1.0189    1.0000 </r>
       <r>   -0.9611    1.0000 </r>
       <r>   -0.9608    1.0000 </r>
       <r>   -0.9541    1.0000 </r>
       <r>   -0.9470    1.0000 </r>
       <r>   -0.9326    1.0000 </r>
       <r>   -0.9323    1.0000 </r>
       <r>   -0.8688    1.0000 </r>
       <r>   -0.8680    1.0000 </r>
       <r>   -0.8677    1.0000 </r>
       <r>   -0.8610    1.0000 </r>
       <r>   -0.8554    1.0000 </r>
       <r>   -0.8530    1.0000 </r>
       <r>   -0.8508    1.0000 </r>
       <r>   -0.8503    1.0000 </r>
       <r>   -0.8485    1.0000 </r>
       <r>   -0.8482    1.0000 </r>
       <r>   -0.8467    1.0000 </r>
       <r>   -0.8440    1.0000 </r>
       <r>   -0.8438    1.0000 </r>
       <r>   -0.8421    1.0000 </r>
       <r>   -0.8420    1.0000 </r>
       <r>   -0.8358    1.0000 </r>
       <r>   -0.8313    1.0000 </r>
       <r>   -0.8250    1.0000 </r>
       <r>   -0.7250    1.0000 </r>
       <r>   -0.7239    1.0000 </r>
       <r>   -0.7237    1.0000 </r>
       <r>   -0.7191    1.0000 </r>
       <r>   -0.7189    1.0000 </r>
       <r>   -0.7165    1.0000 </r>
       <r>   -0.4500    1.0000 </r>
       <r>   -0.4497    1.0000 </r>
       <r>   -0.3890    1.0000 </r>
       <r>   -0.3437    1.0000 </r>
       <r>   -0.3434    1.0000 </r>
       <r>   -0.3346    1.0000 </r>
       <r>   -0.3335    1.0000 </r>
       <r>   -0.2570    1.0000 </r>
       <r>   -0.2565    1.0000 </r>
       <r>   -0.2564    1.0000 </r>
       <r>   -0.2492    1.0000 </r>
       <r>   -0.2465    1.0000 </r>
       <r>   -0.2444    1.0000 </r>
       <r>   -0.2434    1.0000 </r>
       <r>   -0.2388    1.0000 </r>
       <r>   -0.0876    1.0000 </r>
       <r>   -0.0872    1.0000 </r>
       <r>   -0.0390    1.0000 </r>
       <r>    0.0309    1.0000 </r>
       <r>    0.0321    1.0000 </r>
       <r>    0.0646    1.0000 </r>
       <r>    0.0846    1.0000 </r>
       <r>    0.0882    1.0000 </r>
       <r>    0.0889    1.0000 </r>
       <r>    0.2122    1.0000 </r>
       <r>    0.2147    1.0000 </r>
       <r>    0.2160    1.0000 </r>
       <r>    0.2171    1.0000 </r>
       <r>    0.2185    1.0000 </r>
       <r>    0.2186    1.0000 </r>
       <r>    0.2256    1.0000 </r>
       <r>    0.2261    1.0000 </r>
       <r>    0.2364    1.0000 </r>
       <r>    0.2378    1.0000 </r>
       <r>    0.2381    1.0000 </r>
       <r>    0.2443    1.0000 </r>
       <r>    0.2464    1.0000 </r>
       <r>    0.2476    1.0000 </r>
       <r>    0.3536    1.0000 </r>
       <r>    0.3551    1.0000 </r>
       <r>    0.3554    1.0000 </r>
       <r>    0.3603    1.0000 </r>
       <r>    0.3606    1.0000 </r>
       <r>    0.3628    1.0000 </r>
       <r>    0.4291    1.0000 </r>
       <r>    0.5255    1.0000 </r>
       <r>    0.5664    1.0000 </r>
       <r>    0.5669    1.0000 </r>
       <r>    0.6128    1.0000 </r>
       <r>    0.6144    1.0000 </r>
       <r>    0.6202    1.0000 </r>
       <r>    0.6251    1.0000 </r>
       <r>    0.6347    1.0000 </r>
       <r>    0.6352    1.0000 </r>
       <r>    0.6425    1.0000 </r>
       <r>    0.6428    1.0000 </r>
       <r>    0.6706    1.0000 </r>
       <r>    0.6796    1.0000 </r>
       <r>    0.6834    1.0000 </r>
       <r>    0.6839    1.0000 </r>
       <r>    0.7449    1.0000 </r>
       <r>    0.7449    1.0000 </r>
       <r>    0.8645    1.0000 </r>
       <r>    0.8657    1.0000 </r>
       <r>    0.8764    1.0000 </r>
       <r>    1.0641    1.0000 </r>
       <r>    1.0642    1.0000 </r>
       <r>    1.1308    1.0000 </r>
       <r>    1.1341    1.0000 </r>
       <r>    1.1342    1.0000 </r>
       <r>    1.1378    1.0000 </r>
       <r>    1.1496    1.0000 </r>
       <r>    1.1691    1.0000 </r>
       <r>    1.1963    1.0000 </r>
       <r>    1.1965    1.0000 </r>
       <r>    1.2404    1.0000 </r>
       <r>    1.2464    1.0000 </r>
       <r>    1.2468    1.0000 </r>
       <r>    1.2615    1.0000 </r>
       <r>    1.2615    1.0000 </r>
       <r>    1.2629    1.0000 </r>
       <r>    1.2753    1.0000 </r>
       <r>    1.2760    1.0000 </r>
       <r>    1.2829    1.0000 </r>
       <r>    1.2837    1.0000 </r>
       <r>    1.2848    1.0000 </r>
       <r>    1.2850    1.0000 </r>
       <r>    1.3013    1.0000 </r>
       <r>    1.3026    1.0000 </r>
       <r>    1.3224    1.0000 </r>
       <r>    1.3231    1.0000 </r>
       <r>    1.3318    1.0000 </r>
       <r>    1.3344    1.0000 </r>
       <r>    1.3429    1.0000 </r>
       <r>    1.3454    1.0000 </r>
       <r>    1.4074    1.0000 </r>
       <r>    1.4077    1.0000 </r>
       <r>    1.4114    1.0000 </r>
       <r>    1.4849    1.0000 </r>
       <r>    1.4866    1.0000 </r>
       <r>    1.4876    1.0000 </r>
       <r>    1.8176    1.0000 </r>
       <r>    1.8178    1.0000 </r>
       <r>    1.8468    1.0000 </r>
       <r>    1.8721    1.0000 </r>
       <r>    1.8982    1.0000 </r>
       <r>    1.8987    1.0000 </r>
       <r>    1.9054    1.0000 </r>
       <r>    1.9062    1.0000 </r>
       <r>    1.9295    1.0000 </r>
       <r>    1.9325    1.0000 </r>
       <r>    1.9340    1.0000 </r>
       <r>    1.9366    1.0000 </r>
       <r>    1.9630    1.0000 </r>
       <r>    1.9645    1.0000 </r>
       <r>    1.9673    1.0000 </r>
       <r>    2.0597    1.0000 </r>
       <r>    2.0598    1.0000 </r>
       <r>    2.3356    1.0000 </r>
       <r>    2.3381    1.0000 </r>
       <r>    2.4129    1.0000 </r>
       <r>    2.4139    1.0000 </r>
       <r>    2.5038    1.0000 </r>
       <r>    2.5038    1.0000 </r>
       <r>    5.5523    0.0000 </r>
       <r>    6.5235    0.0000 </r>
       <r>    6.5238    0.0000 </r>
       <r>    6.7097    0.0000 </r>
       <r>    6.7269    0.0000 </r>
       <r>    6.7317    0.0000 </r>
       <r>    7.0224    0.0000 </r>
       <r>    7.0552    0.0000 </r>
       <r>    7.0555    0.0000 </r>
       <r>    7.0871    0.0000 </r>
       <r>    7.0872    0.0000 </r>
       <r>    7.1691    0.0000 </r>
       <r>    7.1702    0.0000 </r>
       <r>    7.1765    0.0000 </r>
       <r>    7.2614    0.0000 </r>
       <r>    7.2861    0.0000 </r>
       <r>    7.2862    0.0000 </r>
       <r>    7.3118    0.0000 </r>
       <r>    7.3559    0.0000 </r>
       <r>    7.3768    0.0000 </r>
       <r>    7.3771    0.0000 </r>
       <r>    7.4035    0.0000 </r>
       <r>    7.4594    0.0000 </r>
       <r>    7.4595    0.0000 </r>
       <r>    7.5454    0.0000 </r>
       <r>    7.5458    0.0000 </r>
       <r>    7.5925    0.0000 </r>
       <r>    7.5969    0.0000 </r>
       <r>    7.5969    0.0000 </r>
       <r>    7.6079    0.0000 </r>
       <r>    7.7346    0.0000 </r>
       <r>    7.7829    0.0000 </r>
       <r>    7.8165    0.0000 </r>
       <r>    7.8169    0.0000 </r>
       <r>    7.8314    0.0000 </r>
       <r>    7.8495    0.0000 </r>
       <r>    7.8508    0.0000 </r>
       <r>    7.8593    0.0000 </r>
       <r>    7.8595    0.0000 </r>
       <r>    7.8747    0.0000 </r>
       <r>    7.8830    0.0000 </r>
       <r>    7.8864    0.0000 </r>
       <r>    7.8866    0.0000 </r>
       <r>    7.8896    0.0000 </r>
       <r>    7.8903    0.0000 </r>
       <r>    7.9078    0.0000 </r>
       <r>    7.9088    0.0000 </r>
       <r>    7.9089    0.0000 </r>
       <r>    7.9145    0.0000 </r>
       <r>    7.9152    0.0000 </r>
       <r>    7.9164    0.0000 </r>
       <r>    7.9216    0.0000 </r>
       <r>    7.9269    0.0000 </r>
       <r>    7.9344    0.0000 </r>
       <r>    7.9355    0.0000 </r>
       <r>    8.0406    0.0000 </r>
       <r>    8.0433    0.0000 </r>
       <r>    8.0440    0.0000 </r>
       <r>    8.3911    0.0000 </r>
       <r>    8.4313    0.0000 </r>
       <r>    8.4320    0.0000 </r>
       <r>    8.4358    0.0000 </r>
       <r>    8.4416    0.0000 </r>
       <r>    8.4426    0.0000 </r>
       <r>    8.4657    0.0000 </r>
       <r>    8.4662    0.0000 </r>
       <r>    8.4809    0.0000 </r>
       <r>    8.4813    0.0000 </r>
       <r>    8.4991    0.0000 </r>
       <r>    8.5036    0.0000 </r>
       <r>    8.5040    0.0000 </r>
       <r>    8.5058    0.0000 </r>
       <r>    8.5379    0.0000 </r>
       <r>    8.5391    0.0000 </r>
       <r>    8.5680    0.0000 </r>
       <r>    8.7658    0.0000 </r>
       <r>    8.9278    0.0000 </r>
       <r>    9.1721    0.0000 </r>
       <r>    9.1722    0.0000 </r>
       <r>    9.2065    0.0000 </r>
       <r>    9.2067    0.0000 </r>
       <r>    9.2295    0.0000 </r>
       <r>    9.3538    0.0000 </r>
       <r>    9.3550    0.0000 </r>
       <r>    9.5126    0.0000 </r>
       <r>    9.5264    0.0000 </r>
       <r>    9.5269    0.0000 </r>
       <r>    9.5291    0.0000 </r>
       <r>    9.5332    0.0000 </r>
       <r>    9.5334    0.0000 </r>
       <r>    9.5357    0.0000 </r>
       <r>    9.5390    0.0000 </r>
       <r>    9.5394    0.0000 </r>
       <r>    9.5407    0.0000 </r>
       <r>    9.6394    0.0000 </r>
       <r>    9.6418    0.0000 </r>
       <r>    9.8934    0.0000 </r>
       <r>    9.9691    0.0000 </r>
       <r>   10.0486    0.0000 </r>
       <r>   10.1230    0.0000 </r>
       <r>   10.1271    0.0000 </r>
       <r>   10.1395    0.0000 </r>
       <r>   10.1397    0.0000 </r>
       <r>   10.1408    0.0000 </r>
       <r>   10.1490    0.0000 </r>
       <r>   10.1605    0.0000 </r>
       <r>   10.1610    0.0000 </r>
       <r>   10.1693    0.0000 </r>
       <r>   10.1722    0.0000 </r>
       <r>   10.2489    0.0000 </r>
       <r>   10.2602    0.0000 </r>
       <r>   10.2985    0.0000 </r>
       <r>   10.2999    0.0000 </r>
       <r>   10.3289    0.0000 </r>
       <r>   10.3298    0.0000 </r>
       <r>   10.3656    0.0000 </r>
       <r>   10.4436    0.0000 </r>
       <r>   10.4459    0.0000 </r>
       <r>   10.4503    0.0000 </r>
       <r>   10.4626    0.0000 </r>
       <r>   10.4633    0.0000 </r>
       <r>   10.4672    0.0000 </r>
       <r>   10.4946    0.0000 </r>
       <r>   10.5149    0.0000 </r>
       <r>   10.5197    0.0000 </r>
       <r>   10.5201    0.0000 </r>
       <r>   10.5208    0.0000 </r>
       <r>   10.5269    0.0000 </r>
       <r>   10.5739    0.0000 </r>
       <r>   10.5747    0.0000 </r>
       <r>   10.5758    0.0000 </r>
       <r>   10.5775    0.0000 </r>
       <r>   10.5827    0.0000 </r>
       <r>   10.5925    0.0000 </r>
       <r>   10.6021    0.0000 </r>
       <r>   10.6062    0.0000 </r>
       <r>   10.6750    0.0000 </r>
       <r>   10.7163    0.0000 </r>
       <r>   10.8238    0.0000 </r>
       <r>   10.8607    0.0000 </r>
       <r>   10.8780    0.0000 </r>
       <r>   10.8813    0.0000 </r>
       <r>   10.8851    0.0000 </r>
       <r>   10.8893    0.0000 </r>
       <r>   10.9066    0.0000 </r>
       <r>   10.9459    0.0000 </r>
       <r>   10.9502    0.0000 </r>
       <r>   10.9578    0.0000 </r>
       <r>   10.9618    0.0000 </r>
       <r>   10.9712    0.0000 </r>
       <r>   12.0583    0.0000 </r>
       <r>   12.2778    0.0000 </r>
      </set>
      <set comment="kpoint 2">
       <r>  -17.1662    1.0000 </r>
       <r>  -15.7431    1.0000 </r>
       <r>  -15.6890    1.0000 </r>
       <r>  -15.4162    1.0000 </r>
       <r>  -15.2947    1.0000 </r>
       <r>  -15.2493    1.0000 </r>
       <r>  -15.2291    1.0000 </r>
       <r>  -15.1904    1.0000 </r>
       <r>  -15.1870    1.0000 </r>
       <r>  -15.0937    1.0000 </r>
       <r>  -15.0549    1.0000 </r>
       <r>  -15.0256    1.0000 </r>
       <r>  -15.0069    1.0000 </r>
       <r>  -14.9549    1.0000 </r>
       <r>  -14.9446    1.0000 </r>
       <r>  -14.9377    1.0000 </r>
       <r>  -14.9358    1.0000 </r>
       <r>  -14.8535    1.0000 </r>
       <r>  -14.7535    1.0000 </r>
       <r>  -14.7522    1.0000 </r>
       <r>  -14.6161    1.0000 </r>
       <r>  -14.5684    1.0000 </r>
       <r>  -14.5439    1.0000 </r>
       <r>  -14.4573    1.0000 </r>
       <r>  -14.4445    1.0000 </r>
       <r>  -14.4433    1.0000 </r>
       <r>  -14.4277    1.0000 </r>
       <r>  -14.4242    1.0000 </r>
       <r>  -14.4191    1.0000 </r>
       <r>  -14.4159    1.0000 </r>
       <r>  -14.4150    1.0000 </r>
       <r>  -14.3458    1.0000 </r>
       <r>  -14.2459    1.0000 </r>
       <r>  -14.2419    1.0000 </r>
       <r>  -14.2397    1.0000 </r>
       <r>  -14.2391    1.0000 </r>
       <r>  -14.2009    1.0000 </r>
       <r>  -14.1910    1.0000 </r>
       <r>  -14.1677    1.0000 </r>
       <r>  -14.1660    1.0000 </r>
       <r>  -14.1140    1.0000 </r>
       <r>  -14.0342    1.0000 </r>
       <r>  -13.9966    1.0000 </r>
       <r>  -13.9944    1.0000 </r>
       <r>  -13.9378    1.0000 </r>
       <r>  -13.7869    1.0000 </r>
       <r>  -13.7361    1.0000 </r>
       <r>  -13.7122    1.0000 </r>
       <r>  -13.7093    1.0000 </r>
       <r>  -13.7078    1.0000 </r>
       <r>  -13.6950    1.0000 </r>
       <r>  -13.6935    1.0000 </r>
       <r>  -13.6735    1.0000 </r>
       <r>  -13.6711    1.0000 </r>
       <r>  -13.5992    1.0000 </r>
       <r>  -13.5313    1.0000 </r>
       <r>  -13.5311    1.0000 </r>
       <r>  -13.5153    1.0000 </r>
       <r>  -13.5145    1.0000 </r>
       <r>  -13.5018    1.0000 </r>
       <r>  -13.3577    1.0000 </r>
       <r>  -13.3335    1.0000 </r>
       <r>  -13.2539    1.0000 </r>
       <r>  -13.2224    1.0000 </r>
       <r>  -13.1128    1.0000 </r>
       <r>  -13.0586    1.0000 </r>
       <r>  -13.0539    1.0000 </r>
       <r>  -13.0508    1.0000 </r>
       <r>  -13.0431    1.0000 </r>
       <r>  -13.0392    1.0000 </r>
       <r>  -13.0364    1.0000 </r>
       <r>  -13.0349    1.0000 </r>
       <r>  -13.0332    1.0000 </r>
       <r>  -12.9742    1.0000 </r>
       <r>  -12.9261    1.0000 </r>
       <r>  -12.8872    1.0000 </r>
       <r>  -12.8846    1.0000 </r>
       <r>  -12.8814    1.0000 </r>
       <r>  -12.8800    1.0000 </r>
       <r>  -12.8763    1.0000 </r>
       <r>  -12.8749    1.0000 </r>
       <r>  -12.8732    1.0000 </r>
       <r>  -12.8712    1.0000 </r>
       <r>  -12.8685    1.0000 </r>
       <r>  -12.8656    1.0000 </r>
       <r>  -12.8634    1.0000 </r>
       <r>  -12.8632    1.0000 </r>
       <r>  -12.8593    1.0000 </r>
       <r>  -12.7158    1.0000 </r>
       <r>  -12.7143    1.0000 </r>
       <r>  -12.7136    1.0000 </r>
       <r>  -12.7135    1.0000 </r>
       <r>  -12.6807    1.0000 </r>
       <r>  -12.6085    1.0000 </r>
       <r>  -12.5930    1.0000 </r>
       <r>  -12.5851    1.0000 </r>
       <r>  -12.5681    1.0000 </r>
       <r>  -12.5534    1.0000 </r>
       <r>  -12.5325    1.0000 </r>
       <r>  -12.4975    1.0000 </r>
       <r>  -12.4352    1.0000 </r>
       <r>  -12.4310    1.0000 </r>
       <r>  -12.4235    1.0000 </r>
       <r>  -12.4186    1.0000 </r>
       <r>  -12.3356    1.0000 </r>
       <r>  -12.3340    1.0000 </r>
       <r>  -12.3277    1.0000 </r>
       <r>  -12.3249    1.0000 </r>
       <r>  -12.2477    1.0000 </r>
       <r>  -12.2409    1.0000 </r>
       <r>  -12.2408    1.0000 </r>
       <r>  -12.2348    1.0000 </r>
       <r>  -12.2149    1.0000 </r>
       <r>  -12.2147    1.0000 </r>
       <r>  -12.2071    1.0000 </r>
       <r>  -12.2059    1.0000 </r>
       <r>  -12.1766    1.0000 </r>
       <r>  -12.1765    1.0000 </r>
       <r>  -12.1697    1.0000 </r>
       <r>  -12.1695    1.0000 </r>
       <r>  -12.0961    1.0000 </r>
       <r>  -12.0958    1.0000 </r>
       <r>  -12.0882    1.0000 </r>
       <r>  -12.0870    1.0000 </r>
       <r>  -12.0856    1.0000 </r>
       <r>  -12.0835    1.0000 </r>
       <r>  -11.9497    1.0000 </r>
       <r>  -11.9478    1.0000 </r>
       <r>  -11.9464    1.0000 </r>
       <r>  -11.9444    1.0000 </r>
       <r>  -11.8160    1.0000 </r>
       <r>  -11.8156    1.0000 </r>
       <r>  -11.8115    1.0000 </r>
       <r>  -11.8065    1.0000 </r>
       <r>  -11.8060    1.0000 </r>
       <r>  -11.8055    1.0000 </r>
       <r>  -11.7838    1.0000 </r>
       <r>  -11.7824    1.0000 </r>
       <r>  -11.7802    1.0000 </r>
       <r>  -11.7750    1.0000 </r>
       <r>  -11.6688    1.0000 </r>
       <r>  -11.6686    1.0000 </r>
       <r>  -11.6610    1.0000 </r>
       <r>  -11.6609    1.0000 </r>
       <r>   -8.1625    1.0000 </r>
       <r>   -7.2500    1.0000 </r>
       <r>   -7.2352    1.0000 </r>
       <r>   -6.7831    1.0000 </r>
       <r>   -6.6993    1.0000 </r>
       <r>   -6.6785    1.0000 </r>
       <r>   -6.4261    1.0000 </r>
       <r>   -6.4022    1.0000 </r>
       <r>   -6.3180    1.0000 </r>
       <r>   -6.3084    1.0000 </r>
       <r>   -6.3063    1.0000 </r>
       <r>   -6.3058    1.0000 </r>
       <r>   -6.2998    1.0000 </r>
       <r>   -6.2841    1.0000 </r>
       <r>   -6.2729    1.0000 </r>
       <r>   -6.2715    1.0000 </r>
       <r>   -6.2705    1.0000 </r>
       <r>   -6.2663    1.0000 </r>
       <r>   -6.2143    1.0000 </r>
       <r>   -6.2131    1.0000 </r>
       <r>   -6.2123    1.0000 </r>
       <r>   -6.2048    1.0000 </r>
       <r>   -6.1977    1.0000 </r>
       <r>   -6.1926    1.0000 </r>
       <r>   -6.1590    1.0000 </r>
       <r>   -6.1589    1.0000 </r>
       <r>   -6.1486    1.0000 </r>
       <r>   -6.1485    1.0000 </r>
       <r>   -6.0723    1.0000 </r>
       <r>   -6.0711    1.0000 </r>
       <r>   -5.9351    1.0000 </r>
       <r>   -5.9313    1.0000 </r>
       <r>   -5.9070    1.0000 </r>
       <r>   -5.9054    1.0000 </r>
       <r>   -5.8363    1.0000 </r>
       <r>   -5.7896    1.0000 </r>
       <r>   -5.7815    1.0000 </r>
       <r>   -5.7700    1.0000 </r>
       <r>   -5.7695    1.0000 </r>
       <r>   -5.7645    1.0000 </r>
       <r>   -5.7629    1.0000 </r>
       <r>   -5.7614    1.0000 </r>
       <r>   -5.7589    1.0000 </r>
       <r>   -5.7556    1.0000 </r>
       <r>   -5.7521    1.0000 </r>
       <r>   -5.7498    1.0000 </r>
       <r>   -5.7374    1.0000 </r>
       <r>   -5.6804    1.0000 </r>
       <r>   -5.6521    1.0000 </r>
       <r>   -5.6392    1.0000 </r>
       <r>   -5.6231    1.0000 </r>
       <r>   -5.6230    1.0000 </r>
       <r>   -5.6195    1.0000 </r>
       <r>   -5.6193    1.0000 </r>
       <r>   -5.2265    1.0000 </r>
       <r>   -5.2262    1.0000 </r>
       <r>   -5.2233    1.0000 </r>
       <r>   -5.2226    1.0000 </r>
       <r>   -5.2214    1.0000 </r>
       <r>   -5.2212    1.0000 </r>
       <r>   -5.2206    1.0000 </r>
       <r>   -5.2194    1.0000 </r>
       <r>   -5.2188    1.0000 </r>
       <r>   -5.2181    1.0000 </r>
       <r>   -5.2177    1.0000 </r>
       <r>   -5.2165    1.0000 </r>
       <r>   -5.1067    1.0000 </r>
       <r>   -5.0952    1.0000 </r>
       <r>   -5.0907    1.0000 </r>
       <r>   -5.0904    1.0000 </r>
       <r>   -5.0877    1.0000 </r>
       <r>   -5.0875    1.0000 </r>
       <r>   -5.0874    1.0000 </r>
       <r>   -5.0870    1.0000 </r>
       <r>   -5.0084    1.0000 </r>
       <r>   -4.9191    1.0000 </r>
       <r>   -4.8269    1.0000 </r>
       <r>   -4.5974    1.0000 </r>
       <r>   -4.5427    1.0000 </r>
       <r>   -4.5346    1.0000 </r>
       <r>   -4.4775    1.0000 </r>
       <r>   -4.4734    1.0000 </r>
       <r>   -4.4719    1.0000 </r>
       <r>   -4.4714    1.0000 </r>
       <r>   -4.4704    1.0000 </r>
       <r>   -4.4684    1.0000 </r>
       <r>   -4.4678    1.0000 </r>
       <r>   -4.4675    1.0000 </r>
       <r>   -4.3413    1.0000 </r>
       <r>   -4.3410    1.0000 </r>
       <r>   -4.3408    1.0000 </r>
       <r>   -4.3407    1.0000 </r>
       <r>   -4.3119    1.0000 </r>
       <r>   -4.1906    1.0000 </r>
       <r>   -4.0918    1.0000 </r>
       <r>   -4.0895    1.0000 </r>
       <r>   -4.0891    1.0000 </r>
       <r>   -4.0873    1.0000 </r>
       <r>   -4.0854    1.0000 </r>
       <r>   -4.0835    1.0000 </r>
       <r>   -4.0736    1.0000 </r>
       <r>   -4.0732    1.0000 </r>
       <r>   -4.0710    1.0000 </r>
       <r>   -4.0699    1.0000 </r>
       <r>   -4.0245    1.0000 </r>
       <r>   -3.9503    1.0000 </r>
       <r>   -3.9501    1.0000 </r>
       <r>   -3.9464    1.0000 </r>
       <r>   -3.9464    1.0000 </r>
       <r>   -3.9074    1.0000 </r>
       <r>   -3.8631    1.0000 </r>
       <r>   -3.7745    1.0000 </r>
       <r>   -3.7437    1.0000 </r>
       <r>   -3.6230    1.0000 </r>
       <r>   -3.6222    1.0000 </r>
       <r>   -3.6156    1.0000 </r>
       <r>   -3.6148    1.0000 </r>
       <r>   -3.6025    1.0000 </r>
       <r>   -3.6016    1.0000 </r>
       <r>   -3.5971    1.0000 </r>
       <r>   -3.5954    1.0000 </r>
       <r>   -3.4796    1.0000 </r>
       <r>   -3.4796    1.0000 </r>
       <r>   -3.4738    1.0000 </r>
       <r>   -3.4738    1.0000 </r>
       <r>   -3.4734    1.0000 </r>
       <r>   -3.4696    1.0000 </r>
       <r>   -3.4688    1.0000 </r>
       <r>   -3.4680    1.0000 </r>
       <r>   -3.4654    1.0000 </r>
       <r>   -3.4647    1.0000 </r>
       <r>   -3.4341    1.0000 </r>
       <r>   -3.3435    1.0000 </r>
       <r>   -3.3383    1.0000 </r>
       <r>   -3.3381    1.0000 </r>
       <r>   -3.1460    1.0000 </r>
       <r>   -3.0896    1.0000 </r>
       <r>   -3.0750    1.0000 </r>
       <r>   -3.0728    1.0000 </r>
       <r>   -3.0698    1.0000 </r>
       <r>   -3.0697    1.0000 </r>
       <r>   -3.0668    1.0000 </r>
       <r>   -2.9868    1.0000 </r>
       <r>   -2.9382    1.0000 </r>
       <r>   -2.9376    1.0000 </r>
       <r>   -2.9012    1.0000 </r>
       <r>   -2.8453    1.0000 </r>
       <r>   -2.8088    1.0000 </r>
       <r>   -2.7636    1.0000 </r>
       <r>   -2.7534    1.0000 </r>
       <r>   -2.7509    1.0000 </r>
       <r>   -2.7469    1.0000 </r>
       <r>   -2.7441    1.0000 </r>
       <r>   -2.7231    1.0000 </r>
       <r>   -2.7229    1.0000 </r>
       <r>   -2.6836    1.0000 </r>
       <r>   -2.6777    1.0000 </r>
       <r>   -2.6696    1.0000 </r>
       <r>   -2.6673    1.0000 </r>
       <r>   -2.6633    1.0000 </r>
       <r>   -2.5441    1.0000 </r>
       <r>   -2.5437    1.0000 </r>
       <r>   -2.5189    1.0000 </r>
       <r>   -2.5172    1.0000 </r>
       <r>   -2.5090    1.0000 </r>
       <r>   -2.4551    1.0000 </r>
       <r>   -2.4237    1.0000 </r>
       <r>   -2.4157    1.0000 </r>
       <r>   -2.3839    1.0000 </r>
       <r>   -2.3763    1.0000 </r>
       <r>   -2.3739    1.0000 </r>
       <r>   -2.3728    1.0000 </r>
       <r>   -2.3721    1.0000 </r>
       <r>   -2.3708    1.0000 </r>
       <r>   -2.3697    1.0000 </r>
       <r>   -2.3688    1.0000 </r>
       <r>   -2.3678    1.0000 </r>
       <r>   -2.3570    1.0000 </r>
       <r>   -2.3544    1.0000 </r>
       <r>   -2.3420    1.0000 </r>
       <r>   -2.3170    1.0000 </r>
       <r>   -2.2584    1.0000 </r>
       <r>   -2.2409    1.0000 </r>
       <r>   -2.2404    1.0000 </r>
       <r>   -2.2403    1.0000 </r>
       <r>   -2.2400    1.0000 </r>
       <r>   -2.2097    1.0000 </r>
       <r>   -2.1728    1.0000 </r>
       <r>   -2.1440    1.0000 </r>
       <r>   -2.1278    1.0000 </r>
       <r>   -2.0918    1.0000 </r>
       <r>   -2.0894    1.0000 </r>
       <r>   -2.0884    1.0000 </r>
       <r>   -2.0881    1.0000 </r>
       <r>   -2.0547    1.0000 </r>
       <r>   -2.0541    1.0000 </r>
       <r>   -2.0536    1.0000 </r>
       <r>   -2.0513    1.0000 </r>
       <r>   -2.0156    1.0000 </r>
       <r>   -2.0118    1.0000 </r>
       <r>   -2.0086    1.0000 </r>
       <r>   -2.0007    1.0000 </r>
       <r>   -1.9807    1.0000 </r>
       <r>   -1.9433    1.0000 </r>
       <r>   -1.9432    1.0000 </r>
       <r>   -1.9327    1.0000 </r>
       <r>   -1.9326    1.0000 </r>
       <r>   -1.8958    1.0000 </r>
       <r>   -1.8703    1.0000 </r>
       <r>   -1.8679    1.0000 </r>
       <r>   -1.8670    1.0000 </r>
       <r>   -1.8638    1.0000 </r>
       <r>   -1.8236    1.0000 </r>
       <r>   -1.8219    1.0000 </r>
       <r>   -1.8203    1.0000 </r>
       <r>   -1.8178    1.0000 </r>
       <r>   -1.8166    1.0000 </r>
       <r>   -1.8146    1.0000 </r>
       <r>   -1.7815    1.0000 </r>
       <r>   -1.7769    1.0000 </r>
       <r>   -1.7763    1.0000 </r>
       <r>   -1.7759    1.0000 </r>
       <r>   -1.7756    1.0000 </r>
       <r>   -1.7749    1.0000 </r>
       <r>   -1.7744    1.0000 </r>
       <r>   -1.7736    1.0000 </r>
       <r>   -1.7637    1.0000 </r>
       <r>   -1.7128    1.0000 </r>
       <r>   -1.7054    1.0000 </r>
       <r>   -1.7000    1.0000 </r>
       <r>   -1.6923    1.0000 </r>
       <r>   -1.6580    1.0000 </r>
       <r>   -1.6476    1.0000 </r>
       <r>   -1.6452    1.0000 </r>
       <r>   -1.6451    1.0000 </r>
       <r>   -1.6449    1.0000 </r>
       <r>   -1.6448    1.0000 </r>
       <r>   -1.6334    1.0000 </r>
       <r>   -1.6150    1.0000 </r>
       <r>   -1.6115    1.0000 </r>
       <r>   -1.6046    1.0000 </r>
       <r>   -1.6037    1.0000 </r>
       <r>   -1.5840    1.0000 </r>
       <r>   -1.5812    1.0000 </r>
       <r>   -1.5790    1.0000 </r>
       <r>   -1.5641    1.0000 </r>
       <r>   -1.5635    1.0000 </r>
       <r>   -1.5558    1.0000 </r>
       <r>   -1.5526    1.0000 </r>
       <r>   -1.5474    1.0000 </r>
       <r>   -1.4773    1.0000 </r>
       <r>   -1.4492    1.0000 </r>
       <r>   -1.4414    1.0000 </r>
       <r>   -1.4311    1.0000 </r>
       <r>   -1.3487    1.0000 </r>
       <r>   -1.3486    1.0000 </r>
       <r>   -1.3365    1.0000 </r>
       <r>   -1.3357    1.0000 </r>
       <r>   -1.2329    1.0000 </r>
       <r>   -1.2296    1.0000 </r>
       <r>   -1.2270    1.0000 </r>
       <r>   -1.2262    1.0000 </r>
       <r>   -1.2123    1.0000 </r>
       <r>   -1.2105    1.0000 </r>
       <r>   -1.2099    1.0000 </r>
       <r>   -1.2057    1.0000 </r>
       <r>   -1.1856    1.0000 </r>
       <r>   -1.0915    1.0000 </r>
       <r>   -1.0915    1.0000 </r>
       <r>   -1.0859    1.0000 </r>
       <r>   -1.0858    1.0000 </r>
       <r>   -1.0497    1.0000 </r>
       <r>   -1.0078    1.0000 </r>
       <r>   -0.9831    1.0000 </r>
       <r>   -0.9298    1.0000 </r>
       <r>   -0.8731    1.0000 </r>
       <r>   -0.8657    1.0000 </r>
       <r>   -0.8452    1.0000 </r>
       <r>   -0.7781    1.0000 </r>
       <r>   -0.7751    1.0000 </r>
       <r>   -0.7477    1.0000 </r>
       <r>   -0.7229    1.0000 </r>
       <r>   -0.7184    1.0000 </r>
       <r>   -0.7094    1.0000 </r>
       <r>   -0.7063    1.0000 </r>
       <r>   -0.7021    1.0000 </r>
       <r>   -0.6764    1.0000 </r>
       <r>   -0.6740    1.0000 </r>
       <r>   -0.6733    1.0000 </r>
       <r>   -0.6708    1.0000 </r>
       <r>   -0.6547    1.0000 </r>
       <r>   -0.6535    1.0000 </r>
       <r>   -0.6529    1.0000 </r>
       <r>   -0.6224    1.0000 </r>
       <r>   -0.5179    1.0000 </r>
       <r>   -0.5167    1.0000 </r>
       <r>   -0.5154    1.0000 </r>
       <r>   -0.5129    1.0000 </r>
       <r>   -0.4628    1.0000 </r>
       <r>   -0.4608    1.0000 </r>
       <r>   -0.4587    1.0000 </r>
       <r>   -0.4568    1.0000 </r>
       <r>   -0.4552    1.0000 </r>
       <r>   -0.4538    1.0000 </r>
       <r>   -0.4517    1.0000 </r>
       <r>   -0.4452    1.0000 </r>
       <r>   -0.4266    1.0000 </r>
       <r>   -0.3980    1.0000 </r>
       <r>   -0.3834    1.0000 </r>
       <r>   -0.3834    1.0000 </r>
       <r>   -0.3767    1.0000 </r>
       <r>   -0.3681    1.0000 </r>
       <r>   -0.3550    1.0000 </r>
       <r>   -0.3535    1.0000 </r>
       <r>   -0.3495    1.0000 </r>
       <r>   -0.3434    1.0000 </r>
       <r>   -0.3420    1.0000 </r>
       <r>   -0.3396    1.0000 </r>
       <r>   -0.3269    1.0000 </r>
       <r>   -0.3263    1.0000 </r>
       <r>   -0.3262    1.0000 </r>
       <r>   -0.3258    1.0000 </r>
       <r>   -0.2755    1.0000 </r>
       <r>   -0.2255    1.0000 </r>
       <r>   -0.2250    1.0000 </r>
       <r>   -0.0991    1.0000 </r>
       <r>   -0.0448    1.0000 </r>
       <r>    0.0266    1.0000 </r>
       <r>    0.0692    1.0000 </r>
       <r>    0.1215    1.0000 </r>
       <r>    0.1576    1.0000 </r>
       <r>    0.1580    1.0000 </r>
       <r>    0.1748    1.0000 </r>
       <r>    0.1866    1.0000 </r>
       <r>    0.2029    1.0000 </r>
       <r>    0.2137    1.0000 </r>
       <r>    0.2147    1.0000 </r>
       <r>    0.2179    1.0000 </r>
       <r>    0.2207    1.0000 </r>
       <r>    0.2398    1.0000 </r>
       <r>    0.2444    1.0000 </r>
       <r>    0.2932    1.0000 </r>
       <r>    0.3192    1.0000 </r>
       <r>    0.3222    1.0000 </r>
       <r>    0.3418    1.0000 </r>
       <r>    0.3444    1.0000 </r>
       <r>    0.3484    1.0000 </r>
       <r>    0.3499    1.0000 </r>
       <r>    0.3701    1.0000 </r>
       <r>    0.3787    1.0000 </r>
       <r>    0.3961    1.0000 </r>
       <r>    0.4570    1.0000 </r>
       <r>    0.4582    1.0000 </r>
       <r>    0.4645    1.0000 </r>
       <r>    0.4649    1.0000 </r>
       <r>    0.4657    1.0000 </r>
       <r>    0.4766    1.0000 </r>
       <r>    0.4771    1.0000 </r>
       <r>    0.4773    1.0000 </r>
       <r>    0.5525    1.0000 </r>
       <r>    0.5585    1.0000 </r>
       <r>    0.5666    1.0000 </r>
       <r>    0.5846    1.0000 </r>
       <r>    0.5893    1.0000 </r>
       <r>    0.6934    1.0000 </r>
       <r>    0.6954    1.0000 </r>
       <r>    0.7032    1.0000 </r>
       <r>    0.7066    1.0000 </r>
       <r>    0.7343    1.0000 </r>
       <r>    0.8116    1.0000 </r>
       <r>    0.8118    1.0000 </r>
       <r>    0.8424    1.0000 </r>
       <r>    0.8557    1.0000 </r>
       <r>    0.8566    1.0000 </r>
       <r>    0.8807    1.0000 </r>
       <r>    0.8847    1.0000 </r>
       <r>    0.8902    1.0000 </r>
       <r>    0.9176    1.0000 </r>
       <r>    0.9934    1.0000 </r>
       <r>    0.9977    1.0000 </r>
       <r>    0.9988    1.0000 </r>
       <r>    1.0030    1.0000 </r>
       <r>    1.0247    1.0000 </r>
       <r>    1.0338    1.0000 </r>
       <r>    1.0881    1.0000 </r>
       <r>    1.1056    1.0000 </r>
       <r>    1.2088    1.0000 </r>
       <r>    1.2108    1.0000 </r>
       <r>    1.2238    1.0000 </r>
       <r>    1.2340    1.0000 </r>
       <r>    1.2480    1.0000 </r>
       <r>    1.2511    1.0000 </r>
       <r>    1.2531    1.0000 </r>
       <r>    1.2644    1.0000 </r>
       <r>    1.3162    1.0000 </r>
       <r>    1.3183    1.0000 </r>
       <r>    1.3678    1.0000 </r>
       <r>    1.3684    1.0000 </r>
       <r>    1.4024    1.0000 </r>
       <r>    1.4032    1.0000 </r>
       <r>    1.4413    1.0000 </r>
       <r>    1.4428    1.0000 </r>
       <r>    1.5038    1.0000 </r>
       <r>    1.5055    1.0000 </r>
       <r>    1.5399    1.0000 </r>
       <r>    1.5849    1.0000 </r>
       <r>    1.5909    1.0000 </r>
       <r>    1.5915    1.0000 </r>
       <r>    1.7660    1.0000 </r>
       <r>    1.7705    1.0000 </r>
       <r>    1.8486    1.0000 </r>
       <r>    1.8559    1.0000 </r>
       <r>    1.8613    1.0000 </r>
       <r>    1.8629    1.0000 </r>
       <r>    1.9184    1.0000 </r>
       <r>    1.9262    1.0000 </r>
       <r>    1.9553    1.0000 </r>
       <r>    1.9599    1.0000 </r>
       <r>    1.9808    1.0000 </r>
       <r>    1.9828    1.0000 </r>
       <r>    2.0251    1.0000 </r>
       <r>    2.0258    1.0000 </r>
       <r>    2.0637    1.0000 </r>
       <r>    2.0669    1.0000 </r>
       <r>    2.0972    1.0000 </r>
       <r>    2.0995    1.0000 </r>
       <r>    2.2252    1.0000 </r>
       <r>    2.2310    1.0000 </r>
       <r>    2.3997    1.0000 </r>
       <r>    2.4007    1.0000 </r>
       <r>    2.4050    1.0000 </r>
       <r>    2.4062    1.0000 </r>
       <r>    5.5532    0.0000 </r>
       <r>    6.6710    0.0000 </r>
       <r>    6.6898    0.0000 </r>
       <r>    6.6928    0.0000 </r>
       <r>    6.7214    0.0000 </r>
       <r>    6.8897    0.0000 </r>
       <r>    6.9319    0.0000 </r>
       <r>    6.9993    0.0000 </r>
       <r>    7.0122    0.0000 </r>
       <r>    7.0875    0.0000 </r>
       <r>    7.0968    0.0000 </r>
       <r>    7.1632    0.0000 </r>
       <r>    7.2131    0.0000 </r>
       <r>    7.2145    0.0000 </r>
       <r>    7.2297    0.0000 </r>
       <r>    7.2563    0.0000 </r>
       <r>    7.2898    0.0000 </r>
       <r>    7.2971    0.0000 </r>
       <r>    7.3059    0.0000 </r>
       <r>    7.3303    0.0000 </r>
       <r>    7.3342    0.0000 </r>
       <r>    7.3419    0.0000 </r>
       <r>    7.3452    0.0000 </r>
       <r>    7.3517    0.0000 </r>
       <r>    7.3622    0.0000 </r>
       <r>    7.3632    0.0000 </r>
       <r>    7.3849    0.0000 </r>
       <r>    7.3881    0.0000 </r>
       <r>    7.3918    0.0000 </r>
       <r>    7.3969    0.0000 </r>
       <r>    7.4307    0.0000 </r>
       <r>    7.4340    0.0000 </r>
       <r>    7.4683    0.0000 </r>
       <r>    7.7064    0.0000 </r>
       <r>    7.7425    0.0000 </r>
       <r>    7.7445    0.0000 </r>
       <r>    7.7486    0.0000 </r>
       <r>    7.7992    0.0000 </r>
       <r>    7.8370    0.0000 </r>
       <r>    7.8606    0.0000 </r>
       <r>    7.8777    0.0000 </r>
       <r>    7.8902    0.0000 </r>
       <r>    7.9088    0.0000 </r>
       <r>    7.9188    0.0000 </r>
       <r>    7.9208    0.0000 </r>
       <r>    7.9621    0.0000 </r>
       <r>    8.0038    0.0000 </r>
       <r>    8.0795    0.0000 </r>
       <r>    8.1240    0.0000 </r>
       <r>    8.1689    0.0000 </r>
       <r>    8.1721    0.0000 </r>
       <r>    8.1772    0.0000 </r>
       <r>    8.1873    0.0000 </r>
       <r>    8.2182    0.0000 </r>
       <r>    8.2234    0.0000 </r>
       <r>    8.2257    0.0000 </r>
       <r>    8.2438    0.0000 </r>
       <r>    8.2561    0.0000 </r>
       <r>    8.2715    0.0000 </r>
       <r>    8.2887    0.0000 </r>
       <r>    8.4382    0.0000 </r>
       <r>    8.5710    0.0000 </r>
       <r>    8.5829    0.0000 </r>
       <r>    8.5990    0.0000 </r>
       <r>    8.6387    0.0000 </r>
       <r>    8.6415    0.0000 </r>
       <r>    8.6503    0.0000 </r>
       <r>    8.6685    0.0000 </r>
       <r>    8.6749    0.0000 </r>
       <r>    8.6833    0.0000 </r>
       <r>    8.6883    0.0000 </r>
       <r>    8.6895    0.0000 </r>
       <r>    8.7347    0.0000 </r>
       <r>    8.9037    0.0000 </r>
       <r>    8.9775    0.0000 </r>
       <r>    9.0016    0.0000 </r>
       <r>    9.0176    0.0000 </r>
       <r>    9.0409    0.0000 </r>
       <r>    9.0844    0.0000 </r>
       <r>    9.1265    0.0000 </r>
       <r>    9.2292    0.0000 </r>
       <r>    9.2498    0.0000 </r>
       <r>    9.2666    0.0000 </r>
       <r>    9.2678    0.0000 </r>
       <r>    9.2802    0.0000 </r>
       <r>    9.2864    0.0000 </r>
       <r>    9.2969    0.0000 </r>
       <r>    9.3011    0.0000 </r>
       <r>    9.3053    0.0000 </r>
       <r>    9.3209    0.0000 </r>
       <r>    9.3268    0.0000 </r>
       <r>    9.3289    0.0000 </r>
       <r>    9.3306    0.0000 </r>
       <r>    9.3967    0.0000 </r>
       <r>    9.4952    0.0000 </r>
       <r>    9.5283    0.0000 </r>
       <r>    9.6513    0.0000 </r>
       <r>    9.6832    0.0000 </r>
       <r>    9.6871    0.0000 </r>
       <r>    9.6903    0.0000 </r>
       <r>    9.6922    0.0000 </r>
       <r>    9.7476    0.0000 </r>
       <r>    9.9092    0.0000 </r>
       <r>   10.0787    0.0000 </r>
       <r>   10.0962    0.0000 </r>
       <r>   10.0982    0.0000 </r>
       <r>   10.1080    0.0000 </r>
       <r>   10.1507    0.0000 </r>
       <r>   10.1730    0.0000 </r>
       <r>   10.1785    0.0000 </r>
       <r>   10.1974    0.0000 </r>
       <r>   10.2009    0.0000 </r>
       <r>   10.2305    0.0000 </r>
       <r>   10.2420    0.0000 </r>
       <r>   10.2859    0.0000 </r>
       <r>   10.3103    0.0000 </r>
       <r>   10.3184    0.0000 </r>
       <r>   10.3781    0.0000 </r>
       <r>   10.3819    0.0000 </r>
       <r>   10.3910    0.0000 </r>
       <r>   10.3946    0.0000 </r>
       <r>   10.4218    0.0000 </r>
       <r>   10.4381    0.0000 </r>
       <r>   10.4453    0.0000 </r>
       <r>   10.4753    0.0000 </r>
       <r>   10.5176    0.0000 </r>
       <r>   10.5409    0.0000 </r>
       <r>   10.6312    0.0000 </r>
       <r>   10.6762    0.0000 </r>
       <r>   10.7233    0.0000 </r>
       <r>   10.7237    0.0000 </r>
       <r>   10.7272    0.0000 </r>
       <r>   10.7328    0.0000 </r>
       <r>   10.7544    0.0000 </r>
       <r>   10.7609    0.0000 </r>
       <r>   10.7661    0.0000 </r>
       <r>   10.7890    0.0000 </r>
       <r>   10.7914    0.0000 </r>
       <r>   10.7959    0.0000 </r>
       <r>   10.8161    0.0000 </r>
       <r>   10.8175    0.0000 </r>
       <r>   11.2449    0.0000 </r>
       <r>   11.2607    0.0000 </r>
       <r>   11.4750    0.0000 </r>
       <r>   11.5049    0.0000 </r>
       <r>   11.5673    0.0000 </r>
       <r>   11.6473    0.0000 </r>
       <r>   11.6946    0.0000 </r>
       <r>   11.7318    0.0000 </r>
       <r>   11.7566    0.0000 </r>
       <r>   11.7881    0.0000 </r>
       <r>   11.9452    0.0000 </r>
      </set>
      <set comment="kpoint 3">
       <r>  -17.1662    1.0000 </r>
       <r>  -15.7434    1.0000 </r>
       <r>  -15.6888    1.0000 </r>
       <r>  -15.4154    1.0000 </r>
       <r>  -15.2953    1.0000 </r>
       <r>  -15.2487    1.0000 </r>
       <r>  -15.2281    1.0000 </r>
       <r>  -15.1910    1.0000 </r>
       <r>  -15.1885    1.0000 </r>
       <r>  -15.0939    1.0000 </r>
       <r>  -15.0554    1.0000 </r>
       <r>  -15.0252    1.0000 </r>
       <r>  -15.0076    1.0000 </r>
       <r>  -14.9541    1.0000 </r>
       <r>  -14.9449    1.0000 </r>
       <r>  -14.9373    1.0000 </r>
       <r>  -14.9355    1.0000 </r>
       <r>  -14.8535    1.0000 </r>
       <r>  -14.7531    1.0000 </r>
       <r>  -14.7523    1.0000 </r>
       <r>  -14.6159    1.0000 </r>
       <r>  -14.5681    1.0000 </r>
       <r>  -14.5439    1.0000 </r>
       <r>  -14.4570    1.0000 </r>
       <r>  -14.4446    1.0000 </r>
       <r>  -14.4435    1.0000 </r>
       <r>  -14.4285    1.0000 </r>
       <r>  -14.4237    1.0000 </r>
       <r>  -14.4190    1.0000 </r>
       <r>  -14.4167    1.0000 </r>
       <r>  -14.4154    1.0000 </r>
       <r>  -14.3453    1.0000 </r>
       <r>  -14.2461    1.0000 </r>
       <r>  -14.2416    1.0000 </r>
       <r>  -14.2400    1.0000 </r>
       <r>  -14.2393    1.0000 </r>
       <r>  -14.1998    1.0000 </r>
       <r>  -14.1914    1.0000 </r>
       <r>  -14.1673    1.0000 </r>
       <r>  -14.1662    1.0000 </r>
       <r>  -14.1141    1.0000 </r>
       <r>  -14.0345    1.0000 </r>
       <r>  -13.9964    1.0000 </r>
       <r>  -13.9945    1.0000 </r>
       <r>  -13.9381    1.0000 </r>
       <r>  -13.7864    1.0000 </r>
       <r>  -13.7348    1.0000 </r>
       <r>  -13.7109    1.0000 </r>
       <r>  -13.7081    1.0000 </r>
       <r>  -13.7069    1.0000 </r>
       <r>  -13.6957    1.0000 </r>
       <r>  -13.6946    1.0000 </r>
       <r>  -13.6756    1.0000 </r>
       <r>  -13.6718    1.0000 </r>
       <r>  -13.5994    1.0000 </r>
       <r>  -13.5307    1.0000 </r>
       <r>  -13.5305    1.0000 </r>
       <r>  -13.5160    1.0000 </r>
       <r>  -13.5149    1.0000 </r>
       <r>  -13.5020    1.0000 </r>
       <r>  -13.3576    1.0000 </r>
       <r>  -13.3335    1.0000 </r>
       <r>  -13.2538    1.0000 </r>
       <r>  -13.2223    1.0000 </r>
       <r>  -13.1121    1.0000 </r>
       <r>  -13.0589    1.0000 </r>
       <r>  -13.0540    1.0000 </r>
       <r>  -13.0522    1.0000 </r>
       <r>  -13.0419    1.0000 </r>
       <r>  -13.0390    1.0000 </r>
       <r>  -13.0366    1.0000 </r>
       <r>  -13.0353    1.0000 </r>
       <r>  -13.0339    1.0000 </r>
       <r>  -12.9739    1.0000 </r>
       <r>  -12.9257    1.0000 </r>
       <r>  -12.8877    1.0000 </r>
       <r>  -12.8841    1.0000 </r>
       <r>  -12.8815    1.0000 </r>
       <r>  -12.8804    1.0000 </r>
       <r>  -12.8759    1.0000 </r>
       <r>  -12.8741    1.0000 </r>
       <r>  -12.8729    1.0000 </r>
       <r>  -12.8725    1.0000 </r>
       <r>  -12.8671    1.0000 </r>
       <r>  -12.8660    1.0000 </r>
       <r>  -12.8645    1.0000 </r>
       <r>  -12.8628    1.0000 </r>
       <r>  -12.8594    1.0000 </r>
       <r>  -12.7157    1.0000 </r>
       <r>  -12.7142    1.0000 </r>
       <r>  -12.7138    1.0000 </r>
       <r>  -12.7135    1.0000 </r>
       <r>  -12.6803    1.0000 </r>
       <r>  -12.6085    1.0000 </r>
       <r>  -12.5913    1.0000 </r>
       <r>  -12.5838    1.0000 </r>
       <r>  -12.5691    1.0000 </r>
       <r>  -12.5549    1.0000 </r>
       <r>  -12.5330    1.0000 </r>
       <r>  -12.4983    1.0000 </r>
       <r>  -12.4353    1.0000 </r>
       <r>  -12.4308    1.0000 </r>
       <r>  -12.4236    1.0000 </r>
       <r>  -12.4187    1.0000 </r>
       <r>  -12.3354    1.0000 </r>
       <r>  -12.3322    1.0000 </r>
       <r>  -12.3276    1.0000 </r>
       <r>  -12.3233    1.0000 </r>
       <r>  -12.2438    1.0000 </r>
       <r>  -12.2414    1.0000 </r>
       <r>  -12.2392    1.0000 </r>
       <r>  -12.2359    1.0000 </r>
       <r>  -12.2168    1.0000 </r>
       <r>  -12.2154    1.0000 </r>
       <r>  -12.2103    1.0000 </r>
       <r>  -12.2081    1.0000 </r>
       <r>  -12.1767    1.0000 </r>
       <r>  -12.1766    1.0000 </r>
       <r>  -12.1692    1.0000 </r>
       <r>  -12.1691    1.0000 </r>
       <r>  -12.0957    1.0000 </r>
       <r>  -12.0956    1.0000 </r>
       <r>  -12.0885    1.0000 </r>
       <r>  -12.0872    1.0000 </r>
       <r>  -12.0862    1.0000 </r>
       <r>  -12.0838    1.0000 </r>
       <r>  -11.9498    1.0000 </r>
       <r>  -11.9485    1.0000 </r>
       <r>  -11.9460    1.0000 </r>
       <r>  -11.9448    1.0000 </r>
       <r>  -11.8157    1.0000 </r>
       <r>  -11.8152    1.0000 </r>
       <r>  -11.8071    1.0000 </r>
       <r>  -11.8061    1.0000 </r>
       <r>  -11.8054    1.0000 </r>
       <r>  -11.8043    1.0000 </r>
       <r>  -11.7863    1.0000 </r>
       <r>  -11.7826    1.0000 </r>
       <r>  -11.7815    1.0000 </r>
       <r>  -11.7764    1.0000 </r>
       <r>  -11.6685    1.0000 </r>
       <r>  -11.6683    1.0000 </r>
       <r>  -11.6613    1.0000 </r>
       <r>  -11.6613    1.0000 </r>
       <r>   -8.1625    1.0000 </r>
       <r>   -7.2499    1.0000 </r>
       <r>   -7.2353    1.0000 </r>
       <r>   -6.7832    1.0000 </r>
       <r>   -6.6996    1.0000 </r>
       <r>   -6.6787    1.0000 </r>
       <r>   -6.4259    1.0000 </r>
       <r>   -6.4021    1.0000 </r>
       <r>   -6.3173    1.0000 </r>
       <r>   -6.3074    1.0000 </r>
       <r>   -6.3053    1.0000 </r>
       <r>   -6.3043    1.0000 </r>
       <r>   -6.2991    1.0000 </r>
       <r>   -6.2836    1.0000 </r>
       <r>   -6.2734    1.0000 </r>
       <r>   -6.2724    1.0000 </r>
       <r>   -6.2711    1.0000 </r>
       <r>   -6.2707    1.0000 </r>
       <r>   -6.2146    1.0000 </r>
       <r>   -6.2131    1.0000 </r>
       <r>   -6.2111    1.0000 </r>
       <r>   -6.2054    1.0000 </r>
       <r>   -6.1979    1.0000 </r>
       <r>   -6.1924    1.0000 </r>
       <r>   -6.1587    1.0000 </r>
       <r>   -6.1585    1.0000 </r>
       <r>   -6.1490    1.0000 </r>
       <r>   -6.1489    1.0000 </r>
       <r>   -6.0722    1.0000 </r>
       <r>   -6.0712    1.0000 </r>
       <r>   -5.9324    1.0000 </r>
       <r>   -5.9304    1.0000 </r>
       <r>   -5.9073    1.0000 </r>
       <r>   -5.9071    1.0000 </r>
       <r>   -5.8365    1.0000 </r>
       <r>   -5.7893    1.0000 </r>
       <r>   -5.7818    1.0000 </r>
       <r>   -5.7694    1.0000 </r>
       <r>   -5.7686    1.0000 </r>
       <r>   -5.7642    1.0000 </r>
       <r>   -5.7621    1.0000 </r>
       <r>   -5.7604    1.0000 </r>
       <r>   -5.7589    1.0000 </r>
       <r>   -5.7562    1.0000 </r>
       <r>   -5.7531    1.0000 </r>
       <r>   -5.7508    1.0000 </r>
       <r>   -5.7377    1.0000 </r>
       <r>   -5.6804    1.0000 </r>
       <r>   -5.6521    1.0000 </r>
       <r>   -5.6393    1.0000 </r>
       <r>   -5.6229    1.0000 </r>
       <r>   -5.6228    1.0000 </r>
       <r>   -5.6196    1.0000 </r>
       <r>   -5.6195    1.0000 </r>
       <r>   -5.2269    1.0000 </r>
       <r>   -5.2260    1.0000 </r>
       <r>   -5.2234    1.0000 </r>
       <r>   -5.2228    1.0000 </r>
       <r>   -5.2220    1.0000 </r>
       <r>   -5.2212    1.0000 </r>
       <r>   -5.2207    1.0000 </r>
       <r>   -5.2203    1.0000 </r>
       <r>   -5.2189    1.0000 </r>
       <r>   -5.2182    1.0000 </r>
       <r>   -5.2179    1.0000 </r>
       <r>   -5.2168    1.0000 </r>
       <r>   -5.1067    1.0000 </r>
       <r>   -5.0953    1.0000 </r>
       <r>   -5.0907    1.0000 </r>
       <r>   -5.0905    1.0000 </r>
       <r>   -5.0877    1.0000 </r>
       <r>   -5.0875    1.0000 </r>
       <r>   -5.0874    1.0000 </r>
       <r>   -5.0871    1.0000 </r>
       <r>   -5.0083    1.0000 </r>
       <r>   -4.9190    1.0000 </r>
       <r>   -4.8269    1.0000 </r>
       <r>   -4.5973    1.0000 </r>
       <r>   -4.5428    1.0000 </r>
       <r>   -4.5347    1.0000 </r>
       <r>   -4.4750    1.0000 </r>
       <r>   -4.4742    1.0000 </r>
       <r>   -4.4720    1.0000 </r>
       <r>   -4.4714    1.0000 </r>
       <r>   -4.4701    1.0000 </r>
       <r>   -4.4689    1.0000 </r>
       <r>   -4.4681    1.0000 </r>
       <r>   -4.4661    1.0000 </r>
       <r>   -4.3412    1.0000 </r>
       <r>   -4.3410    1.0000 </r>
       <r>   -4.3409    1.0000 </r>
       <r>   -4.3407    1.0000 </r>
       <r>   -4.3118    1.0000 </r>
       <r>   -4.1905    1.0000 </r>
       <r>   -4.0918    1.0000 </r>
       <r>   -4.0894    1.0000 </r>
       <r>   -4.0876    1.0000 </r>
       <r>   -4.0869    1.0000 </r>
       <r>   -4.0850    1.0000 </r>
       <r>   -4.0830    1.0000 </r>
       <r>   -4.0739    1.0000 </r>
       <r>   -4.0736    1.0000 </r>
       <r>   -4.0718    1.0000 </r>
       <r>   -4.0707    1.0000 </r>
       <r>   -4.0246    1.0000 </r>
       <r>   -3.9501    1.0000 </r>
       <r>   -3.9500    1.0000 </r>
       <r>   -3.9466    1.0000 </r>
       <r>   -3.9465    1.0000 </r>
       <r>   -3.9073    1.0000 </r>
       <r>   -3.8630    1.0000 </r>
       <r>   -3.7743    1.0000 </r>
       <r>   -3.7445    1.0000 </r>
       <r>   -3.6224    1.0000 </r>
       <r>   -3.6212    1.0000 </r>
       <r>   -3.6150    1.0000 </r>
       <r>   -3.6138    1.0000 </r>
       <r>   -3.6040    1.0000 </r>
       <r>   -3.6023    1.0000 </r>
       <r>   -3.5989    1.0000 </r>
       <r>   -3.5972    1.0000 </r>
       <r>   -3.4795    1.0000 </r>
       <r>   -3.4793    1.0000 </r>
       <r>   -3.4740    1.0000 </r>
       <r>   -3.4740    1.0000 </r>
       <r>   -3.4722    1.0000 </r>
       <r>   -3.4686    1.0000 </r>
       <r>   -3.4682    1.0000 </r>
       <r>   -3.4680    1.0000 </r>
       <r>   -3.4651    1.0000 </r>
       <r>   -3.4645    1.0000 </r>
       <r>   -3.4342    1.0000 </r>
       <r>   -3.3436    1.0000 </r>
       <r>   -3.3383    1.0000 </r>
       <r>   -3.3381    1.0000 </r>
       <r>   -3.1461    1.0000 </r>
       <r>   -3.0895    1.0000 </r>
       <r>   -3.0750    1.0000 </r>
       <r>   -3.0731    1.0000 </r>
       <r>   -3.0709    1.0000 </r>
       <r>   -3.0697    1.0000 </r>
       <r>   -3.0670    1.0000 </r>
       <r>   -2.9870    1.0000 </r>
       <r>   -2.9381    1.0000 </r>
       <r>   -2.9376    1.0000 </r>
       <r>   -2.9016    1.0000 </r>
       <r>   -2.8453    1.0000 </r>
       <r>   -2.8080    1.0000 </r>
       <r>   -2.7637    1.0000 </r>
       <r>   -2.7546    1.0000 </r>
       <r>   -2.7511    1.0000 </r>
       <r>   -2.7475    1.0000 </r>
       <r>   -2.7441    1.0000 </r>
       <r>   -2.7232    1.0000 </r>
       <r>   -2.7229    1.0000 </r>
       <r>   -2.6822    1.0000 </r>
       <r>   -2.6777    1.0000 </r>
       <r>   -2.6686    1.0000 </r>
       <r>   -2.6673    1.0000 </r>
       <r>   -2.6635    1.0000 </r>
       <r>   -2.5440    1.0000 </r>
       <r>   -2.5438    1.0000 </r>
       <r>   -2.5188    1.0000 </r>
       <r>   -2.5166    1.0000 </r>
       <r>   -2.5091    1.0000 </r>
       <r>   -2.4550    1.0000 </r>
       <r>   -2.4226    1.0000 </r>
       <r>   -2.4162    1.0000 </r>
       <r>   -2.3840    1.0000 </r>
       <r>   -2.3760    1.0000 </r>
       <r>   -2.3745    1.0000 </r>
       <r>   -2.3734    1.0000 </r>
       <r>   -2.3720    1.0000 </r>
       <r>   -2.3716    1.0000 </r>
       <r>   -2.3701    1.0000 </r>
       <r>   -2.3700    1.0000 </r>
       <r>   -2.3689    1.0000 </r>
       <r>   -2.3571    1.0000 </r>
       <r>   -2.3546    1.0000 </r>
       <r>   -2.3418    1.0000 </r>
       <r>   -2.3168    1.0000 </r>
       <r>   -2.2584    1.0000 </r>
       <r>   -2.2409    1.0000 </r>
       <r>   -2.2404    1.0000 </r>
       <r>   -2.2403    1.0000 </r>
       <r>   -2.2401    1.0000 </r>
       <r>   -2.2096    1.0000 </r>
       <r>   -2.1727    1.0000 </r>
       <r>   -2.1435    1.0000 </r>
       <r>   -2.1273    1.0000 </r>
       <r>   -2.0892    1.0000 </r>
       <r>   -2.0884    1.0000 </r>
       <r>   -2.0881    1.0000 </r>
       <r>   -2.0876    1.0000 </r>
       <r>   -2.0559    1.0000 </r>
       <r>   -2.0545    1.0000 </r>
       <r>   -2.0540    1.0000 </r>
       <r>   -2.0530    1.0000 </r>
       <r>   -2.0150    1.0000 </r>
       <r>   -2.0124    1.0000 </r>
       <r>   -2.0080    1.0000 </r>
       <r>   -2.0009    1.0000 </r>
       <r>   -1.9810    1.0000 </r>
       <r>   -1.9430    1.0000 </r>
       <r>   -1.9429    1.0000 </r>
       <r>   -1.9330    1.0000 </r>
       <r>   -1.9330    1.0000 </r>
       <r>   -1.8960    1.0000 </r>
       <r>   -1.8702    1.0000 </r>
       <r>   -1.8682    1.0000 </r>
       <r>   -1.8669    1.0000 </r>
       <r>   -1.8640    1.0000 </r>
       <r>   -1.8234    1.0000 </r>
       <r>   -1.8221    1.0000 </r>
       <r>   -1.8207    1.0000 </r>
       <r>   -1.8170    1.0000 </r>
       <r>   -1.8161    1.0000 </r>
       <r>   -1.8149    1.0000 </r>
       <r>   -1.7802    1.0000 </r>
       <r>   -1.7774    1.0000 </r>
       <r>   -1.7762    1.0000 </r>
       <r>   -1.7759    1.0000 </r>
       <r>   -1.7756    1.0000 </r>
       <r>   -1.7750    1.0000 </r>
       <r>   -1.7738    1.0000 </r>
       <r>   -1.7707    1.0000 </r>
       <r>   -1.7637    1.0000 </r>
       <r>   -1.7128    1.0000 </r>
       <r>   -1.7055    1.0000 </r>
       <r>   -1.6990    1.0000 </r>
       <r>   -1.6925    1.0000 </r>
       <r>   -1.6579    1.0000 </r>
       <r>   -1.6471    1.0000 </r>
       <r>   -1.6451    1.0000 </r>
       <r>   -1.6450    1.0000 </r>
       <r>   -1.6449    1.0000 </r>
       <r>   -1.6449    1.0000 </r>
       <r>   -1.6342    1.0000 </r>
       <r>   -1.6157    1.0000 </r>
       <r>   -1.6112    1.0000 </r>
       <r>   -1.6044    1.0000 </r>
       <r>   -1.6038    1.0000 </r>
       <r>   -1.5827    1.0000 </r>
       <r>   -1.5804    1.0000 </r>
       <r>   -1.5796    1.0000 </r>
       <r>   -1.5650    1.0000 </r>
       <r>   -1.5639    1.0000 </r>
       <r>   -1.5561    1.0000 </r>
       <r>   -1.5535    1.0000 </r>
       <r>   -1.5511    1.0000 </r>
       <r>   -1.4770    1.0000 </r>
       <r>   -1.4491    1.0000 </r>
       <r>   -1.4410    1.0000 </r>
       <r>   -1.4316    1.0000 </r>
       <r>   -1.3498    1.0000 </r>
       <r>   -1.3473    1.0000 </r>
       <r>   -1.3364    1.0000 </r>
       <r>   -1.3355    1.0000 </r>
       <r>   -1.2301    1.0000 </r>
       <r>   -1.2286    1.0000 </r>
       <r>   -1.2264    1.0000 </r>
       <r>   -1.2252    1.0000 </r>
       <r>   -1.2143    1.0000 </r>
       <r>   -1.2105    1.0000 </r>
       <r>   -1.2102    1.0000 </r>
       <r>   -1.2054    1.0000 </r>
       <r>   -1.1854    1.0000 </r>
       <r>   -1.0913    1.0000 </r>
       <r>   -1.0913    1.0000 </r>
       <r>   -1.0861    1.0000 </r>
       <r>   -1.0860    1.0000 </r>
       <r>   -1.0497    1.0000 </r>
       <r>   -1.0075    1.0000 </r>
       <r>   -0.9829    1.0000 </r>
       <r>   -0.9297    1.0000 </r>
       <r>   -0.8732    1.0000 </r>
       <r>   -0.8656    1.0000 </r>
       <r>   -0.8452    1.0000 </r>
       <r>   -0.7778    1.0000 </r>
       <r>   -0.7755    1.0000 </r>
       <r>   -0.7480    1.0000 </r>
       <r>   -0.7216    1.0000 </r>
       <r>   -0.7172    1.0000 </r>
       <r>   -0.7095    1.0000 </r>
       <r>   -0.7068    1.0000 </r>
       <r>   -0.7020    1.0000 </r>
       <r>   -0.6775    1.0000 </r>
       <r>   -0.6754    1.0000 </r>
       <r>   -0.6737    1.0000 </r>
       <r>   -0.6702    1.0000 </r>
       <r>   -0.6544    1.0000 </r>
       <r>   -0.6539    1.0000 </r>
       <r>   -0.6532    1.0000 </r>
       <r>   -0.6228    1.0000 </r>
       <r>   -0.5188    1.0000 </r>
       <r>   -0.5169    1.0000 </r>
       <r>   -0.5163    1.0000 </r>
       <r>   -0.5150    1.0000 </r>
       <r>   -0.4612    1.0000 </r>
       <r>   -0.4605    1.0000 </r>
       <r>   -0.4578    1.0000 </r>
       <r>   -0.4569    1.0000 </r>
       <r>   -0.4549    1.0000 </r>
       <r>   -0.4543    1.0000 </r>
       <r>   -0.4516    1.0000 </r>
       <r>   -0.4455    1.0000 </r>
       <r>   -0.4262    1.0000 </r>
       <r>   -0.3981    1.0000 </r>
       <r>   -0.3835    1.0000 </r>
       <r>   -0.3834    1.0000 </r>
       <r>   -0.3772    1.0000 </r>
       <r>   -0.3680    1.0000 </r>
       <r>   -0.3561    1.0000 </r>
       <r>   -0.3548    1.0000 </r>
       <r>   -0.3485    1.0000 </r>
       <r>   -0.3449    1.0000 </r>
       <r>   -0.3433    1.0000 </r>
       <r>   -0.3399    1.0000 </r>
       <r>   -0.3269    1.0000 </r>
       <r>   -0.3263    1.0000 </r>
       <r>   -0.3261    1.0000 </r>
       <r>   -0.3258    1.0000 </r>
       <r>   -0.2757    1.0000 </r>
       <r>   -0.2255    1.0000 </r>
       <r>   -0.2250    1.0000 </r>
       <r>   -0.0988    1.0000 </r>
       <r>   -0.0450    1.0000 </r>
       <r>    0.0265    1.0000 </r>
       <r>    0.0693    1.0000 </r>
       <r>    0.1212    1.0000 </r>
       <r>    0.1580    1.0000 </r>
       <r>    0.1582    1.0000 </r>
       <r>    0.1757    1.0000 </r>
       <r>    0.1871    1.0000 </r>
       <r>    0.2036    1.0000 </r>
       <r>    0.2136    1.0000 </r>
       <r>    0.2140    1.0000 </r>
       <r>    0.2177    1.0000 </r>
       <r>    0.2196    1.0000 </r>
       <r>    0.2393    1.0000 </r>
       <r>    0.2441    1.0000 </r>
       <r>    0.2934    1.0000 </r>
       <r>    0.3189    1.0000 </r>
       <r>    0.3222    1.0000 </r>
       <r>    0.3442    1.0000 </r>
       <r>    0.3458    1.0000 </r>
       <r>    0.3480    1.0000 </r>
       <r>    0.3498    1.0000 </r>
       <r>    0.3702    1.0000 </r>
       <r>    0.3785    1.0000 </r>
       <r>    0.3966    1.0000 </r>
       <r>    0.4569    1.0000 </r>
       <r>    0.4598    1.0000 </r>
       <r>    0.4633    1.0000 </r>
       <r>    0.4653    1.0000 </r>
       <r>    0.4659    1.0000 </r>
       <r>    0.4766    1.0000 </r>
       <r>    0.4772    1.0000 </r>
       <r>    0.4774    1.0000 </r>
       <r>    0.5556    1.0000 </r>
       <r>    0.5600    1.0000 </r>
       <r>    0.5662    1.0000 </r>
       <r>    0.5856    1.0000 </r>
       <r>    0.5900    1.0000 </r>
       <r>    0.6937    1.0000 </r>
       <r>    0.6954    1.0000 </r>
       <r>    0.7029    1.0000 </r>
       <r>    0.7072    1.0000 </r>
       <r>    0.7344    1.0000 </r>
       <r>    0.8100    1.0000 </r>
       <r>    0.8117    1.0000 </r>
       <r>    0.8421    1.0000 </r>
       <r>    0.8557    1.0000 </r>
       <r>    0.8566    1.0000 </r>
       <r>    0.8817    1.0000 </r>
       <r>    0.8843    1.0000 </r>
       <r>    0.8852    1.0000 </r>
       <r>    0.9160    1.0000 </r>
       <r>    0.9937    1.0000 </r>
       <r>    0.9981    1.0000 </r>
       <r>    0.9987    1.0000 </r>
       <r>    1.0027    1.0000 </r>
       <r>    1.0243    1.0000 </r>
       <r>    1.0330    1.0000 </r>
       <r>    1.0887    1.0000 </r>
       <r>    1.1062    1.0000 </r>
       <r>    1.2086    1.0000 </r>
       <r>    1.2107    1.0000 </r>
       <r>    1.2243    1.0000 </r>
       <r>    1.2337    1.0000 </r>
       <r>    1.2481    1.0000 </r>
       <r>    1.2510    1.0000 </r>
       <r>    1.2545    1.0000 </r>
       <r>    1.2639    1.0000 </r>
       <r>    1.3171    1.0000 </r>
       <r>    1.3186    1.0000 </r>
       <r>    1.3673    1.0000 </r>
       <r>    1.3679    1.0000 </r>
       <r>    1.4028    1.0000 </r>
       <r>    1.4051    1.0000 </r>
       <r>    1.4403    1.0000 </r>
       <r>    1.4412    1.0000 </r>
       <r>    1.5041    1.0000 </r>
       <r>    1.5054    1.0000 </r>
       <r>    1.5405    1.0000 </r>
       <r>    1.5848    1.0000 </r>
       <r>    1.5904    1.0000 </r>
       <r>    1.5919    1.0000 </r>
       <r>    1.7658    1.0000 </r>
       <r>    1.7703    1.0000 </r>
       <r>    1.8483    1.0000 </r>
       <r>    1.8550    1.0000 </r>
       <r>    1.8622    1.0000 </r>
       <r>    1.8637    1.0000 </r>
       <r>    1.9194    1.0000 </r>
       <r>    1.9262    1.0000 </r>
       <r>    1.9538    1.0000 </r>
       <r>    1.9592    1.0000 </r>
       <r>    1.9807    1.0000 </r>
       <r>    1.9827    1.0000 </r>
       <r>    2.0256    1.0000 </r>
       <r>    2.0257    1.0000 </r>
       <r>    2.0652    1.0000 </r>
       <r>    2.0686    1.0000 </r>
       <r>    2.0952    1.0000 </r>
       <r>    2.0988    1.0000 </r>
       <r>    2.2253    1.0000 </r>
       <r>    2.2306    1.0000 </r>
       <r>    2.4000    1.0000 </r>
       <r>    2.4009    1.0000 </r>
       <r>    2.4048    1.0000 </r>
       <r>    2.4061    1.0000 </r>
       <r>    5.5532    0.0000 </r>
       <r>    6.6708    0.0000 </r>
       <r>    6.6899    0.0000 </r>
       <r>    6.6929    0.0000 </r>
       <r>    6.7215    0.0000 </r>
       <r>    6.8892    0.0000 </r>
       <r>    6.9314    0.0000 </r>
       <r>    7.0001    0.0000 </r>
       <r>    7.0117    0.0000 </r>
       <r>    7.0876    0.0000 </r>
       <r>    7.0970    0.0000 </r>
       <r>    7.1639    0.0000 </r>
       <r>    7.2137    0.0000 </r>
       <r>    7.2144    0.0000 </r>
       <r>    7.2291    0.0000 </r>
       <r>    7.2565    0.0000 </r>
       <r>    7.2900    0.0000 </r>
       <r>    7.2988    0.0000 </r>
       <r>    7.3068    0.0000 </r>
       <r>    7.3296    0.0000 </r>
       <r>    7.3334    0.0000 </r>
       <r>    7.3421    0.0000 </r>
       <r>    7.3449    0.0000 </r>
       <r>    7.3519    0.0000 </r>
       <r>    7.3624    0.0000 </r>
       <r>    7.3636    0.0000 </r>
       <r>    7.3849    0.0000 </r>
       <r>    7.3879    0.0000 </r>
       <r>    7.3935    0.0000 </r>
       <r>    7.3965    0.0000 </r>
       <r>    7.4289    0.0000 </r>
       <r>    7.4326    0.0000 </r>
       <r>    7.4681    0.0000 </r>
       <r>    7.7061    0.0000 </r>
       <r>    7.7418    0.0000 </r>
       <r>    7.7445    0.0000 </r>
       <r>    7.7489    0.0000 </r>
       <r>    7.7995    0.0000 </r>
       <r>    7.8367    0.0000 </r>
       <r>    7.8604    0.0000 </r>
       <r>    7.8770    0.0000 </r>
       <r>    7.8905    0.0000 </r>
       <r>    7.9097    0.0000 </r>
       <r>    7.9190    0.0000 </r>
       <r>    7.9222    0.0000 </r>
       <r>    7.9620    0.0000 </r>
       <r>    8.0048    0.0000 </r>
       <r>    8.0807    0.0000 </r>
       <r>    8.1246    0.0000 </r>
       <r>    8.1677    0.0000 </r>
       <r>    8.1720    0.0000 </r>
       <r>    8.1754    0.0000 </r>
       <r>    8.1874    0.0000 </r>
       <r>    8.2175    0.0000 </r>
       <r>    8.2229    0.0000 </r>
       <r>    8.2257    0.0000 </r>
       <r>    8.2439    0.0000 </r>
       <r>    8.2559    0.0000 </r>
       <r>    8.2716    0.0000 </r>
       <r>    8.2886    0.0000 </r>
       <r>    8.4380    0.0000 </r>
       <r>    8.5705    0.0000 </r>
       <r>    8.5823    0.0000 </r>
       <r>    8.5994    0.0000 </r>
       <r>    8.6387    0.0000 </r>
       <r>    8.6413    0.0000 </r>
       <r>    8.6502    0.0000 </r>
       <r>    8.6682    0.0000 </r>
       <r>    8.6755    0.0000 </r>
       <r>    8.6843    0.0000 </r>
       <r>    8.6880    0.0000 </r>
       <r>    8.6887    0.0000 </r>
       <r>    8.7345    0.0000 </r>
       <r>    8.9039    0.0000 </r>
       <r>    8.9778    0.0000 </r>
       <r>    9.0016    0.0000 </r>
       <r>    9.0175    0.0000 </r>
       <r>    9.0410    0.0000 </r>
       <r>    9.0838    0.0000 </r>
       <r>    9.1263    0.0000 </r>
       <r>    9.2294    0.0000 </r>
       <r>    9.2514    0.0000 </r>
       <r>    9.2661    0.0000 </r>
       <r>    9.2680    0.0000 </r>
       <r>    9.2805    0.0000 </r>
       <r>    9.2868    0.0000 </r>
       <r>    9.2975    0.0000 </r>
       <r>    9.3010    0.0000 </r>
       <r>    9.3050    0.0000 </r>
       <r>    9.3212    0.0000 </r>
       <r>    9.3266    0.0000 </r>
       <r>    9.3284    0.0000 </r>
       <r>    9.3310    0.0000 </r>
       <r>    9.3976    0.0000 </r>
       <r>    9.4950    0.0000 </r>
       <r>    9.5283    0.0000 </r>
       <r>    9.6515    0.0000 </r>
       <r>    9.6842    0.0000 </r>
       <r>    9.6871    0.0000 </r>
       <r>    9.6902    0.0000 </r>
       <r>    9.6922    0.0000 </r>
       <r>    9.7477    0.0000 </r>
       <r>    9.9095    0.0000 </r>
       <r>   10.0792    0.0000 </r>
       <r>   10.0957    0.0000 </r>
       <r>   10.0979    0.0000 </r>
       <r>   10.1086    0.0000 </r>
       <r>   10.1505    0.0000 </r>
       <r>   10.1723    0.0000 </r>
       <r>   10.1780    0.0000 </r>
       <r>   10.1983    0.0000 </r>
       <r>   10.1994    0.0000 </r>
       <r>   10.2305    0.0000 </r>
       <r>   10.2415    0.0000 </r>
       <r>   10.2855    0.0000 </r>
       <r>   10.3095    0.0000 </r>
       <r>   10.3208    0.0000 </r>
       <r>   10.3782    0.0000 </r>
       <r>   10.3819    0.0000 </r>
       <r>   10.3910    0.0000 </r>
       <r>   10.3946    0.0000 </r>
       <r>   10.4230    0.0000 </r>
       <r>   10.4385    0.0000 </r>
       <r>   10.4460    0.0000 </r>
       <r>   10.4788    0.0000 </r>
       <r>   10.5175    0.0000 </r>
       <r>   10.5401    0.0000 </r>
       <r>   10.6303    0.0000 </r>
       <r>   10.6771    0.0000 </r>
       <r>   10.7229    0.0000 </r>
       <r>   10.7237    0.0000 </r>
       <r>   10.7266    0.0000 </r>
       <r>   10.7353    0.0000 </r>
       <r>   10.7534    0.0000 </r>
       <r>   10.7629    0.0000 </r>
       <r>   10.7677    0.0000 </r>
       <r>   10.7898    0.0000 </r>
       <r>   10.7910    0.0000 </r>
       <r>   10.7958    0.0000 </r>
       <r>   10.8161    0.0000 </r>
       <r>   10.8181    0.0000 </r>
       <r>   11.2435    0.0000 </r>
       <r>   11.2610    0.0000 </r>
       <r>   11.4847    0.0000 </r>
       <r>   11.5793    0.0000 </r>
       <r>   11.6683    0.0000 </r>
       <r>   11.7087    0.0000 </r>
       <r>   11.7390    0.0000 </r>
       <r>   11.7458    0.0000 </r>
       <r>   11.7788    0.0000 </r>
       <r>   11.8042    0.0000 </r>
       <r>   12.2756    0.0000 </r>
      </set>
      <set comment="kpoint 4">
       <r>  -17.1662    1.0000 </r>
       <r>  -15.7434    1.0000 </r>
       <r>  -15.6888    1.0000 </r>
       <r>  -15.4149    1.0000 </r>
       <r>  -15.2959    1.0000 </r>
       <r>  -15.2482    1.0000 </r>
       <r>  -15.2277    1.0000 </r>
       <r>  -15.1915    1.0000 </r>
       <r>  -15.1890    1.0000 </r>
       <r>  -15.0944    1.0000 </r>
       <r>  -15.0551    1.0000 </r>
       <r>  -15.0250    1.0000 </r>
       <r>  -15.0078    1.0000 </r>
       <r>  -14.9544    1.0000 </r>
       <r>  -14.9445    1.0000 </r>
       <r>  -14.9371    1.0000 </r>
       <r>  -14.9356    1.0000 </r>
       <r>  -14.8535    1.0000 </r>
       <r>  -14.7533    1.0000 </r>
       <r>  -14.7521    1.0000 </r>
       <r>  -14.6158    1.0000 </r>
       <r>  -14.5683    1.0000 </r>
       <r>  -14.5437    1.0000 </r>
       <r>  -14.4586    1.0000 </r>
       <r>  -14.4440    1.0000 </r>
       <r>  -14.4428    1.0000 </r>
       <r>  -14.4284    1.0000 </r>
       <r>  -14.4257    1.0000 </r>
       <r>  -14.4183    1.0000 </r>
       <r>  -14.4165    1.0000 </r>
       <r>  -14.4143    1.0000 </r>
       <r>  -14.3452    1.0000 </r>
       <r>  -14.2466    1.0000 </r>
       <r>  -14.2419    1.0000 </r>
       <r>  -14.2394    1.0000 </r>
       <r>  -14.2393    1.0000 </r>
       <r>  -14.2000    1.0000 </r>
       <r>  -14.1910    1.0000 </r>
       <r>  -14.1674    1.0000 </r>
       <r>  -14.1658    1.0000 </r>
       <r>  -14.1142    1.0000 </r>
       <r>  -14.0344    1.0000 </r>
       <r>  -13.9965    1.0000 </r>
       <r>  -13.9943    1.0000 </r>
       <r>  -13.9383    1.0000 </r>
       <r>  -13.7865    1.0000 </r>
       <r>  -13.7346    1.0000 </r>
       <r>  -13.7096    1.0000 </r>
       <r>  -13.7079    1.0000 </r>
       <r>  -13.7061    1.0000 </r>
       <r>  -13.6969    1.0000 </r>
       <r>  -13.6951    1.0000 </r>
       <r>  -13.6759    1.0000 </r>
       <r>  -13.6728    1.0000 </r>
       <r>  -13.5996    1.0000 </r>
       <r>  -13.5305    1.0000 </r>
       <r>  -13.5303    1.0000 </r>
       <r>  -13.5162    1.0000 </r>
       <r>  -13.5153    1.0000 </r>
       <r>  -13.5019    1.0000 </r>
       <r>  -13.3575    1.0000 </r>
       <r>  -13.3334    1.0000 </r>
       <r>  -13.2538    1.0000 </r>
       <r>  -13.2221    1.0000 </r>
       <r>  -13.1121    1.0000 </r>
       <r>  -13.0603    1.0000 </r>
       <r>  -13.0536    1.0000 </r>
       <r>  -13.0513    1.0000 </r>
       <r>  -13.0440    1.0000 </r>
       <r>  -13.0390    1.0000 </r>
       <r>  -13.0354    1.0000 </r>
       <r>  -13.0351    1.0000 </r>
       <r>  -13.0330    1.0000 </r>
       <r>  -12.9738    1.0000 </r>
       <r>  -12.9257    1.0000 </r>
       <r>  -12.8875    1.0000 </r>
       <r>  -12.8851    1.0000 </r>
       <r>  -12.8816    1.0000 </r>
       <r>  -12.8800    1.0000 </r>
       <r>  -12.8757    1.0000 </r>
       <r>  -12.8747    1.0000 </r>
       <r>  -12.8731    1.0000 </r>
       <r>  -12.8710    1.0000 </r>
       <r>  -12.8686    1.0000 </r>
       <r>  -12.8659    1.0000 </r>
       <r>  -12.8632    1.0000 </r>
       <r>  -12.8629    1.0000 </r>
       <r>  -12.8594    1.0000 </r>
       <r>  -12.7157    1.0000 </r>
       <r>  -12.7142    1.0000 </r>
       <r>  -12.7137    1.0000 </r>
       <r>  -12.7135    1.0000 </r>
       <r>  -12.6804    1.0000 </r>
       <r>  -12.6080    1.0000 </r>
       <r>  -12.5907    1.0000 </r>
       <r>  -12.5834    1.0000 </r>
       <r>  -12.5694    1.0000 </r>
       <r>  -12.5550    1.0000 </r>
       <r>  -12.5336    1.0000 </r>
       <r>  -12.4984    1.0000 </r>
       <r>  -12.4353    1.0000 </r>
       <r>  -12.4306    1.0000 </r>
       <r>  -12.4238    1.0000 </r>
       <r>  -12.4186    1.0000 </r>
       <r>  -12.3349    1.0000 </r>
       <r>  -12.3327    1.0000 </r>
       <r>  -12.3269    1.0000 </r>
       <r>  -12.3238    1.0000 </r>
       <r>  -12.2433    1.0000 </r>
       <r>  -12.2410    1.0000 </r>
       <r>  -12.2385    1.0000 </r>
       <r>  -12.2352    1.0000 </r>
       <r>  -12.2209    1.0000 </r>
       <r>  -12.2152    1.0000 </r>
       <r>  -12.2107    1.0000 </r>
       <r>  -12.2075    1.0000 </r>
       <r>  -12.1768    1.0000 </r>
       <r>  -12.1764    1.0000 </r>
       <r>  -12.1690    1.0000 </r>
       <r>  -12.1689    1.0000 </r>
       <r>  -12.0957    1.0000 </r>
       <r>  -12.0955    1.0000 </r>
       <r>  -12.0886    1.0000 </r>
       <r>  -12.0876    1.0000 </r>
       <r>  -12.0862    1.0000 </r>
       <r>  -12.0839    1.0000 </r>
       <r>  -11.9498    1.0000 </r>
       <r>  -11.9482    1.0000 </r>
       <r>  -11.9464    1.0000 </r>
       <r>  -11.9447    1.0000 </r>
       <r>  -11.8157    1.0000 </r>
       <r>  -11.8151    1.0000 </r>
       <r>  -11.8061    1.0000 </r>
       <r>  -11.8056    1.0000 </r>
       <r>  -11.8042    1.0000 </r>
       <r>  -11.8036    1.0000 </r>
       <r>  -11.7881    1.0000 </r>
       <r>  -11.7828    1.0000 </r>
       <r>  -11.7818    1.0000 </r>
       <r>  -11.7771    1.0000 </r>
       <r>  -11.6684    1.0000 </r>
       <r>  -11.6681    1.0000 </r>
       <r>  -11.6614    1.0000 </r>
       <r>  -11.6614    1.0000 </r>
       <r>   -8.1625    1.0000 </r>
       <r>   -7.2498    1.0000 </r>
       <r>   -7.2354    1.0000 </r>
       <r>   -6.7831    1.0000 </r>
       <r>   -6.6996    1.0000 </r>
       <r>   -6.6790    1.0000 </r>
       <r>   -6.4258    1.0000 </r>
       <r>   -6.4020    1.0000 </r>
       <r>   -6.3171    1.0000 </r>
       <r>   -6.3070    1.0000 </r>
       <r>   -6.3047    1.0000 </r>
       <r>   -6.3036    1.0000 </r>
       <r>   -6.2987    1.0000 </r>
       <r>   -6.2835    1.0000 </r>
       <r>   -6.2776    1.0000 </r>
       <r>   -6.2718    1.0000 </r>
       <r>   -6.2718    1.0000 </r>
       <r>   -6.2696    1.0000 </r>
       <r>   -6.2143    1.0000 </r>
       <r>   -6.2131    1.0000 </r>
       <r>   -6.2124    1.0000 </r>
       <r>   -6.2043    1.0000 </r>
       <r>   -6.1973    1.0000 </r>
       <r>   -6.1923    1.0000 </r>
       <r>   -6.1585    1.0000 </r>
       <r>   -6.1584    1.0000 </r>
       <r>   -6.1492    1.0000 </r>
       <r>   -6.1491    1.0000 </r>
       <r>   -6.0724    1.0000 </r>
       <r>   -6.0710    1.0000 </r>
       <r>   -5.9318    1.0000 </r>
       <r>   -5.9292    1.0000 </r>
       <r>   -5.9074    1.0000 </r>
       <r>   -5.9072    1.0000 </r>
       <r>   -5.8366    1.0000 </r>
       <r>   -5.7892    1.0000 </r>
       <r>   -5.7819    1.0000 </r>
       <r>   -5.7699    1.0000 </r>
       <r>   -5.7673    1.0000 </r>
       <r>   -5.7632    1.0000 </r>
       <r>   -5.7626    1.0000 </r>
       <r>   -5.7603    1.0000 </r>
       <r>   -5.7591    1.0000 </r>
       <r>   -5.7563    1.0000 </r>
       <r>   -5.7537    1.0000 </r>
       <r>   -5.7514    1.0000 </r>
       <r>   -5.7378    1.0000 </r>
       <r>   -5.6804    1.0000 </r>
       <r>   -5.6521    1.0000 </r>
       <r>   -5.6395    1.0000 </r>
       <r>   -5.6228    1.0000 </r>
       <r>   -5.6228    1.0000 </r>
       <r>   -5.6197    1.0000 </r>
       <r>   -5.6196    1.0000 </r>
       <r>   -5.2291    1.0000 </r>
       <r>   -5.2262    1.0000 </r>
       <r>   -5.2234    1.0000 </r>
       <r>   -5.2230    1.0000 </r>
       <r>   -5.2221    1.0000 </r>
       <r>   -5.2212    1.0000 </r>
       <r>   -5.2206    1.0000 </r>
       <r>   -5.2200    1.0000 </r>
       <r>   -5.2186    1.0000 </r>
       <r>   -5.2184    1.0000 </r>
       <r>   -5.2178    1.0000 </r>
       <r>   -5.2170    1.0000 </r>
       <r>   -5.1067    1.0000 </r>
       <r>   -5.0953    1.0000 </r>
       <r>   -5.0907    1.0000 </r>
       <r>   -5.0905    1.0000 </r>
       <r>   -5.0878    1.0000 </r>
       <r>   -5.0875    1.0000 </r>
       <r>   -5.0874    1.0000 </r>
       <r>   -5.0870    1.0000 </r>
       <r>   -5.0084    1.0000 </r>
       <r>   -4.9189    1.0000 </r>
       <r>   -4.8269    1.0000 </r>
       <r>   -4.5974    1.0000 </r>
       <r>   -4.5430    1.0000 </r>
       <r>   -4.5346    1.0000 </r>
       <r>   -4.4766    1.0000 </r>
       <r>   -4.4728    1.0000 </r>
       <r>   -4.4715    1.0000 </r>
       <r>   -4.4711    1.0000 </r>
       <r>   -4.4705    1.0000 </r>
       <r>   -4.4680    1.0000 </r>
       <r>   -4.4675    1.0000 </r>
       <r>   -4.4653    1.0000 </r>
       <r>   -4.3413    1.0000 </r>
       <r>   -4.3410    1.0000 </r>
       <r>   -4.3408    1.0000 </r>
       <r>   -4.3407    1.0000 </r>
       <r>   -4.3117    1.0000 </r>
       <r>   -4.1905    1.0000 </r>
       <r>   -4.0919    1.0000 </r>
       <r>   -4.0894    1.0000 </r>
       <r>   -4.0870    1.0000 </r>
       <r>   -4.0867    1.0000 </r>
       <r>   -4.0846    1.0000 </r>
       <r>   -4.0827    1.0000 </r>
       <r>   -4.0742    1.0000 </r>
       <r>   -4.0736    1.0000 </r>
       <r>   -4.0720    1.0000 </r>
       <r>   -4.0708    1.0000 </r>
       <r>   -4.0247    1.0000 </r>
       <r>   -3.9501    1.0000 </r>
       <r>   -3.9499    1.0000 </r>
       <r>   -3.9467    1.0000 </r>
       <r>   -3.9466    1.0000 </r>
       <r>   -3.9071    1.0000 </r>
       <r>   -3.8630    1.0000 </r>
       <r>   -3.7742    1.0000 </r>
       <r>   -3.7448    1.0000 </r>
       <r>   -3.6216    1.0000 </r>
       <r>   -3.6196    1.0000 </r>
       <r>   -3.6141    1.0000 </r>
       <r>   -3.6124    1.0000 </r>
       <r>   -3.6068    1.0000 </r>
       <r>   -3.6041    1.0000 </r>
       <r>   -3.5997    1.0000 </r>
       <r>   -3.5988    1.0000 </r>
       <r>   -3.4794    1.0000 </r>
       <r>   -3.4793    1.0000 </r>
       <r>   -3.4741    1.0000 </r>
       <r>   -3.4740    1.0000 </r>
       <r>   -3.4717    1.0000 </r>
       <r>   -3.4684    1.0000 </r>
       <r>   -3.4684    1.0000 </r>
       <r>   -3.4674    1.0000 </r>
       <r>   -3.4649    1.0000 </r>
       <r>   -3.4637    1.0000 </r>
       <r>   -3.4338    1.0000 </r>
       <r>   -3.3437    1.0000 </r>
       <r>   -3.3383    1.0000 </r>
       <r>   -3.3381    1.0000 </r>
       <r>   -3.1461    1.0000 </r>
       <r>   -3.0895    1.0000 </r>
       <r>   -3.0763    1.0000 </r>
       <r>   -3.0743    1.0000 </r>
       <r>   -3.0703    1.0000 </r>
       <r>   -3.0698    1.0000 </r>
       <r>   -3.0674    1.0000 </r>
       <r>   -2.9873    1.0000 </r>
       <r>   -2.9382    1.0000 </r>
       <r>   -2.9376    1.0000 </r>
       <r>   -2.9017    1.0000 </r>
       <r>   -2.8454    1.0000 </r>
       <r>   -2.8076    1.0000 </r>
       <r>   -2.7636    1.0000 </r>
       <r>   -2.7551    1.0000 </r>
       <r>   -2.7510    1.0000 </r>
       <r>   -2.7473    1.0000 </r>
       <r>   -2.7445    1.0000 </r>
       <r>   -2.7230    1.0000 </r>
       <r>   -2.7230    1.0000 </r>
       <r>   -2.6823    1.0000 </r>
       <r>   -2.6767    1.0000 </r>
       <r>   -2.6686    1.0000 </r>
       <r>   -2.6660    1.0000 </r>
       <r>   -2.6630    1.0000 </r>
       <r>   -2.5441    1.0000 </r>
       <r>   -2.5437    1.0000 </r>
       <r>   -2.5186    1.0000 </r>
       <r>   -2.5166    1.0000 </r>
       <r>   -2.5091    1.0000 </r>
       <r>   -2.4552    1.0000 </r>
       <r>   -2.4229    1.0000 </r>
       <r>   -2.4155    1.0000 </r>
       <r>   -2.3854    1.0000 </r>
       <r>   -2.3797    1.0000 </r>
       <r>   -2.3741    1.0000 </r>
       <r>   -2.3731    1.0000 </r>
       <r>   -2.3725    1.0000 </r>
       <r>   -2.3709    1.0000 </r>
       <r>   -2.3703    1.0000 </r>
       <r>   -2.3699    1.0000 </r>
       <r>   -2.3684    1.0000 </r>
       <r>   -2.3571    1.0000 </r>
       <r>   -2.3546    1.0000 </r>
       <r>   -2.3415    1.0000 </r>
       <r>   -2.3169    1.0000 </r>
       <r>   -2.2585    1.0000 </r>
       <r>   -2.2410    1.0000 </r>
       <r>   -2.2404    1.0000 </r>
       <r>   -2.2403    1.0000 </r>
       <r>   -2.2400    1.0000 </r>
       <r>   -2.2095    1.0000 </r>
       <r>   -2.1727    1.0000 </r>
       <r>   -2.1434    1.0000 </r>
       <r>   -2.1271    1.0000 </r>
       <r>   -2.0885    1.0000 </r>
       <r>   -2.0882    1.0000 </r>
       <r>   -2.0880    1.0000 </r>
       <r>   -2.0874    1.0000 </r>
       <r>   -2.0569    1.0000 </r>
       <r>   -2.0544    1.0000 </r>
       <r>   -2.0541    1.0000 </r>
       <r>   -2.0513    1.0000 </r>
       <r>   -2.0152    1.0000 </r>
       <r>   -2.0126    1.0000 </r>
       <r>   -2.0078    1.0000 </r>
       <r>   -2.0006    1.0000 </r>
       <r>   -1.9809    1.0000 </r>
       <r>   -1.9428    1.0000 </r>
       <r>   -1.9428    1.0000 </r>
       <r>   -1.9332    1.0000 </r>
       <r>   -1.9331    1.0000 </r>
       <r>   -1.8960    1.0000 </r>
       <r>   -1.8715    1.0000 </r>
       <r>   -1.8666    1.0000 </r>
       <r>   -1.8664    1.0000 </r>
       <r>   -1.8652    1.0000 </r>
       <r>   -1.8240    1.0000 </r>
       <r>   -1.8224    1.0000 </r>
       <r>   -1.8206    1.0000 </r>
       <r>   -1.8170    1.0000 </r>
       <r>   -1.8165    1.0000 </r>
       <r>   -1.8144    1.0000 </r>
       <r>   -1.7778    1.0000 </r>
       <r>   -1.7768    1.0000 </r>
       <r>   -1.7761    1.0000 </r>
       <r>   -1.7758    1.0000 </r>
       <r>   -1.7755    1.0000 </r>
       <r>   -1.7747    1.0000 </r>
       <r>   -1.7743    1.0000 </r>
       <r>   -1.7711    1.0000 </r>
       <r>   -1.7629    1.0000 </r>
       <r>   -1.7128    1.0000 </r>
       <r>   -1.7055    1.0000 </r>
       <r>   -1.6988    1.0000 </r>
       <r>   -1.6922    1.0000 </r>
       <r>   -1.6580    1.0000 </r>
       <r>   -1.6471    1.0000 </r>
       <r>   -1.6451    1.0000 </r>
       <r>   -1.6450    1.0000 </r>
       <r>   -1.6449    1.0000 </r>
       <r>   -1.6448    1.0000 </r>
       <r>   -1.6345    1.0000 </r>
       <r>   -1.6153    1.0000 </r>
       <r>   -1.6123    1.0000 </r>
       <r>   -1.6043    1.0000 </r>
       <r>   -1.6036    1.0000 </r>
       <r>   -1.5822    1.0000 </r>
       <r>   -1.5797    1.0000 </r>
       <r>   -1.5794    1.0000 </r>
       <r>   -1.5650    1.0000 </r>
       <r>   -1.5642    1.0000 </r>
       <r>   -1.5567    1.0000 </r>
       <r>   -1.5564    1.0000 </r>
       <r>   -1.5521    1.0000 </r>
       <r>   -1.4770    1.0000 </r>
       <r>   -1.4490    1.0000 </r>
       <r>   -1.4409    1.0000 </r>
       <r>   -1.4317    1.0000 </r>
       <r>   -1.3487    1.0000 </r>
       <r>   -1.3485    1.0000 </r>
       <r>   -1.3361    1.0000 </r>
       <r>   -1.3355    1.0000 </r>
       <r>   -1.2297    1.0000 </r>
       <r>   -1.2292    1.0000 </r>
       <r>   -1.2262    1.0000 </r>
       <r>   -1.2259    1.0000 </r>
       <r>   -1.2127    1.0000 </r>
       <r>   -1.2104    1.0000 </r>
       <r>   -1.2100    1.0000 </r>
       <r>   -1.2028    1.0000 </r>
       <r>   -1.1852    1.0000 </r>
       <r>   -1.0912    1.0000 </r>
       <r>   -1.0912    1.0000 </r>
       <r>   -1.0862    1.0000 </r>
       <r>   -1.0861    1.0000 </r>
       <r>   -1.0498    1.0000 </r>
       <r>   -1.0074    1.0000 </r>
       <r>   -0.9825    1.0000 </r>
       <r>   -0.9295    1.0000 </r>
       <r>   -0.8736    1.0000 </r>
       <r>   -0.8654    1.0000 </r>
       <r>   -0.8453    1.0000 </r>
       <r>   -0.7776    1.0000 </r>
       <r>   -0.7754    1.0000 </r>
       <r>   -0.7487    1.0000 </r>
       <r>   -0.7213    1.0000 </r>
       <r>   -0.7164    1.0000 </r>
       <r>   -0.7097    1.0000 </r>
       <r>   -0.7069    1.0000 </r>
       <r>   -0.7031    1.0000 </r>
       <r>   -0.6764    1.0000 </r>
       <r>   -0.6754    1.0000 </r>
       <r>   -0.6741    1.0000 </r>
       <r>   -0.6706    1.0000 </r>
       <r>   -0.6545    1.0000 </r>
       <r>   -0.6539    1.0000 </r>
       <r>   -0.6528    1.0000 </r>
       <r>   -0.6224    1.0000 </r>
       <r>   -0.5216    1.0000 </r>
       <r>   -0.5171    1.0000 </r>
       <r>   -0.5157    1.0000 </r>
       <r>   -0.5148    1.0000 </r>
       <r>   -0.4610    1.0000 </r>
       <r>   -0.4595    1.0000 </r>
       <r>   -0.4576    1.0000 </r>
       <r>   -0.4556    1.0000 </r>
       <r>   -0.4545    1.0000 </r>
       <r>   -0.4537    1.0000 </r>
       <r>   -0.4521    1.0000 </r>
       <r>   -0.4485    1.0000 </r>
       <r>   -0.4262    1.0000 </r>
       <r>   -0.3980    1.0000 </r>
       <r>   -0.3835    1.0000 </r>
       <r>   -0.3834    1.0000 </r>
       <r>   -0.3765    1.0000 </r>
       <r>   -0.3681    1.0000 </r>
       <r>   -0.3600    1.0000 </r>
       <r>   -0.3539    1.0000 </r>
       <r>   -0.3497    1.0000 </r>
       <r>   -0.3482    1.0000 </r>
       <r>   -0.3426    1.0000 </r>
       <r>   -0.3396    1.0000 </r>
       <r>   -0.3269    1.0000 </r>
       <r>   -0.3263    1.0000 </r>
       <r>   -0.3261    1.0000 </r>
       <r>   -0.3258    1.0000 </r>
       <r>   -0.2760    1.0000 </r>
       <r>   -0.2255    1.0000 </r>
       <r>   -0.2250    1.0000 </r>
       <r>   -0.0986    1.0000 </r>
       <r>   -0.0450    1.0000 </r>
       <r>    0.0265    1.0000 </r>
       <r>    0.0688    1.0000 </r>
       <r>    0.1213    1.0000 </r>
       <r>    0.1580    1.0000 </r>
       <r>    0.1584    1.0000 </r>
       <r>    0.1761    1.0000 </r>
       <r>    0.1874    1.0000 </r>
       <r>    0.2011    1.0000 </r>
       <r>    0.2133    1.0000 </r>
       <r>    0.2144    1.0000 </r>
       <r>    0.2179    1.0000 </r>
       <r>    0.2207    1.0000 </r>
       <r>    0.2403    1.0000 </r>
       <r>    0.2435    1.0000 </r>
       <r>    0.2930    1.0000 </r>
       <r>    0.3186    1.0000 </r>
       <r>    0.3223    1.0000 </r>
       <r>    0.3442    1.0000 </r>
       <r>    0.3474    1.0000 </r>
       <r>    0.3496    1.0000 </r>
       <r>    0.3509    1.0000 </r>
       <r>    0.3703    1.0000 </r>
       <r>    0.3787    1.0000 </r>
       <r>    0.3968    1.0000 </r>
       <r>    0.4573    1.0000 </r>
       <r>    0.4591    1.0000 </r>
       <r>    0.4642    1.0000 </r>
       <r>    0.4650    1.0000 </r>
       <r>    0.4660    1.0000 </r>
       <r>    0.4765    1.0000 </r>
       <r>    0.4772    1.0000 </r>
       <r>    0.4776    1.0000 </r>
       <r>    0.5558    1.0000 </r>
       <r>    0.5601    1.0000 </r>
       <r>    0.5662    1.0000 </r>
       <r>    0.5869    1.0000 </r>
       <r>    0.5941    1.0000 </r>
       <r>    0.6939    1.0000 </r>
       <r>    0.6953    1.0000 </r>
       <r>    0.7027    1.0000 </r>
       <r>    0.7076    1.0000 </r>
       <r>    0.7343    1.0000 </r>
       <r>    0.8106    1.0000 </r>
       <r>    0.8114    1.0000 </r>
       <r>    0.8419    1.0000 </r>
       <r>    0.8561    1.0000 </r>
       <r>    0.8579    1.0000 </r>
       <r>    0.8779    1.0000 </r>
       <r>    0.8824    1.0000 </r>
       <r>    0.8846    1.0000 </r>
       <r>    0.9146    1.0000 </r>
       <r>    0.9937    1.0000 </r>
       <r>    0.9980    1.0000 </r>
       <r>    0.9987    1.0000 </r>
       <r>    1.0027    1.0000 </r>
       <r>    1.0234    1.0000 </r>
       <r>    1.0336    1.0000 </r>
       <r>    1.0887    1.0000 </r>
       <r>    1.1065    1.0000 </r>
       <r>    1.2085    1.0000 </r>
       <r>    1.2106    1.0000 </r>
       <r>    1.2245    1.0000 </r>
       <r>    1.2341    1.0000 </r>
       <r>    1.2489    1.0000 </r>
       <r>    1.2502    1.0000 </r>
       <r>    1.2542    1.0000 </r>
       <r>    1.2642    1.0000 </r>
       <r>    1.3175    1.0000 </r>
       <r>    1.3186    1.0000 </r>
       <r>    1.3670    1.0000 </r>
       <r>    1.3677    1.0000 </r>
       <r>    1.4035    1.0000 </r>
       <r>    1.4057    1.0000 </r>
       <r>    1.4383    1.0000 </r>
       <r>    1.4427    1.0000 </r>
       <r>    1.5036    1.0000 </r>
       <r>    1.5058    1.0000 </r>
       <r>    1.5410    1.0000 </r>
       <r>    1.5844    1.0000 </r>
       <r>    1.5899    1.0000 </r>
       <r>    1.5918    1.0000 </r>
       <r>    1.7659    1.0000 </r>
       <r>    1.7704    1.0000 </r>
       <r>    1.8469    1.0000 </r>
       <r>    1.8556    1.0000 </r>
       <r>    1.8619    1.0000 </r>
       <r>    1.8641    1.0000 </r>
       <r>    1.9204    1.0000 </r>
       <r>    1.9257    1.0000 </r>
       <r>    1.9549    1.0000 </r>
       <r>    1.9577    1.0000 </r>
       <r>    1.9808    1.0000 </r>
       <r>    1.9831    1.0000 </r>
       <r>    2.0255    1.0000 </r>
       <r>    2.0256    1.0000 </r>
       <r>    2.0662    1.0000 </r>
       <r>    2.0692    1.0000 </r>
       <r>    2.0950    1.0000 </r>
       <r>    2.0978    1.0000 </r>
       <r>    2.2247    1.0000 </r>
       <r>    2.2309    1.0000 </r>
       <r>    2.4005    1.0000 </r>
       <r>    2.4012    1.0000 </r>
       <r>    2.4043    1.0000 </r>
       <r>    2.4058    1.0000 </r>
       <r>    5.5532    0.0000 </r>
       <r>    6.6711    0.0000 </r>
       <r>    6.6901    0.0000 </r>
       <r>    6.6926    0.0000 </r>
       <r>    6.7215    0.0000 </r>
       <r>    6.8894    0.0000 </r>
       <r>    6.9301    0.0000 </r>
       <r>    7.0003    0.0000 </r>
       <r>    7.0119    0.0000 </r>
       <r>    7.0879    0.0000 </r>
       <r>    7.0970    0.0000 </r>
       <r>    7.1641    0.0000 </r>
       <r>    7.2139    0.0000 </r>
       <r>    7.2145    0.0000 </r>
       <r>    7.2293    0.0000 </r>
       <r>    7.2564    0.0000 </r>
       <r>    7.2900    0.0000 </r>
       <r>    7.2986    0.0000 </r>
       <r>    7.3088    0.0000 </r>
       <r>    7.3284    0.0000 </r>
       <r>    7.3332    0.0000 </r>
       <r>    7.3421    0.0000 </r>
       <r>    7.3448    0.0000 </r>
       <r>    7.3519    0.0000 </r>
       <r>    7.3623    0.0000 </r>
       <r>    7.3638    0.0000 </r>
       <r>    7.3854    0.0000 </r>
       <r>    7.3881    0.0000 </r>
       <r>    7.3941    0.0000 </r>
       <r>    7.3962    0.0000 </r>
       <r>    7.4271    0.0000 </r>
       <r>    7.4318    0.0000 </r>
       <r>    7.4684    0.0000 </r>
       <r>    7.7052    0.0000 </r>
       <r>    7.7418    0.0000 </r>
       <r>    7.7450    0.0000 </r>
       <r>    7.7487    0.0000 </r>
       <r>    7.7996    0.0000 </r>
       <r>    7.8369    0.0000 </r>
       <r>    7.8603    0.0000 </r>
       <r>    7.8767    0.0000 </r>
       <r>    7.8907    0.0000 </r>
       <r>    7.9100    0.0000 </r>
       <r>    7.9192    0.0000 </r>
       <r>    7.9228    0.0000 </r>
       <r>    7.9632    0.0000 </r>
       <r>    8.0053    0.0000 </r>
       <r>    8.0811    0.0000 </r>
       <r>    8.1248    0.0000 </r>
       <r>    8.1677    0.0000 </r>
       <r>    8.1707    0.0000 </r>
       <r>    8.1760    0.0000 </r>
       <r>    8.1872    0.0000 </r>
       <r>    8.2158    0.0000 </r>
       <r>    8.2222    0.0000 </r>
       <r>    8.2257    0.0000 </r>
       <r>    8.2439    0.0000 </r>
       <r>    8.2561    0.0000 </r>
       <r>    8.2715    0.0000 </r>
       <r>    8.2889    0.0000 </r>
       <r>    8.4373    0.0000 </r>
       <r>    8.5694    0.0000 </r>
       <r>    8.5821    0.0000 </r>
       <r>    8.5995    0.0000 </r>
       <r>    8.6384    0.0000 </r>
       <r>    8.6415    0.0000 </r>
       <r>    8.6503    0.0000 </r>
       <r>    8.6675    0.0000 </r>
       <r>    8.6742    0.0000 </r>
       <r>    8.6846    0.0000 </r>
       <r>    8.6883    0.0000 </r>
       <r>    8.6898    0.0000 </r>
       <r>    8.7351    0.0000 </r>
       <r>    8.9040    0.0000 </r>
       <r>    8.9778    0.0000 </r>
       <r>    9.0018    0.0000 </r>
       <r>    9.0176    0.0000 </r>
       <r>    9.0409    0.0000 </r>
       <r>    9.0840    0.0000 </r>
       <r>    9.1268    0.0000 </r>
       <r>    9.2294    0.0000 </r>
       <r>    9.2516    0.0000 </r>
       <r>    9.2664    0.0000 </r>
       <r>    9.2682    0.0000 </r>
       <r>    9.2813    0.0000 </r>
       <r>    9.2865    0.0000 </r>
       <r>    9.2972    0.0000 </r>
       <r>    9.3007    0.0000 </r>
       <r>    9.3050    0.0000 </r>
       <r>    9.3214    0.0000 </r>
       <r>    9.3265    0.0000 </r>
       <r>    9.3296    0.0000 </r>
       <r>    9.3310    0.0000 </r>
       <r>    9.3971    0.0000 </r>
       <r>    9.4951    0.0000 </r>
       <r>    9.5284    0.0000 </r>
       <r>    9.6518    0.0000 </r>
       <r>    9.6846    0.0000 </r>
       <r>    9.6870    0.0000 </r>
       <r>    9.6904    0.0000 </r>
       <r>    9.6923    0.0000 </r>
       <r>    9.7478    0.0000 </r>
       <r>    9.9095    0.0000 </r>
       <r>   10.0794    0.0000 </r>
       <r>   10.0956    0.0000 </r>
       <r>   10.0976    0.0000 </r>
       <r>   10.1090    0.0000 </r>
       <r>   10.1510    0.0000 </r>
       <r>   10.1722    0.0000 </r>
       <r>   10.1772    0.0000 </r>
       <r>   10.1981    0.0000 </r>
       <r>   10.1995    0.0000 </r>
       <r>   10.2295    0.0000 </r>
       <r>   10.2420    0.0000 </r>
       <r>   10.2841    0.0000 </r>
       <r>   10.3113    0.0000 </r>
       <r>   10.3199    0.0000 </r>
       <r>   10.3780    0.0000 </r>
       <r>   10.3821    0.0000 </r>
       <r>   10.3908    0.0000 </r>
       <r>   10.3941    0.0000 </r>
       <r>   10.4232    0.0000 </r>
       <r>   10.4395    0.0000 </r>
       <r>   10.4474    0.0000 </r>
       <r>   10.4755    0.0000 </r>
       <r>   10.5166    0.0000 </r>
       <r>   10.5398    0.0000 </r>
       <r>   10.6311    0.0000 </r>
       <r>   10.6768    0.0000 </r>
       <r>   10.7225    0.0000 </r>
       <r>   10.7233    0.0000 </r>
       <r>   10.7271    0.0000 </r>
       <r>   10.7353    0.0000 </r>
       <r>   10.7526    0.0000 </r>
       <r>   10.7616    0.0000 </r>
       <r>   10.7698    0.0000 </r>
       <r>   10.7891    0.0000 </r>
       <r>   10.7919    0.0000 </r>
       <r>   10.7955    0.0000 </r>
       <r>   10.8158    0.0000 </r>
       <r>   10.8179    0.0000 </r>
       <r>   11.2460    0.0000 </r>
       <r>   11.2649    0.0000 </r>
       <r>   11.5466    0.0000 </r>
       <r>   11.5900    0.0000 </r>
       <r>   11.6288    0.0000 </r>
       <r>   11.6713    0.0000 </r>
       <r>   11.7413    0.0000 </r>
       <r>   11.7426    0.0000 </r>
       <r>   11.7894    0.0000 </r>
       <r>   11.8153    0.0000 </r>
       <r>   12.3890    0.0000 </r>
      </set>
      <set comment="kpoint 5">
       <r>  -17.1664    1.0000 </r>
       <r>  -15.6765    1.0000 </r>
       <r>  -15.6763    1.0000 </r>
       <r>  -15.5680    1.0000 </r>
       <r>  -15.3955    1.0000 </r>
       <r>  -15.3096    1.0000 </r>
       <r>  -15.1585    1.0000 </r>
       <r>  -15.1568    1.0000 </r>
       <r>  -15.1563    1.0000 </r>
       <r>  -15.0699    1.0000 </r>
       <r>  -14.8861    1.0000 </r>
       <r>  -14.8655    1.0000 </r>
       <r>  -14.8639    1.0000 </r>
       <r>  -14.8456    1.0000 </r>
       <r>  -14.8394    1.0000 </r>
       <r>  -14.8373    1.0000 </r>
       <r>  -14.8355    1.0000 </r>
       <r>  -14.8344    1.0000 </r>
       <r>  -14.8251    1.0000 </r>
       <r>  -14.7651    1.0000 </r>
       <r>  -14.7627    1.0000 </r>
       <r>  -14.7415    1.0000 </r>
       <r>  -14.7038    1.0000 </r>
       <r>  -14.7033    1.0000 </r>
       <r>  -14.6440    1.0000 </r>
       <r>  -14.6342    1.0000 </r>
       <r>  -14.6334    1.0000 </r>
       <r>  -14.6199    1.0000 </r>
       <r>  -14.6188    1.0000 </r>
       <r>  -14.6119    1.0000 </r>
       <r>  -14.5464    1.0000 </r>
       <r>  -14.2499    1.0000 </r>
       <r>  -14.2496    1.0000 </r>
       <r>  -14.2409    1.0000 </r>
       <r>  -13.9120    1.0000 </r>
       <r>  -13.9111    1.0000 </r>
       <r>  -13.8503    1.0000 </r>
       <r>  -13.8457    1.0000 </r>
       <r>  -13.8444    1.0000 </r>
       <r>  -13.8424    1.0000 </r>
       <r>  -13.8390    1.0000 </r>
       <r>  -13.8390    1.0000 </r>
       <r>  -13.8374    1.0000 </r>
       <r>  -13.8087    1.0000 </r>
       <r>  -13.7960    1.0000 </r>
       <r>  -13.7949    1.0000 </r>
       <r>  -13.7844    1.0000 </r>
       <r>  -13.7791    1.0000 </r>
       <r>  -13.7772    1.0000 </r>
       <r>  -13.7497    1.0000 </r>
       <r>  -13.7495    1.0000 </r>
       <r>  -13.7493    1.0000 </r>
       <r>  -13.6390    1.0000 </r>
       <r>  -13.6384    1.0000 </r>
       <r>  -13.6377    1.0000 </r>
       <r>  -13.6364    1.0000 </r>
       <r>  -13.6363    1.0000 </r>
       <r>  -13.6357    1.0000 </r>
       <r>  -13.3979    1.0000 </r>
       <r>  -13.3970    1.0000 </r>
       <r>  -13.3941    1.0000 </r>
       <r>  -13.3940    1.0000 </r>
       <r>  -13.3933    1.0000 </r>
       <r>  -13.3897    1.0000 </r>
       <r>  -13.3722    1.0000 </r>
       <r>  -13.3701    1.0000 </r>
       <r>  -13.3564    1.0000 </r>
       <r>  -13.3514    1.0000 </r>
       <r>  -13.3495    1.0000 </r>
       <r>  -13.3455    1.0000 </r>
       <r>  -13.2602    1.0000 </r>
       <r>  -13.2601    1.0000 </r>
       <r>  -13.2051    1.0000 </r>
       <r>  -13.2048    1.0000 </r>
       <r>  -13.2041    1.0000 </r>
       <r>  -13.2040    1.0000 </r>
       <r>  -13.2037    1.0000 </r>
       <r>  -13.2027    1.0000 </r>
       <r>  -12.8860    1.0000 </r>
       <r>  -12.8558    1.0000 </r>
       <r>  -12.8555    1.0000 </r>
       <r>  -12.7716    1.0000 </r>
       <r>  -12.6722    1.0000 </r>
       <r>  -12.5884    1.0000 </r>
       <r>  -12.5882    1.0000 </r>
       <r>  -12.5880    1.0000 </r>
       <r>  -12.5326    1.0000 </r>
       <r>  -12.5324    1.0000 </r>
       <r>  -12.4965    1.0000 </r>
       <r>  -12.4964    1.0000 </r>
       <r>  -12.4671    1.0000 </r>
       <r>  -12.3484    1.0000 </r>
       <r>  -12.3340    1.0000 </r>
       <r>  -12.3322    1.0000 </r>
       <r>  -12.3222    1.0000 </r>
       <r>  -12.3198    1.0000 </r>
       <r>  -12.3165    1.0000 </r>
       <r>  -12.3134    1.0000 </r>
       <r>  -12.3118    1.0000 </r>
       <r>  -12.3056    1.0000 </r>
       <r>  -12.3035    1.0000 </r>
       <r>  -12.2967    1.0000 </r>
       <r>  -12.2944    1.0000 </r>
       <r>  -12.2920    1.0000 </r>
       <r>  -12.2896    1.0000 </r>
       <r>  -12.2885    1.0000 </r>
       <r>  -12.2874    1.0000 </r>
       <r>  -12.2784    1.0000 </r>
       <r>  -12.2739    1.0000 </r>
       <r>  -12.2710    1.0000 </r>
       <r>  -12.2695    1.0000 </r>
       <r>  -12.2689    1.0000 </r>
       <r>  -12.2665    1.0000 </r>
       <r>  -12.2561    1.0000 </r>
       <r>  -12.2491    1.0000 </r>
       <r>  -12.1942    1.0000 </r>
       <r>  -12.1916    1.0000 </r>
       <r>  -12.1908    1.0000 </r>
       <r>  -12.1851    1.0000 </r>
       <r>  -12.1830    1.0000 </r>
       <r>  -12.1795    1.0000 </r>
       <r>  -12.1584    1.0000 </r>
       <r>  -12.1582    1.0000 </r>
       <r>  -12.1539    1.0000 </r>
       <r>  -12.1533    1.0000 </r>
       <r>  -12.1518    1.0000 </r>
       <r>  -12.1517    1.0000 </r>
       <r>  -12.1443    1.0000 </r>
       <r>  -12.1440    1.0000 </r>
       <r>  -12.1422    1.0000 </r>
       <r>  -12.1420    1.0000 </r>
       <r>  -12.1395    1.0000 </r>
       <r>  -12.1393    1.0000 </r>
       <r>  -12.0618    1.0000 </r>
       <r>  -12.0617    1.0000 </r>
       <r>  -12.0615    1.0000 </r>
       <r>  -11.9603    1.0000 </r>
       <r>  -11.9602    1.0000 </r>
       <r>  -11.5964    1.0000 </r>
       <r>  -11.5941    1.0000 </r>
       <r>  -11.5939    1.0000 </r>
       <r>  -11.5910    1.0000 </r>
       <r>  -11.4688    1.0000 </r>
       <r>  -11.4688    1.0000 </r>
       <r>   -8.1768    1.0000 </r>
       <r>   -7.2991    1.0000 </r>
       <r>   -7.2989    1.0000 </r>
       <r>   -6.5942    1.0000 </r>
       <r>   -6.5940    1.0000 </r>
       <r>   -6.5339    1.0000 </r>
       <r>   -6.5258    1.0000 </r>
       <r>   -6.5253    1.0000 </r>
       <r>   -6.5247    1.0000 </r>
       <r>   -6.5206    1.0000 </r>
       <r>   -6.5193    1.0000 </r>
       <r>   -6.5024    1.0000 </r>
       <r>   -6.4693    1.0000 </r>
       <r>   -6.3900    1.0000 </r>
       <r>   -6.3899    1.0000 </r>
       <r>   -6.3899    1.0000 </r>
       <r>   -6.3093    1.0000 </r>
       <r>   -6.3092    1.0000 </r>
       <r>   -6.0935    1.0000 </r>
       <r>   -6.0934    1.0000 </r>
       <r>   -6.0275    1.0000 </r>
       <r>   -6.0273    1.0000 </r>
       <r>   -6.0045    1.0000 </r>
       <r>   -5.9866    1.0000 </r>
       <r>   -5.9061    1.0000 </r>
       <r>   -5.9060    1.0000 </r>
       <r>   -5.7168    1.0000 </r>
       <r>   -5.7160    1.0000 </r>
       <r>   -5.7109    1.0000 </r>
       <r>   -5.7100    1.0000 </r>
       <r>   -5.7089    1.0000 </r>
       <r>   -5.7081    1.0000 </r>
       <r>   -5.7026    1.0000 </r>
       <r>   -5.7018    1.0000 </r>
       <r>   -5.6938    1.0000 </r>
       <r>   -5.6895    1.0000 </r>
       <r>   -5.6884    1.0000 </r>
       <r>   -5.6858    1.0000 </r>
       <r>   -5.6842    1.0000 </r>
       <r>   -5.6836    1.0000 </r>
       <r>   -5.6792    1.0000 </r>
       <r>   -5.6773    1.0000 </r>
       <r>   -5.6715    1.0000 </r>
       <r>   -5.6704    1.0000 </r>
       <r>   -5.6702    1.0000 </r>
       <r>   -5.6693    1.0000 </r>
       <r>   -5.6646    1.0000 </r>
       <r>   -5.6636    1.0000 </r>
       <r>   -5.6629    1.0000 </r>
       <r>   -5.6594    1.0000 </r>
       <r>   -5.5809    1.0000 </r>
       <r>   -5.5802    1.0000 </r>
       <r>   -5.5589    1.0000 </r>
       <r>   -5.5585    1.0000 </r>
       <r>   -5.5583    1.0000 </r>
       <r>   -5.5578    1.0000 </r>
       <r>   -5.5550    1.0000 </r>
       <r>   -5.5542    1.0000 </r>
       <r>   -5.5539    1.0000 </r>
       <r>   -5.5539    1.0000 </r>
       <r>   -5.5506    1.0000 </r>
       <r>   -5.5505    1.0000 </r>
       <r>   -5.5472    1.0000 </r>
       <r>   -5.5469    1.0000 </r>
       <r>   -5.5468    1.0000 </r>
       <r>   -5.5467    1.0000 </r>
       <r>   -5.4184    1.0000 </r>
       <r>   -5.4183    1.0000 </r>
       <r>   -5.3587    1.0000 </r>
       <r>   -5.2307    1.0000 </r>
       <r>   -5.1381    1.0000 </r>
       <r>   -5.1380    1.0000 </r>
       <r>   -4.9855    1.0000 </r>
       <r>   -4.9187    1.0000 </r>
       <r>   -4.9186    1.0000 </r>
       <r>   -4.8706    1.0000 </r>
       <r>   -4.7459    1.0000 </r>
       <r>   -4.7458    1.0000 </r>
       <r>   -4.7455    1.0000 </r>
       <r>   -4.7455    1.0000 </r>
       <r>   -4.6191    1.0000 </r>
       <r>   -4.6191    1.0000 </r>
       <r>   -4.4817    1.0000 </r>
       <r>   -4.4802    1.0000 </r>
       <r>   -4.4787    1.0000 </r>
       <r>   -4.4765    1.0000 </r>
       <r>   -4.4749    1.0000 </r>
       <r>   -4.4745    1.0000 </r>
       <r>   -4.4729    1.0000 </r>
       <r>   -4.4721    1.0000 </r>
       <r>   -4.4707    1.0000 </r>
       <r>   -4.4686    1.0000 </r>
       <r>   -4.4668    1.0000 </r>
       <r>   -4.4654    1.0000 </r>
       <r>   -4.3392    1.0000 </r>
       <r>   -4.3390    1.0000 </r>
       <r>   -4.3390    1.0000 </r>
       <r>   -4.3388    1.0000 </r>
       <r>   -4.3388    1.0000 </r>
       <r>   -4.3386    1.0000 </r>
       <r>   -4.0740    1.0000 </r>
       <r>   -4.0360    1.0000 </r>
       <r>   -3.9236    1.0000 </r>
       <r>   -3.9235    1.0000 </r>
       <r>   -3.6230    1.0000 </r>
       <r>   -3.6230    1.0000 </r>
       <r>   -3.5974    1.0000 </r>
       <r>   -3.5859    1.0000 </r>
       <r>   -3.5589    1.0000 </r>
       <r>   -3.5154    1.0000 </r>
       <r>   -3.5152    1.0000 </r>
       <r>   -3.4228    1.0000 </r>
       <r>   -3.3535    1.0000 </r>
       <r>   -3.3181    1.0000 </r>
       <r>   -3.3179    1.0000 </r>
       <r>   -3.3031    1.0000 </r>
       <r>   -3.3029    1.0000 </r>
       <r>   -3.2200    1.0000 </r>
       <r>   -3.2167    1.0000 </r>
       <r>   -3.2160    1.0000 </r>
       <r>   -3.1818    1.0000 </r>
       <r>   -3.1728    1.0000 </r>
       <r>   -3.1725    1.0000 </r>
       <r>   -3.1030    1.0000 </r>
       <r>   -3.0998    1.0000 </r>
       <r>   -3.0979    1.0000 </r>
       <r>   -3.0967    1.0000 </r>
       <r>   -3.0965    1.0000 </r>
       <r>   -3.0964    1.0000 </r>
       <r>   -3.0960    1.0000 </r>
       <r>   -3.0959    1.0000 </r>
       <r>   -3.0956    1.0000 </r>
       <r>   -3.0953    1.0000 </r>
       <r>   -3.0936    1.0000 </r>
       <r>   -3.0906    1.0000 </r>
       <r>   -3.0190    1.0000 </r>
       <r>   -3.0178    1.0000 </r>
       <r>   -2.9689    1.0000 </r>
       <r>   -2.9689    1.0000 </r>
       <r>   -2.9688    1.0000 </r>
       <r>   -2.9688    1.0000 </r>
       <r>   -2.9688    1.0000 </r>
       <r>   -2.9687    1.0000 </r>
       <r>   -2.9648    1.0000 </r>
       <r>   -2.9257    1.0000 </r>
       <r>   -2.9255    1.0000 </r>
       <r>   -2.9211    1.0000 </r>
       <r>   -2.9209    1.0000 </r>
       <r>   -2.9195    1.0000 </r>
       <r>   -2.9192    1.0000 </r>
       <r>   -2.9137    1.0000 </r>
       <r>   -2.9135    1.0000 </r>
       <r>   -2.9090    1.0000 </r>
       <r>   -2.9041    1.0000 </r>
       <r>   -2.9030    1.0000 </r>
       <r>   -2.8976    1.0000 </r>
       <r>   -2.8959    1.0000 </r>
       <r>   -2.8930    1.0000 </r>
       <r>   -2.8894    1.0000 </r>
       <r>   -2.8866    1.0000 </r>
       <r>   -2.8816    1.0000 </r>
       <r>   -2.8811    1.0000 </r>
       <r>   -2.8800    1.0000 </r>
       <r>   -2.8793    1.0000 </r>
       <r>   -2.8753    1.0000 </r>
       <r>   -2.8742    1.0000 </r>
       <r>   -2.8727    1.0000 </r>
       <r>   -2.8695    1.0000 </r>
       <r>   -2.8573    1.0000 </r>
       <r>   -2.8303    1.0000 </r>
       <r>   -2.8291    1.0000 </r>
       <r>   -2.8041    1.0000 </r>
       <r>   -2.8026    1.0000 </r>
       <r>   -2.7915    1.0000 </r>
       <r>   -2.7722    1.0000 </r>
       <r>   -2.7721    1.0000 </r>
       <r>   -2.7719    1.0000 </r>
       <r>   -2.7709    1.0000 </r>
       <r>   -2.7677    1.0000 </r>
       <r>   -2.7676    1.0000 </r>
       <r>   -2.7626    1.0000 </r>
       <r>   -2.7624    1.0000 </r>
       <r>   -2.7596    1.0000 </r>
       <r>   -2.7593    1.0000 </r>
       <r>   -2.7586    1.0000 </r>
       <r>   -2.7585    1.0000 </r>
       <r>   -2.3796    1.0000 </r>
       <r>   -2.2337    1.0000 </r>
       <r>   -2.2335    1.0000 </r>
       <r>   -2.2123    1.0000 </r>
       <r>   -2.1185    1.0000 </r>
       <r>   -2.0970    1.0000 </r>
       <r>   -2.0898    1.0000 </r>
       <r>   -2.0897    1.0000 </r>
       <r>   -1.9785    1.0000 </r>
       <r>   -1.9483    1.0000 </r>
       <r>   -1.9471    1.0000 </r>
       <r>   -1.9458    1.0000 </r>
       <r>   -1.9457    1.0000 </r>
       <r>   -1.8931    1.0000 </r>
       <r>   -1.7158    1.0000 </r>
       <r>   -1.7144    1.0000 </r>
       <r>   -1.7135    1.0000 </r>
       <r>   -1.7107    1.0000 </r>
       <r>   -1.7098    1.0000 </r>
       <r>   -1.7084    1.0000 </r>
       <r>   -1.6822    1.0000 </r>
       <r>   -1.6811    1.0000 </r>
       <r>   -1.6692    1.0000 </r>
       <r>   -1.6616    1.0000 </r>
       <r>   -1.6346    1.0000 </r>
       <r>   -1.6341    1.0000 </r>
       <r>   -1.5941    1.0000 </r>
       <r>   -1.5931    1.0000 </r>
       <r>   -1.5807    1.0000 </r>
       <r>   -1.5806    1.0000 </r>
       <r>   -1.5806    1.0000 </r>
       <r>   -1.5722    1.0000 </r>
       <r>   -1.5721    1.0000 </r>
       <r>   -1.5677    1.0000 </r>
       <r>   -1.5476    1.0000 </r>
       <r>   -1.5219    1.0000 </r>
       <r>   -1.5218    1.0000 </r>
       <r>   -1.5041    1.0000 </r>
       <r>   -1.5019    1.0000 </r>
       <r>   -1.5016    1.0000 </r>
       <r>   -1.5009    1.0000 </r>
       <r>   -1.5001    1.0000 </r>
       <r>   -1.4989    1.0000 </r>
       <r>   -1.4974    1.0000 </r>
       <r>   -1.4919    1.0000 </r>
       <r>   -1.4906    1.0000 </r>
       <r>   -1.4904    1.0000 </r>
       <r>   -1.4904    1.0000 </r>
       <r>   -1.4890    1.0000 </r>
       <r>   -1.4881    1.0000 </r>
       <r>   -1.4862    1.0000 </r>
       <r>   -1.4846    1.0000 </r>
       <r>   -1.4812    1.0000 </r>
       <r>   -1.4460    1.0000 </r>
       <r>   -1.4449    1.0000 </r>
       <r>   -1.4302    1.0000 </r>
       <r>   -1.4296    1.0000 </r>
       <r>   -1.4293    1.0000 </r>
       <r>   -1.3859    1.0000 </r>
       <r>   -1.3790    1.0000 </r>
       <r>   -1.3782    1.0000 </r>
       <r>   -1.3753    1.0000 </r>
       <r>   -1.3719    1.0000 </r>
       <r>   -1.3710    1.0000 </r>
       <r>   -1.3628    1.0000 </r>
       <r>   -1.3627    1.0000 </r>
       <r>   -1.3617    1.0000 </r>
       <r>   -1.3595    1.0000 </r>
       <r>   -1.3593    1.0000 </r>
       <r>   -1.3593    1.0000 </r>
       <r>   -1.2299    1.0000 </r>
       <r>   -1.2219    1.0000 </r>
       <r>   -1.2215    1.0000 </r>
       <r>   -1.1574    1.0000 </r>
       <r>   -1.1525    1.0000 </r>
       <r>   -1.1513    1.0000 </r>
       <r>   -1.1505    1.0000 </r>
       <r>   -1.1496    1.0000 </r>
       <r>   -1.1494    1.0000 </r>
       <r>   -1.1490    1.0000 </r>
       <r>   -1.1472    1.0000 </r>
       <r>   -1.1468    1.0000 </r>
       <r>   -1.1459    1.0000 </r>
       <r>   -1.1446    1.0000 </r>
       <r>   -1.1404    1.0000 </r>
       <r>   -1.1232    1.0000 </r>
       <r>   -1.1220    1.0000 </r>
       <r>   -1.1206    1.0000 </r>
       <r>   -1.0674    1.0000 </r>
       <r>   -1.0195    1.0000 </r>
       <r>   -1.0194    1.0000 </r>
       <r>   -1.0193    1.0000 </r>
       <r>   -1.0191    1.0000 </r>
       <r>   -1.0189    1.0000 </r>
       <r>   -1.0189    1.0000 </r>
       <r>   -1.0031    1.0000 </r>
       <r>   -1.0025    1.0000 </r>
       <r>   -0.9873    1.0000 </r>
       <r>   -0.8602    1.0000 </r>
       <r>   -0.8601    1.0000 </r>
       <r>   -0.8596    1.0000 </r>
       <r>   -0.8508    1.0000 </r>
       <r>   -0.8504    1.0000 </r>
       <r>   -0.8493    1.0000 </r>
       <r>   -0.8468    1.0000 </r>
       <r>   -0.8413    1.0000 </r>
       <r>   -0.8365    1.0000 </r>
       <r>   -0.8344    1.0000 </r>
       <r>   -0.8317    1.0000 </r>
       <r>   -0.8254    1.0000 </r>
       <r>   -0.7510    1.0000 </r>
       <r>   -0.7468    1.0000 </r>
       <r>   -0.7454    1.0000 </r>
       <r>   -0.7442    1.0000 </r>
       <r>   -0.7433    1.0000 </r>
       <r>   -0.7403    1.0000 </r>
       <r>   -0.7229    1.0000 </r>
       <r>   -0.7211    1.0000 </r>
       <r>   -0.7210    1.0000 </r>
       <r>   -0.7155    1.0000 </r>
       <r>   -0.7153    1.0000 </r>
       <r>   -0.7127    1.0000 </r>
       <r>   -0.4360    1.0000 </r>
       <r>   -0.4346    1.0000 </r>
       <r>   -0.3987    1.0000 </r>
       <r>   -0.3403    1.0000 </r>
       <r>   -0.3351    1.0000 </r>
       <r>   -0.3344    1.0000 </r>
       <r>   -0.3338    1.0000 </r>
       <r>   -0.2555    1.0000 </r>
       <r>   -0.2554    1.0000 </r>
       <r>   -0.1329    1.0000 </r>
       <r>   -0.1271    1.0000 </r>
       <r>   -0.1256    1.0000 </r>
       <r>   -0.1223    1.0000 </r>
       <r>   -0.1222    1.0000 </r>
       <r>   -0.1209    1.0000 </r>
       <r>   -0.0870    1.0000 </r>
       <r>   -0.0867    1.0000 </r>
       <r>   -0.0386    1.0000 </r>
       <r>    0.0422    1.0000 </r>
       <r>    0.0438    1.0000 </r>
       <r>    0.1762    1.0000 </r>
       <r>    0.2120    1.0000 </r>
       <r>    0.2146    1.0000 </r>
       <r>    0.2161    1.0000 </r>
       <r>    0.2168    1.0000 </r>
       <r>    0.2190    1.0000 </r>
       <r>    0.2194    1.0000 </r>
       <r>    0.2254    1.0000 </r>
       <r>    0.2268    1.0000 </r>
       <r>    0.2352    1.0000 </r>
       <r>    0.2358    1.0000 </r>
       <r>    0.2376    1.0000 </r>
       <r>    0.2387    1.0000 </r>
       <r>    0.2437    1.0000 </r>
       <r>    0.2472    1.0000 </r>
       <r>    0.2478    1.0000 </r>
       <r>    0.3537    1.0000 </r>
       <r>    0.3552    1.0000 </r>
       <r>    0.3555    1.0000 </r>
       <r>    0.3594    1.0000 </r>
       <r>    0.3598    1.0000 </r>
       <r>    0.3604    1.0000 </r>
       <r>    0.3607    1.0000 </r>
       <r>    0.3629    1.0000 </r>
       <r>    0.4301    1.0000 </r>
       <r>    0.4359    1.0000 </r>
       <r>    0.4373    1.0000 </r>
       <r>    0.4379    1.0000 </r>
       <r>    0.4385    1.0000 </r>
       <r>    0.4418    1.0000 </r>
       <r>    0.5066    1.0000 </r>
       <r>    0.5856    1.0000 </r>
       <r>    0.6411    1.0000 </r>
       <r>    0.6413    1.0000 </r>
       <r>    0.7204    1.0000 </r>
       <r>    0.7209    1.0000 </r>
       <r>    0.7448    1.0000 </r>
       <r>    0.7448    1.0000 </r>
       <r>    0.7510    1.0000 </r>
       <r>    0.7771    1.0000 </r>
       <r>    0.7828    1.0000 </r>
       <r>    0.7834    1.0000 </r>
       <r>    0.9073    1.0000 </r>
       <r>    0.9239    1.0000 </r>
       <r>    0.9255    1.0000 </r>
       <r>    0.9258    1.0000 </r>
       <r>    0.9415    1.0000 </r>
       <r>    0.9422    1.0000 </r>
       <r>    0.9460    1.0000 </r>
       <r>    0.9471    1.0000 </r>
       <r>    0.9517    1.0000 </r>
       <r>    0.9521    1.0000 </r>
       <r>    0.9531    1.0000 </r>
       <r>    0.9620    1.0000 </r>
       <r>    0.9634    1.0000 </r>
       <r>    0.9664    1.0000 </r>
       <r>    0.9678    1.0000 </r>
       <r>    1.1305    1.0000 </r>
       <r>    1.1339    1.0000 </r>
       <r>    1.1342    1.0000 </r>
       <r>    1.1378    1.0000 </r>
       <r>    1.1816    1.0000 </r>
       <r>    1.1825    1.0000 </r>
       <r>    1.1828    1.0000 </r>
       <r>    1.2614    1.0000 </r>
       <r>    1.2614    1.0000 </r>
       <r>    1.4228    1.0000 </r>
       <r>    1.4232    1.0000 </r>
       <r>    1.5027    1.0000 </r>
       <r>    1.5458    1.0000 </r>
       <r>    1.5849    1.0000 </r>
       <r>    1.5855    1.0000 </r>
       <r>    1.6187    1.0000 </r>
       <r>    1.6197    1.0000 </r>
       <r>    1.6496    1.0000 </r>
       <r>    1.6648    1.0000 </r>
       <r>    1.6671    1.0000 </r>
       <r>    1.6677    1.0000 </r>
       <r>    1.7229    1.0000 </r>
       <r>    1.7247    1.0000 </r>
       <r>    1.7302    1.0000 </r>
       <r>    1.7694    1.0000 </r>
       <r>    1.7877    1.0000 </r>
       <r>    1.7900    1.0000 </r>
       <r>    1.7903    1.0000 </r>
       <r>    1.8042    1.0000 </r>
       <r>    1.8047    1.0000 </r>
       <r>    1.8130    1.0000 </r>
       <r>    1.8132    1.0000 </r>
       <r>    1.8225    1.0000 </r>
       <r>    1.8236    1.0000 </r>
       <r>    1.8267    1.0000 </r>
       <r>    1.8273    1.0000 </r>
       <r>    1.8935    1.0000 </r>
       <r>    1.8944    1.0000 </r>
       <r>    1.8949    1.0000 </r>
       <r>    2.0495    1.0000 </r>
       <r>    2.0495    1.0000 </r>
       <r>    2.3694    1.0000 </r>
       <r>    2.3724    1.0000 </r>
       <r>    2.3776    1.0000 </r>
       <r>    2.3784    1.0000 </r>
       <r>    2.5007    1.0000 </r>
       <r>    2.5007    1.0000 </r>
       <r>    5.5458    0.0000 </r>
       <r>    6.5234    0.0000 </r>
       <r>    6.5236    0.0000 </r>
       <r>    6.7449    0.0000 </r>
       <r>    6.7661    0.0000 </r>
       <r>    6.7839    0.0000 </r>
       <r>    6.8617    0.0000 </r>
       <r>    6.8624    0.0000 </r>
       <r>    6.8686    0.0000 </r>
       <r>    7.1395    0.0000 </r>
       <r>    7.1846    0.0000 </r>
       <r>    7.1847    0.0000 </r>
       <r>    7.1894    0.0000 </r>
       <r>    7.1895    0.0000 </r>
       <r>    7.2988    0.0000 </r>
       <r>    7.2997    0.0000 </r>
       <r>    7.3168    0.0000 </r>
       <r>    7.3171    0.0000 </r>
       <r>    7.3681    0.0000 </r>
       <r>    7.4373    0.0000 </r>
       <r>    7.4375    0.0000 </r>
       <r>    7.5252    0.0000 </r>
       <r>    7.5257    0.0000 </r>
       <r>    7.5765    0.0000 </r>
       <r>    7.5851    0.0000 </r>
       <r>    7.5852    0.0000 </r>
       <r>    7.5990    0.0000 </r>
       <r>    7.6332    0.0000 </r>
       <r>    7.6335    0.0000 </r>
       <r>    7.6405    0.0000 </r>
       <r>    7.6962    0.0000 </r>
       <r>    7.6968    0.0000 </r>
       <r>    7.7164    0.0000 </r>
       <r>    7.7220    0.0000 </r>
       <r>    7.7275    0.0000 </r>
       <r>    7.7277    0.0000 </r>
       <r>    7.7428    0.0000 </r>
       <r>    7.7433    0.0000 </r>
       <r>    7.7493    0.0000 </r>
       <r>    7.7534    0.0000 </r>
       <r>    7.7574    0.0000 </r>
       <r>    7.7578    0.0000 </r>
       <r>    7.8177    0.0000 </r>
       <r>    7.8185    0.0000 </r>
       <r>    7.8197    0.0000 </r>
       <r>    8.0307    0.0000 </r>
       <r>    8.0924    0.0000 </r>
       <r>    8.0936    0.0000 </r>
       <r>    8.1017    0.0000 </r>
       <r>    8.1533    0.0000 </r>
       <r>    8.1541    0.0000 </r>
       <r>    8.1887    0.0000 </r>
       <r>    8.1892    0.0000 </r>
       <r>    8.2161    0.0000 </r>
       <r>    8.2245    0.0000 </r>
       <r>    8.2249    0.0000 </r>
       <r>    8.2287    0.0000 </r>
       <r>    8.3213    0.0000 </r>
       <r>    8.3220    0.0000 </r>
       <r>    8.3242    0.0000 </r>
       <r>    8.3309    0.0000 </r>
       <r>    8.3402    0.0000 </r>
       <r>    8.3439    0.0000 </r>
       <r>    8.3441    0.0000 </r>
       <r>    8.3483    0.0000 </r>
       <r>    8.3486    0.0000 </r>
       <r>    8.3629    0.0000 </r>
       <r>    8.3634    0.0000 </r>
       <r>    8.3638    0.0000 </r>
       <r>    8.3659    0.0000 </r>
       <r>    8.3694    0.0000 </r>
       <r>    8.8679    0.0000 </r>
       <r>    8.9243    0.0000 </r>
       <r>    8.9251    0.0000 </r>
       <r>    9.0868    0.0000 </r>
       <r>    9.0878    0.0000 </r>
       <r>    9.1082    0.0000 </r>
       <r>    9.1082    0.0000 </r>
       <r>    9.1343    0.0000 </r>
       <r>    9.1433    0.0000 </r>
       <r>    9.1434    0.0000 </r>
       <r>    9.1693    0.0000 </r>
       <r>    9.1763    0.0000 </r>
       <r>    9.1996    0.0000 </r>
       <r>    9.2004    0.0000 </r>
       <r>    9.2265    0.0000 </r>
       <r>    9.2275    0.0000 </r>
       <r>    9.2415    0.0000 </r>
       <r>    9.2751    0.0000 </r>
       <r>    9.3182    0.0000 </r>
       <r>    9.3187    0.0000 </r>
       <r>    9.3904    0.0000 </r>
       <r>    9.3910    0.0000 </r>
       <r>    9.3914    0.0000 </r>
       <r>    9.4641    0.0000 </r>
       <r>    9.6127    0.0000 </r>
       <r>    9.6128    0.0000 </r>
       <r>    9.6849    0.0000 </r>
       <r>    9.7757    0.0000 </r>
       <r>    9.7763    0.0000 </r>
       <r>    9.7947    0.0000 </r>
       <r>    9.7955    0.0000 </r>
       <r>    9.8024    0.0000 </r>
       <r>    9.9519    0.0000 </r>
       <r>    9.9525    0.0000 </r>
       <r>    9.9528    0.0000 </r>
       <r>    9.9755    0.0000 </r>
       <r>    9.9806    0.0000 </r>
       <r>    9.9810    0.0000 </r>
       <r>   10.0856    0.0000 </r>
       <r>   10.1348    0.0000 </r>
       <r>   10.1354    0.0000 </r>
       <r>   10.1496    0.0000 </r>
       <r>   10.1501    0.0000 </r>
       <r>   10.1706    0.0000 </r>
       <r>   10.1850    0.0000 </r>
       <r>   10.1857    0.0000 </r>
       <r>   10.1923    0.0000 </r>
       <r>   10.2061    0.0000 </r>
       <r>   10.2068    0.0000 </r>
       <r>   10.2981    0.0000 </r>
       <r>   10.5563    0.0000 </r>
       <r>   10.6249    0.0000 </r>
       <r>   10.6259    0.0000 </r>
       <r>   10.6449    0.0000 </r>
       <r>   10.6451    0.0000 </r>
       <r>   10.6647    0.0000 </r>
       <r>   10.8084    0.0000 </r>
       <r>   10.8150    0.0000 </r>
       <r>   10.8156    0.0000 </r>
       <r>   10.8193    0.0000 </r>
       <r>   10.8197    0.0000 </r>
       <r>   10.8211    0.0000 </r>
       <r>   11.3049    0.0000 </r>
       <r>   11.3514    0.0000 </r>
       <r>   11.3729    0.0000 </r>
       <r>   11.4323    0.0000 </r>
       <r>   11.4828    0.0000 </r>
       <r>   11.4906    0.0000 </r>
       <r>   11.5020    0.0000 </r>
       <r>   11.5240    0.0000 </r>
       <r>   11.5676    0.0000 </r>
       <r>   11.5826    0.0000 </r>
       <r>   11.6465    0.0000 </r>
       <r>   11.7001    0.0000 </r>
       <r>   11.7161    0.0000 </r>
       <r>   11.7490    0.0000 </r>
       <r>   11.7674    0.0000 </r>
       <r>   11.8097    0.0000 </r>
       <r>   11.8242    0.0000 </r>
       <r>   11.8401    0.0000 </r>
       <r>   11.8809    0.0000 </r>
      </set>
      <set comment="kpoint 6">
       <r>  -17.1661    1.0000 </r>
       <r>  -15.7429    1.0000 </r>
       <r>  -15.6889    1.0000 </r>
       <r>  -15.4127    1.0000 </r>
       <r>  -15.2829    1.0000 </r>
       <r>  -15.2758    1.0000 </r>
       <r>  -15.2410    1.0000 </r>
       <r>  -15.2051    1.0000 </r>
       <r>  -15.1407    1.0000 </r>
       <r>  -15.0831    1.0000 </r>
       <r>  -15.0469    1.0000 </r>
       <r>  -15.0344    1.0000 </r>
       <r>  -15.0145    1.0000 </r>
       <r>  -14.9852    1.0000 </r>
       <r>  -14.9835    1.0000 </r>
       <r>  -14.9063    1.0000 </r>
       <r>  -14.8992    1.0000 </r>
       <r>  -14.8524    1.0000 </r>
       <r>  -14.7582    1.0000 </r>
       <r>  -14.7573    1.0000 </r>
       <r>  -14.6144    1.0000 </r>
       <r>  -14.5662    1.0000 </r>
       <r>  -14.5393    1.0000 </r>
       <r>  -14.4663    1.0000 </r>
       <r>  -14.4623    1.0000 </r>
       <r>  -14.4597    1.0000 </r>
       <r>  -14.4590    1.0000 </r>
       <r>  -14.4221    1.0000 </r>
       <r>  -14.4007    1.0000 </r>
       <r>  -14.3966    1.0000 </r>
       <r>  -14.3845    1.0000 </r>
       <r>  -14.3355    1.0000 </r>
       <r>  -14.2471    1.0000 </r>
       <r>  -14.2453    1.0000 </r>
       <r>  -14.2434    1.0000 </r>
       <r>  -14.2429    1.0000 </r>
       <r>  -14.2079    1.0000 </r>
       <r>  -14.2062    1.0000 </r>
       <r>  -14.1689    1.0000 </r>
       <r>  -14.1485    1.0000 </r>
       <r>  -14.1058    1.0000 </r>
       <r>  -14.0338    1.0000 </r>
       <r>  -13.9976    1.0000 </r>
       <r>  -13.9974    1.0000 </r>
       <r>  -13.9390    1.0000 </r>
       <r>  -13.7796    1.0000 </r>
       <r>  -13.7427    1.0000 </r>
       <r>  -13.7415    1.0000 </r>
       <r>  -13.7113    1.0000 </r>
       <r>  -13.7096    1.0000 </r>
       <r>  -13.7029    1.0000 </r>
       <r>  -13.6820    1.0000 </r>
       <r>  -13.6550    1.0000 </r>
       <r>  -13.6544    1.0000 </r>
       <r>  -13.5962    1.0000 </r>
       <r>  -13.5334    1.0000 </r>
       <r>  -13.5331    1.0000 </r>
       <r>  -13.5181    1.0000 </r>
       <r>  -13.5176    1.0000 </r>
       <r>  -13.5018    1.0000 </r>
       <r>  -13.3576    1.0000 </r>
       <r>  -13.3334    1.0000 </r>
       <r>  -13.2537    1.0000 </r>
       <r>  -13.2221    1.0000 </r>
       <r>  -13.1081    1.0000 </r>
       <r>  -13.0686    1.0000 </r>
       <r>  -13.0635    1.0000 </r>
       <r>  -13.0620    1.0000 </r>
       <r>  -13.0605    1.0000 </r>
       <r>  -13.0319    1.0000 </r>
       <r>  -13.0268    1.0000 </r>
       <r>  -13.0228    1.0000 </r>
       <r>  -13.0163    1.0000 </r>
       <r>  -12.9714    1.0000 </r>
       <r>  -12.9233    1.0000 </r>
       <r>  -12.8932    1.0000 </r>
       <r>  -12.8922    1.0000 </r>
       <r>  -12.8890    1.0000 </r>
       <r>  -12.8888    1.0000 </r>
       <r>  -12.8790    1.0000 </r>
       <r>  -12.8775    1.0000 </r>
       <r>  -12.8773    1.0000 </r>
       <r>  -12.8769    1.0000 </r>
       <r>  -12.8653    1.0000 </r>
       <r>  -12.8575    1.0000 </r>
       <r>  -12.8568    1.0000 </r>
       <r>  -12.8508    1.0000 </r>
       <r>  -12.8504    1.0000 </r>
       <r>  -12.7154    1.0000 </r>
       <r>  -12.7150    1.0000 </r>
       <r>  -12.7146    1.0000 </r>
       <r>  -12.7146    1.0000 </r>
       <r>  -12.6820    1.0000 </r>
       <r>  -12.6085    1.0000 </r>
       <r>  -12.5998    1.0000 </r>
       <r>  -12.5779    1.0000 </r>
       <r>  -12.5717    1.0000 </r>
       <r>  -12.5498    1.0000 </r>
       <r>  -12.5325    1.0000 </r>
       <r>  -12.4973    1.0000 </r>
       <r>  -12.4351    1.0000 </r>
       <r>  -12.4295    1.0000 </r>
       <r>  -12.4225    1.0000 </r>
       <r>  -12.4218    1.0000 </r>
       <r>  -12.3418    1.0000 </r>
       <r>  -12.3400    1.0000 </r>
       <r>  -12.3215    1.0000 </r>
       <r>  -12.3187    1.0000 </r>
       <r>  -12.2497    1.0000 </r>
       <r>  -12.2441    1.0000 </r>
       <r>  -12.2389    1.0000 </r>
       <r>  -12.2313    1.0000 </r>
       <r>  -12.2173    1.0000 </r>
       <r>  -12.2166    1.0000 </r>
       <r>  -12.2043    1.0000 </r>
       <r>  -12.2039    1.0000 </r>
       <r>  -12.1764    1.0000 </r>
       <r>  -12.1761    1.0000 </r>
       <r>  -12.1705    1.0000 </r>
       <r>  -12.1703    1.0000 </r>
       <r>  -12.0962    1.0000 </r>
       <r>  -12.0959    1.0000 </r>
       <r>  -12.0875    1.0000 </r>
       <r>  -12.0870    1.0000 </r>
       <r>  -12.0865    1.0000 </r>
       <r>  -12.0837    1.0000 </r>
       <r>  -11.9507    1.0000 </r>
       <r>  -11.9480    1.0000 </r>
       <r>  -11.9461    1.0000 </r>
       <r>  -11.9433    1.0000 </r>
       <r>  -11.8164    1.0000 </r>
       <r>  -11.8159    1.0000 </r>
       <r>  -11.8115    1.0000 </r>
       <r>  -11.8078    1.0000 </r>
       <r>  -11.8052    1.0000 </r>
       <r>  -11.8043    1.0000 </r>
       <r>  -11.7847    1.0000 </r>
       <r>  -11.7830    1.0000 </r>
       <r>  -11.7793    1.0000 </r>
       <r>  -11.7745    1.0000 </r>
       <r>  -11.6688    1.0000 </r>
       <r>  -11.6686    1.0000 </r>
       <r>  -11.6610    1.0000 </r>
       <r>  -11.6609    1.0000 </r>
       <r>   -8.1625    1.0000 </r>
       <r>   -7.2500    1.0000 </r>
       <r>   -7.2352    1.0000 </r>
       <r>   -6.7831    1.0000 </r>
       <r>   -6.6993    1.0000 </r>
       <r>   -6.6785    1.0000 </r>
       <r>   -6.4261    1.0000 </r>
       <r>   -6.4022    1.0000 </r>
       <r>   -6.3178    1.0000 </r>
       <r>   -6.3096    1.0000 </r>
       <r>   -6.3076    1.0000 </r>
       <r>   -6.3045    1.0000 </r>
       <r>   -6.2988    1.0000 </r>
       <r>   -6.2838    1.0000 </r>
       <r>   -6.2751    1.0000 </r>
       <r>   -6.2729    1.0000 </r>
       <r>   -6.2682    1.0000 </r>
       <r>   -6.2648    1.0000 </r>
       <r>   -6.2153    1.0000 </r>
       <r>   -6.2133    1.0000 </r>
       <r>   -6.2106    1.0000 </r>
       <r>   -6.2076    1.0000 </r>
       <r>   -6.1955    1.0000 </r>
       <r>   -6.1919    1.0000 </r>
       <r>   -6.1592    1.0000 </r>
       <r>   -6.1591    1.0000 </r>
       <r>   -6.1488    1.0000 </r>
       <r>   -6.1488    1.0000 </r>
       <r>   -6.0725    1.0000 </r>
       <r>   -6.0713    1.0000 </r>
       <r>   -5.9371    1.0000 </r>
       <r>   -5.9291    1.0000 </r>
       <r>   -5.9099    1.0000 </r>
       <r>   -5.9023    1.0000 </r>
       <r>   -5.8363    1.0000 </r>
       <r>   -5.7898    1.0000 </r>
       <r>   -5.7816    1.0000 </r>
       <r>   -5.7712    1.0000 </r>
       <r>   -5.7689    1.0000 </r>
       <r>   -5.7656    1.0000 </r>
       <r>   -5.7628    1.0000 </r>
       <r>   -5.7588    1.0000 </r>
       <r>   -5.7583    1.0000 </r>
       <r>   -5.7570    1.0000 </r>
       <r>   -5.7559    1.0000 </r>
       <r>   -5.7486    1.0000 </r>
       <r>   -5.7346    1.0000 </r>
       <r>   -5.6802    1.0000 </r>
       <r>   -5.6516    1.0000 </r>
       <r>   -5.6389    1.0000 </r>
       <r>   -5.6234    1.0000 </r>
       <r>   -5.6233    1.0000 </r>
       <r>   -5.6199    1.0000 </r>
       <r>   -5.6197    1.0000 </r>
       <r>   -5.2284    1.0000 </r>
       <r>   -5.2278    1.0000 </r>
       <r>   -5.2250    1.0000 </r>
       <r>   -5.2238    1.0000 </r>
       <r>   -5.2215    1.0000 </r>
       <r>   -5.2210    1.0000 </r>
       <r>   -5.2189    1.0000 </r>
       <r>   -5.2180    1.0000 </r>
       <r>   -5.2178    1.0000 </r>
       <r>   -5.2173    1.0000 </r>
       <r>   -5.2166    1.0000 </r>
       <r>   -5.2158    1.0000 </r>
       <r>   -5.1063    1.0000 </r>
       <r>   -5.0949    1.0000 </r>
       <r>   -5.0908    1.0000 </r>
       <r>   -5.0906    1.0000 </r>
       <r>   -5.0879    1.0000 </r>
       <r>   -5.0878    1.0000 </r>
       <r>   -5.0875    1.0000 </r>
       <r>   -5.0875    1.0000 </r>
       <r>   -5.0084    1.0000 </r>
       <r>   -4.9191    1.0000 </r>
       <r>   -4.8269    1.0000 </r>
       <r>   -4.5974    1.0000 </r>
       <r>   -4.5427    1.0000 </r>
       <r>   -4.5346    1.0000 </r>
       <r>   -4.4774    1.0000 </r>
       <r>   -4.4734    1.0000 </r>
       <r>   -4.4718    1.0000 </r>
       <r>   -4.4713    1.0000 </r>
       <r>   -4.4703    1.0000 </r>
       <r>   -4.4686    1.0000 </r>
       <r>   -4.4679    1.0000 </r>
       <r>   -4.4677    1.0000 </r>
       <r>   -4.3414    1.0000 </r>
       <r>   -4.3411    1.0000 </r>
       <r>   -4.3409    1.0000 </r>
       <r>   -4.3408    1.0000 </r>
       <r>   -4.3119    1.0000 </r>
       <r>   -4.1907    1.0000 </r>
       <r>   -4.0919    1.0000 </r>
       <r>   -4.0894    1.0000 </r>
       <r>   -4.0878    1.0000 </r>
       <r>   -4.0850    1.0000 </r>
       <r>   -4.0830    1.0000 </r>
       <r>   -4.0742    1.0000 </r>
       <r>   -4.0737    1.0000 </r>
       <r>   -4.0705    1.0000 </r>
       <r>   -4.0693    1.0000 </r>
       <r>   -4.0358    1.0000 </r>
       <r>   -4.0245    1.0000 </r>
       <r>   -3.9503    1.0000 </r>
       <r>   -3.9502    1.0000 </r>
       <r>   -3.9465    1.0000 </r>
       <r>   -3.9465    1.0000 </r>
       <r>   -3.9075    1.0000 </r>
       <r>   -3.8632    1.0000 </r>
       <r>   -3.7745    1.0000 </r>
       <r>   -3.6229    1.0000 </r>
       <r>   -3.6217    1.0000 </r>
       <r>   -3.6158    1.0000 </r>
       <r>   -3.6150    1.0000 </r>
       <r>   -3.6035    1.0000 </r>
       <r>   -3.6020    1.0000 </r>
       <r>   -3.5969    1.0000 </r>
       <r>   -3.5952    1.0000 </r>
       <r>   -3.5938    1.0000 </r>
       <r>   -3.4798    1.0000 </r>
       <r>   -3.4797    1.0000 </r>
       <r>   -3.4739    1.0000 </r>
       <r>   -3.4739    1.0000 </r>
       <r>   -3.4690    1.0000 </r>
       <r>   -3.4689    1.0000 </r>
       <r>   -3.4676    1.0000 </r>
       <r>   -3.4658    1.0000 </r>
       <r>   -3.4651    1.0000 </r>
       <r>   -3.3901    1.0000 </r>
       <r>   -3.3567    1.0000 </r>
       <r>   -3.3419    1.0000 </r>
       <r>   -3.3384    1.0000 </r>
       <r>   -3.3383    1.0000 </r>
       <r>   -3.3147    1.0000 </r>
       <r>   -3.3077    1.0000 </r>
       <r>   -3.1464    1.0000 </r>
       <r>   -3.0895    1.0000 </r>
       <r>   -3.0766    1.0000 </r>
       <r>   -3.0727    1.0000 </r>
       <r>   -3.0713    1.0000 </r>
       <r>   -3.0660    1.0000 </r>
       <r>   -3.0029    1.0000 </r>
       <r>   -2.9992    1.0000 </r>
       <r>   -2.9861    1.0000 </r>
       <r>   -2.9384    1.0000 </r>
       <r>   -2.9377    1.0000 </r>
       <r>   -2.8454    1.0000 </r>
       <r>   -2.7637    1.0000 </r>
       <r>   -2.7594    1.0000 </r>
       <r>   -2.7517    1.0000 </r>
       <r>   -2.7278    1.0000 </r>
       <r>   -2.7233    1.0000 </r>
       <r>   -2.6751    1.0000 </r>
       <r>   -2.6721    1.0000 </r>
       <r>   -2.6693    1.0000 </r>
       <r>   -2.6497    1.0000 </r>
       <r>   -2.6128    1.0000 </r>
       <r>   -2.5455    1.0000 </r>
       <r>   -2.5452    1.0000 </r>
       <r>   -2.5427    1.0000 </r>
       <r>   -2.5145    1.0000 </r>
       <r>   -2.4621    1.0000 </r>
       <r>   -2.3910    1.0000 </r>
       <r>   -2.3856    1.0000 </r>
       <r>   -2.3774    1.0000 </r>
       <r>   -2.3742    1.0000 </r>
       <r>   -2.3730    1.0000 </r>
       <r>   -2.3718    1.0000 </r>
       <r>   -2.3712    1.0000 </r>
       <r>   -2.3700    1.0000 </r>
       <r>   -2.3684    1.0000 </r>
       <r>   -2.3663    1.0000 </r>
       <r>   -2.3657    1.0000 </r>
       <r>   -2.3423    1.0000 </r>
       <r>   -2.2704    1.0000 </r>
       <r>   -2.2625    1.0000 </r>
       <r>   -2.2560    1.0000 </r>
       <r>   -2.2410    1.0000 </r>
       <r>   -2.2406    1.0000 </r>
       <r>   -2.2405    1.0000 </r>
       <r>   -2.2402    1.0000 </r>
       <r>   -2.2361    1.0000 </r>
       <r>   -2.2060    1.0000 </r>
       <r>   -2.1944    1.0000 </r>
       <r>   -2.1933    1.0000 </r>
       <r>   -2.1631    1.0000 </r>
       <r>   -2.1499    1.0000 </r>
       <r>   -2.1432    1.0000 </r>
       <r>   -2.1244    1.0000 </r>
       <r>   -2.0973    1.0000 </r>
       <r>   -2.0933    1.0000 </r>
       <r>   -2.0917    1.0000 </r>
       <r>   -2.0867    1.0000 </r>
       <r>   -2.0860    1.0000 </r>
       <r>   -2.0574    1.0000 </r>
       <r>   -2.0561    1.0000 </r>
       <r>   -2.0508    1.0000 </r>
       <r>   -2.0491    1.0000 </r>
       <r>   -2.0085    1.0000 </r>
       <r>   -1.9637    1.0000 </r>
       <r>   -1.9433    1.0000 </r>
       <r>   -1.9433    1.0000 </r>
       <r>   -1.9328    1.0000 </r>
       <r>   -1.9327    1.0000 </r>
       <r>   -1.9305    1.0000 </r>
       <r>   -1.9058    1.0000 </r>
       <r>   -1.9051    1.0000 </r>
       <r>   -1.8983    1.0000 </r>
       <r>   -1.8955    1.0000 </r>
       <r>   -1.8642    1.0000 </r>
       <r>   -1.8613    1.0000 </r>
       <r>   -1.8599    1.0000 </r>
       <r>   -1.8592    1.0000 </r>
       <r>   -1.8587    1.0000 </r>
       <r>   -1.8578    1.0000 </r>
       <r>   -1.8559    1.0000 </r>
       <r>   -1.8527    1.0000 </r>
       <r>   -1.8519    1.0000 </r>
       <r>   -1.7822    1.0000 </r>
       <r>   -1.7782    1.0000 </r>
       <r>   -1.7775    1.0000 </r>
       <r>   -1.7773    1.0000 </r>
       <r>   -1.7752    1.0000 </r>
       <r>   -1.7737    1.0000 </r>
       <r>   -1.7726    1.0000 </r>
       <r>   -1.7719    1.0000 </r>
       <r>   -1.7443    1.0000 </r>
       <r>   -1.7429    1.0000 </r>
       <r>   -1.7410    1.0000 </r>
       <r>   -1.7404    1.0000 </r>
       <r>   -1.7111    1.0000 </r>
       <r>   -1.7052    1.0000 </r>
       <r>   -1.6629    1.0000 </r>
       <r>   -1.6452    1.0000 </r>
       <r>   -1.6452    1.0000 </r>
       <r>   -1.6449    1.0000 </r>
       <r>   -1.6449    1.0000 </r>
       <r>   -1.6234    1.0000 </r>
       <r>   -1.6091    1.0000 </r>
       <r>   -1.6078    1.0000 </r>
       <r>   -1.5849    1.0000 </r>
       <r>   -1.5846    1.0000 </r>
       <r>   -1.5803    1.0000 </r>
       <r>   -1.5571    1.0000 </r>
       <r>   -1.5535    1.0000 </r>
       <r>   -1.5466    1.0000 </r>
       <r>   -1.4498    1.0000 </r>
       <r>   -1.4441    1.0000 </r>
       <r>   -1.4414    1.0000 </r>
       <r>   -1.4312    1.0000 </r>
       <r>   -1.2566    1.0000 </r>
       <r>   -1.2530    1.0000 </r>
       <r>   -1.2348    1.0000 </r>
       <r>   -1.2345    1.0000 </r>
       <r>   -1.2273    1.0000 </r>
       <r>   -1.2253    1.0000 </r>
       <r>   -1.2205    1.0000 </r>
       <r>   -1.2092    1.0000 </r>
       <r>   -1.2065    1.0000 </r>
       <r>   -1.2062    1.0000 </r>
       <r>   -1.2041    1.0000 </r>
       <r>   -1.1913    1.0000 </r>
       <r>   -1.1865    1.0000 </r>
       <r>   -1.1829    1.0000 </r>
       <r>   -1.1712    1.0000 </r>
       <r>   -1.1485    1.0000 </r>
       <r>   -1.1163    1.0000 </r>
       <r>   -1.0880    1.0000 </r>
       <r>   -1.0878    1.0000 </r>
       <r>   -1.0822    1.0000 </r>
       <r>   -1.0822    1.0000 </r>
       <r>   -1.0538    1.0000 </r>
       <r>   -1.0096    1.0000 </r>
       <r>   -0.9279    1.0000 </r>
       <r>   -0.9158    1.0000 </r>
       <r>   -0.9101    1.0000 </r>
       <r>   -0.9085    1.0000 </r>
       <r>   -0.9008    1.0000 </r>
       <r>   -0.8548    1.0000 </r>
       <r>   -0.8441    1.0000 </r>
       <r>   -0.8214    1.0000 </r>
       <r>   -0.7762    1.0000 </r>
       <r>   -0.7077    1.0000 </r>
       <r>   -0.6858    1.0000 </r>
       <r>   -0.6847    1.0000 </r>
       <r>   -0.6524    1.0000 </r>
       <r>   -0.5963    1.0000 </r>
       <r>   -0.5952    1.0000 </r>
       <r>   -0.5910    1.0000 </r>
       <r>   -0.5226    1.0000 </r>
       <r>   -0.5182    1.0000 </r>
       <r>   -0.5169    1.0000 </r>
       <r>   -0.5149    1.0000 </r>
       <r>   -0.5123    1.0000 </r>
       <r>   -0.4625    1.0000 </r>
       <r>   -0.4605    1.0000 </r>
       <r>   -0.4582    1.0000 </r>
       <r>   -0.4564    1.0000 </r>
       <r>   -0.4545    1.0000 </r>
       <r>   -0.4531    1.0000 </r>
       <r>   -0.4514    1.0000 </r>
       <r>   -0.4444    1.0000 </r>
       <r>   -0.4042    1.0000 </r>
       <r>   -0.3835    1.0000 </r>
       <r>   -0.3834    1.0000 </r>
       <r>   -0.3538    1.0000 </r>
       <r>   -0.3509    1.0000 </r>
       <r>   -0.3465    1.0000 </r>
       <r>   -0.3448    1.0000 </r>
       <r>   -0.3435    1.0000 </r>
       <r>   -0.3266    1.0000 </r>
       <r>   -0.3260    1.0000 </r>
       <r>   -0.3257    1.0000 </r>
       <r>   -0.3254    1.0000 </r>
       <r>   -0.2754    1.0000 </r>
       <r>   -0.2629    1.0000 </r>
       <r>   -0.2575    1.0000 </r>
       <r>   -0.2568    1.0000 </r>
       <r>   -0.2557    1.0000 </r>
       <r>   -0.2541    1.0000 </r>
       <r>   -0.2458    1.0000 </r>
       <r>   -0.2247    1.0000 </r>
       <r>   -0.2241    1.0000 </r>
       <r>   -0.2159    1.0000 </r>
       <r>   -0.2096    1.0000 </r>
       <r>   -0.1399    1.0000 </r>
       <r>   -0.1396    1.0000 </r>
       <r>   -0.0449    1.0000 </r>
       <r>   -0.0070    1.0000 </r>
       <r>    0.0005    1.0000 </r>
       <r>    0.0083    1.0000 </r>
       <r>    0.0112    1.0000 </r>
       <r>    0.0179    1.0000 </r>
       <r>    0.0193    1.0000 </r>
       <r>    0.0356    1.0000 </r>
       <r>    0.0363    1.0000 </r>
       <r>    0.0740    1.0000 </r>
       <r>    0.1868    1.0000 </r>
       <r>    0.2889    1.0000 </r>
       <r>    0.3195    1.0000 </r>
       <r>    0.3417    1.0000 </r>
       <r>    0.3447    1.0000 </r>
       <r>    0.3483    1.0000 </r>
       <r>    0.3503    1.0000 </r>
       <r>    0.3743    1.0000 </r>
       <r>    0.3964    1.0000 </r>
       <r>    0.4524    1.0000 </r>
       <r>    0.4766    1.0000 </r>
       <r>    0.4773    1.0000 </r>
       <r>    0.4885    1.0000 </r>
       <r>    0.5113    1.0000 </r>
       <r>    0.5535    1.0000 </r>
       <r>    0.5579    1.0000 </r>
       <r>    0.5666    1.0000 </r>
       <r>    0.5859    1.0000 </r>
       <r>    0.5883    1.0000 </r>
       <r>    0.5966    1.0000 </r>
       <r>    0.6203    1.0000 </r>
       <r>    0.6363    1.0000 </r>
       <r>    0.6562    1.0000 </r>
       <r>    0.6937    1.0000 </r>
       <r>    0.7036    1.0000 </r>
       <r>    0.7321    1.0000 </r>
       <r>    0.7373    1.0000 </r>
       <r>    0.8553    1.0000 </r>
       <r>    0.8558    1.0000 </r>
       <r>    0.8570    1.0000 </r>
       <r>    0.8626    1.0000 </r>
       <r>    0.8647    1.0000 </r>
       <r>    0.8663    1.0000 </r>
       <r>    0.8683    1.0000 </r>
       <r>    0.8748    1.0000 </r>
       <r>    0.8751    1.0000 </r>
       <r>    0.8773    1.0000 </r>
       <r>    0.8846    1.0000 </r>
       <r>    0.8904    1.0000 </r>
       <r>    0.8968    1.0000 </r>
       <r>    0.8977    1.0000 </r>
       <r>    0.9056    1.0000 </r>
       <r>    0.9091    1.0000 </r>
       <r>    0.9934    1.0000 </r>
       <r>    1.0031    1.0000 </r>
       <r>    1.0604    1.0000 </r>
       <r>    1.0656    1.0000 </r>
       <r>    1.0779    1.0000 </r>
       <r>    1.0782    1.0000 </r>
       <r>    1.0926    1.0000 </r>
       <r>    1.0943    1.0000 </r>
       <r>    1.1086    1.0000 </r>
       <r>    1.1109    1.0000 </r>
       <r>    1.1187    1.0000 </r>
       <r>    1.2574    1.0000 </r>
       <r>    1.2629    1.0000 </r>
       <r>    1.3112    1.0000 </r>
       <r>    1.4344    1.0000 </r>
       <r>    1.4534    1.0000 </r>
       <r>    1.4573    1.0000 </r>
       <r>    1.4704    1.0000 </r>
       <r>    1.6003    1.0000 </r>
       <r>    1.6021    1.0000 </r>
       <r>    1.6046    1.0000 </r>
       <r>    1.6058    1.0000 </r>
       <r>    1.6159    1.0000 </r>
       <r>    1.6264    1.0000 </r>
       <r>    1.6571    1.0000 </r>
       <r>    1.6678    1.0000 </r>
       <r>    1.7141    1.0000 </r>
       <r>    1.7165    1.0000 </r>
       <r>    1.7688    1.0000 </r>
       <r>    1.7729    1.0000 </r>
       <r>    1.8454    1.0000 </r>
       <r>    1.8505    1.0000 </r>
       <r>    1.8533    1.0000 </r>
       <r>    1.8624    1.0000 </r>
       <r>    1.8661    1.0000 </r>
       <r>    1.8709    1.0000 </r>
       <r>    1.8783    1.0000 </r>
       <r>    1.8809    1.0000 </r>
       <r>    1.9906    1.0000 </r>
       <r>    2.0035    1.0000 </r>
       <r>    2.1886    1.0000 </r>
       <r>    2.1925    1.0000 </r>
       <r>    2.1969    1.0000 </r>
       <r>    2.2000    1.0000 </r>
       <r>    2.2075    1.0000 </r>
       <r>    2.2103    1.0000 </r>
       <r>    2.3796    1.0000 </r>
       <r>    2.3809    1.0000 </r>
       <r>    2.3894    1.0000 </r>
       <r>    2.3902    1.0000 </r>
       <r>    5.5463    0.0000 </r>
       <r>    6.6590    0.0000 </r>
       <r>    6.6752    0.0000 </r>
       <r>    6.6831    0.0000 </r>
       <r>    6.7932    0.0000 </r>
       <r>    6.8860    0.0000 </r>
       <r>    6.9418    0.0000 </r>
       <r>    7.0085    0.0000 </r>
       <r>    7.0228    0.0000 </r>
       <r>    7.0447    0.0000 </r>
       <r>    7.0548    0.0000 </r>
       <r>    7.0760    0.0000 </r>
       <r>    7.0865    0.0000 </r>
       <r>    7.1077    0.0000 </r>
       <r>    7.1162    0.0000 </r>
       <r>    7.1468    0.0000 </r>
       <r>    7.1481    0.0000 </r>
       <r>    7.2561    0.0000 </r>
       <r>    7.2648    0.0000 </r>
       <r>    7.2655    0.0000 </r>
       <r>    7.2870    0.0000 </r>
       <r>    7.2874    0.0000 </r>
       <r>    7.4427    0.0000 </r>
       <r>    7.4579    0.0000 </r>
       <r>    7.4664    0.0000 </r>
       <r>    7.4816    0.0000 </r>
       <r>    7.4892    0.0000 </r>
       <r>    7.5699    0.0000 </r>
       <r>    7.5748    0.0000 </r>
       <r>    7.6354    0.0000 </r>
       <r>    7.6472    0.0000 </r>
       <r>    7.6611    0.0000 </r>
       <r>    7.6650    0.0000 </r>
       <r>    7.6662    0.0000 </r>
       <r>    7.6673    0.0000 </r>
       <r>    7.6835    0.0000 </r>
       <r>    7.7170    0.0000 </r>
       <r>    7.7317    0.0000 </r>
       <r>    7.7353    0.0000 </r>
       <r>    7.7956    0.0000 </r>
       <r>    7.8479    0.0000 </r>
       <r>    7.8810    0.0000 </r>
       <r>    7.9008    0.0000 </r>
       <r>    7.9707    0.0000 </r>
       <r>    7.9770    0.0000 </r>
       <r>    8.0064    0.0000 </r>
       <r>    8.0077    0.0000 </r>
       <r>    8.0980    0.0000 </r>
       <r>    8.0997    0.0000 </r>
       <r>    8.1125    0.0000 </r>
       <r>    8.2085    0.0000 </r>
       <r>    8.2295    0.0000 </r>
       <r>    8.2532    0.0000 </r>
       <r>    8.2884    0.0000 </r>
       <r>    8.3400    0.0000 </r>
       <r>    8.3419    0.0000 </r>
       <r>    8.3683    0.0000 </r>
       <r>    8.4744    0.0000 </r>
       <r>    8.4841    0.0000 </r>
       <r>    8.4914    0.0000 </r>
       <r>    8.4953    0.0000 </r>
       <r>    8.4974    0.0000 </r>
       <r>    8.5084    0.0000 </r>
       <r>    8.5107    0.0000 </r>
       <r>    8.5109    0.0000 </r>
       <r>    8.5338    0.0000 </r>
       <r>    8.5692    0.0000 </r>
       <r>    8.5996    0.0000 </r>
       <r>    8.6281    0.0000 </r>
       <r>    8.7866    0.0000 </r>
       <r>    8.8297    0.0000 </r>
       <r>    8.9032    0.0000 </r>
       <r>    8.9114    0.0000 </r>
       <r>    8.9300    0.0000 </r>
       <r>    9.0007    0.0000 </r>
       <r>    9.0082    0.0000 </r>
       <r>    9.0119    0.0000 </r>
       <r>    9.0197    0.0000 </r>
       <r>    9.0207    0.0000 </r>
       <r>    9.0242    0.0000 </r>
       <r>    9.0311    0.0000 </r>
       <r>    9.1312    0.0000 </r>
       <r>    9.1450    0.0000 </r>
       <r>    9.1633    0.0000 </r>
       <r>    9.1666    0.0000 </r>
       <r>    9.1843    0.0000 </r>
       <r>    9.2086    0.0000 </r>
       <r>    9.2089    0.0000 </r>
       <r>    9.2129    0.0000 </r>
       <r>    9.3691    0.0000 </r>
       <r>    9.4074    0.0000 </r>
       <r>    9.4132    0.0000 </r>
       <r>    9.4306    0.0000 </r>
       <r>    9.4445    0.0000 </r>
       <r>    9.4491    0.0000 </r>
       <r>    9.5844    0.0000 </r>
       <r>    9.6016    0.0000 </r>
       <r>    9.6030    0.0000 </r>
       <r>    9.6067    0.0000 </r>
       <r>    9.6077    0.0000 </r>
       <r>    9.6391    0.0000 </r>
       <r>    9.6660    0.0000 </r>
       <r>    9.7115    0.0000 </r>
       <r>    9.7132    0.0000 </r>
       <r>    9.7142    0.0000 </r>
       <r>    9.7297    0.0000 </r>
       <r>    9.7688    0.0000 </r>
       <r>    9.7866    0.0000 </r>
       <r>    9.8355    0.0000 </r>
       <r>    9.8363    0.0000 </r>
       <r>    9.9244    0.0000 </r>
       <r>    9.9264    0.0000 </r>
       <r>    9.9645    0.0000 </r>
       <r>    9.9702    0.0000 </r>
       <r>    9.9728    0.0000 </r>
       <r>   10.0349    0.0000 </r>
       <r>   10.0729    0.0000 </r>
       <r>   10.1155    0.0000 </r>
       <r>   10.1332    0.0000 </r>
       <r>   10.3105    0.0000 </r>
       <r>   10.3471    0.0000 </r>
       <r>   10.4286    0.0000 </r>
       <r>   10.4288    0.0000 </r>
       <r>   10.5255    0.0000 </r>
       <r>   10.5264    0.0000 </r>
       <r>   10.5507    0.0000 </r>
       <r>   10.5554    0.0000 </r>
       <r>   10.8976    0.0000 </r>
       <r>   11.0000    0.0000 </r>
       <r>   11.2071    0.0000 </r>
       <r>   11.2109    0.0000 </r>
       <r>   11.2915    0.0000 </r>
       <r>   11.4108    0.0000 </r>
       <r>   11.4173    0.0000 </r>
       <r>   11.4359    0.0000 </r>
       <r>   11.4418    0.0000 </r>
       <r>   11.5063    0.0000 </r>
       <r>   11.5361    0.0000 </r>
       <r>   11.5541    0.0000 </r>
       <r>   11.5848    0.0000 </r>
       <r>   11.5929    0.0000 </r>
       <r>   11.5970    0.0000 </r>
       <r>   11.6099    0.0000 </r>
       <r>   11.6248    0.0000 </r>
       <r>   11.6655    0.0000 </r>
       <r>   11.7306    0.0000 </r>
       <r>   11.8130    0.0000 </r>
       <r>   11.8818    0.0000 </r>
       <r>   11.9139    0.0000 </r>
       <r>   11.9489    0.0000 </r>
       <r>   11.9773    0.0000 </r>
       <r>   12.0025    0.0000 </r>
      </set>
      <set comment="kpoint 7">
       <r>  -17.1661    1.0000 </r>
       <r>  -15.7432    1.0000 </r>
       <r>  -15.6887    1.0000 </r>
       <r>  -15.4119    1.0000 </r>
       <r>  -15.2834    1.0000 </r>
       <r>  -15.2749    1.0000 </r>
       <r>  -15.2422    1.0000 </r>
       <r>  -15.2045    1.0000 </r>
       <r>  -15.1418    1.0000 </r>
       <r>  -15.0832    1.0000 </r>
       <r>  -15.0475    1.0000 </r>
       <r>  -15.0340    1.0000 </r>
       <r>  -15.0151    1.0000 </r>
       <r>  -14.9855    1.0000 </r>
       <r>  -14.9826    1.0000 </r>
       <r>  -14.9052    1.0000 </r>
       <r>  -14.8995    1.0000 </r>
       <r>  -14.8525    1.0000 </r>
       <r>  -14.7579    1.0000 </r>
       <r>  -14.7574    1.0000 </r>
       <r>  -14.6141    1.0000 </r>
       <r>  -14.5659    1.0000 </r>
       <r>  -14.5392    1.0000 </r>
       <r>  -14.4657    1.0000 </r>
       <r>  -14.4623    1.0000 </r>
       <r>  -14.4604    1.0000 </r>
       <r>  -14.4593    1.0000 </r>
       <r>  -14.4216    1.0000 </r>
       <r>  -14.4009    1.0000 </r>
       <r>  -14.3970    1.0000 </r>
       <r>  -14.3855    1.0000 </r>
       <r>  -14.3349    1.0000 </r>
       <r>  -14.2470    1.0000 </r>
       <r>  -14.2453    1.0000 </r>
       <r>  -14.2437    1.0000 </r>
       <r>  -14.2431    1.0000 </r>
       <r>  -14.2071    1.0000 </r>
       <r>  -14.2065    1.0000 </r>
       <r>  -14.1680    1.0000 </r>
       <r>  -14.1493    1.0000 </r>
       <r>  -14.1057    1.0000 </r>
       <r>  -14.0341    1.0000 </r>
       <r>  -13.9976    1.0000 </r>
       <r>  -13.9973    1.0000 </r>
       <r>  -13.9393    1.0000 </r>
       <r>  -13.7794    1.0000 </r>
       <r>  -13.7412    1.0000 </r>
       <r>  -13.7403    1.0000 </r>
       <r>  -13.7131    1.0000 </r>
       <r>  -13.7102    1.0000 </r>
       <r>  -13.7015    1.0000 </r>
       <r>  -13.6809    1.0000 </r>
       <r>  -13.6567    1.0000 </r>
       <r>  -13.6554    1.0000 </r>
       <r>  -13.5964    1.0000 </r>
       <r>  -13.5328    1.0000 </r>
       <r>  -13.5326    1.0000 </r>
       <r>  -13.5189    1.0000 </r>
       <r>  -13.5181    1.0000 </r>
       <r>  -13.5021    1.0000 </r>
       <r>  -13.3575    1.0000 </r>
       <r>  -13.3334    1.0000 </r>
       <r>  -13.2536    1.0000 </r>
       <r>  -13.2220    1.0000 </r>
       <r>  -13.1075    1.0000 </r>
       <r>  -13.0678    1.0000 </r>
       <r>  -13.0637    1.0000 </r>
       <r>  -13.0624    1.0000 </r>
       <r>  -13.0612    1.0000 </r>
       <r>  -13.0322    1.0000 </r>
       <r>  -13.0271    1.0000 </r>
       <r>  -13.0240    1.0000 </r>
       <r>  -13.0155    1.0000 </r>
       <r>  -12.9710    1.0000 </r>
       <r>  -12.9229    1.0000 </r>
       <r>  -12.8928    1.0000 </r>
       <r>  -12.8917    1.0000 </r>
       <r>  -12.8903    1.0000 </r>
       <r>  -12.8888    1.0000 </r>
       <r>  -12.8782    1.0000 </r>
       <r>  -12.8778    1.0000 </r>
       <r>  -12.8772    1.0000 </r>
       <r>  -12.8771    1.0000 </r>
       <r>  -12.8654    1.0000 </r>
       <r>  -12.8576    1.0000 </r>
       <r>  -12.8560    1.0000 </r>
       <r>  -12.8520    1.0000 </r>
       <r>  -12.8499    1.0000 </r>
       <r>  -12.7152    1.0000 </r>
       <r>  -12.7151    1.0000 </r>
       <r>  -12.7148    1.0000 </r>
       <r>  -12.7145    1.0000 </r>
       <r>  -12.6816    1.0000 </r>
       <r>  -12.6086    1.0000 </r>
       <r>  -12.5983    1.0000 </r>
       <r>  -12.5764    1.0000 </r>
       <r>  -12.5728    1.0000 </r>
       <r>  -12.5511    1.0000 </r>
       <r>  -12.5329    1.0000 </r>
       <r>  -12.4982    1.0000 </r>
       <r>  -12.4352    1.0000 </r>
       <r>  -12.4292    1.0000 </r>
       <r>  -12.4228    1.0000 </r>
       <r>  -12.4216    1.0000 </r>
       <r>  -12.3418    1.0000 </r>
       <r>  -12.3383    1.0000 </r>
       <r>  -12.3213    1.0000 </r>
       <r>  -12.3171    1.0000 </r>
       <r>  -12.2462    1.0000 </r>
       <r>  -12.2447    1.0000 </r>
       <r>  -12.2367    1.0000 </r>
       <r>  -12.2322    1.0000 </r>
       <r>  -12.2190    1.0000 </r>
       <r>  -12.2180    1.0000 </r>
       <r>  -12.2081    1.0000 </r>
       <r>  -12.2052    1.0000 </r>
       <r>  -12.1764    1.0000 </r>
       <r>  -12.1763    1.0000 </r>
       <r>  -12.1700    1.0000 </r>
       <r>  -12.1698    1.0000 </r>
       <r>  -12.0958    1.0000 </r>
       <r>  -12.0957    1.0000 </r>
       <r>  -12.0877    1.0000 </r>
       <r>  -12.0872    1.0000 </r>
       <r>  -12.0871    1.0000 </r>
       <r>  -12.0840    1.0000 </r>
       <r>  -11.9507    1.0000 </r>
       <r>  -11.9490    1.0000 </r>
       <r>  -11.9455    1.0000 </r>
       <r>  -11.9438    1.0000 </r>
       <r>  -11.8159    1.0000 </r>
       <r>  -11.8154    1.0000 </r>
       <r>  -11.8080    1.0000 </r>
       <r>  -11.8071    1.0000 </r>
       <r>  -11.8041    1.0000 </r>
       <r>  -11.8031    1.0000 </r>
       <r>  -11.7871    1.0000 </r>
       <r>  -11.7832    1.0000 </r>
       <r>  -11.7808    1.0000 </r>
       <r>  -11.7758    1.0000 </r>
       <r>  -11.6685    1.0000 </r>
       <r>  -11.6683    1.0000 </r>
       <r>  -11.6613    1.0000 </r>
       <r>  -11.6613    1.0000 </r>
       <r>   -8.1625    1.0000 </r>
       <r>   -7.2499    1.0000 </r>
       <r>   -7.2353    1.0000 </r>
       <r>   -6.7832    1.0000 </r>
       <r>   -6.6996    1.0000 </r>
       <r>   -6.6787    1.0000 </r>
       <r>   -6.4259    1.0000 </r>
       <r>   -6.4021    1.0000 </r>
       <r>   -6.3172    1.0000 </r>
       <r>   -6.3087    1.0000 </r>
       <r>   -6.3058    1.0000 </r>
       <r>   -6.3038    1.0000 </r>
       <r>   -6.2980    1.0000 </r>
       <r>   -6.2832    1.0000 </r>
       <r>   -6.2756    1.0000 </r>
       <r>   -6.2746    1.0000 </r>
       <r>   -6.2688    1.0000 </r>
       <r>   -6.2683    1.0000 </r>
       <r>   -6.2148    1.0000 </r>
       <r>   -6.2135    1.0000 </r>
       <r>   -6.2100    1.0000 </r>
       <r>   -6.2081    1.0000 </r>
       <r>   -6.1957    1.0000 </r>
       <r>   -6.1916    1.0000 </r>
       <r>   -6.1589    1.0000 </r>
       <r>   -6.1587    1.0000 </r>
       <r>   -6.1492    1.0000 </r>
       <r>   -6.1491    1.0000 </r>
       <r>   -6.0724    1.0000 </r>
       <r>   -6.0713    1.0000 </r>
       <r>   -5.9349    1.0000 </r>
       <r>   -5.9276    1.0000 </r>
       <r>   -5.9108    1.0000 </r>
       <r>   -5.9034    1.0000 </r>
       <r>   -5.8365    1.0000 </r>
       <r>   -5.7895    1.0000 </r>
       <r>   -5.7819    1.0000 </r>
       <r>   -5.7705    1.0000 </r>
       <r>   -5.7676    1.0000 </r>
       <r>   -5.7652    1.0000 </r>
       <r>   -5.7623    1.0000 </r>
       <r>   -5.7593    1.0000 </r>
       <r>   -5.7587    1.0000 </r>
       <r>   -5.7574    1.0000 </r>
       <r>   -5.7554    1.0000 </r>
       <r>   -5.7496    1.0000 </r>
       <r>   -5.7350    1.0000 </r>
       <r>   -5.6802    1.0000 </r>
       <r>   -5.6517    1.0000 </r>
       <r>   -5.6391    1.0000 </r>
       <r>   -5.6232    1.0000 </r>
       <r>   -5.6231    1.0000 </r>
       <r>   -5.6200    1.0000 </r>
       <r>   -5.6199    1.0000 </r>
       <r>   -5.2286    1.0000 </r>
       <r>   -5.2269    1.0000 </r>
       <r>   -5.2263    1.0000 </r>
       <r>   -5.2247    1.0000 </r>
       <r>   -5.2215    1.0000 </r>
       <r>   -5.2204    1.0000 </r>
       <r>   -5.2191    1.0000 </r>
       <r>   -5.2188    1.0000 </r>
       <r>   -5.2179    1.0000 </r>
       <r>   -5.2175    1.0000 </r>
       <r>   -5.2167    1.0000 </r>
       <r>   -5.2164    1.0000 </r>
       <r>   -5.1063    1.0000 </r>
       <r>   -5.0950    1.0000 </r>
       <r>   -5.0908    1.0000 </r>
       <r>   -5.0907    1.0000 </r>
       <r>   -5.0878    1.0000 </r>
       <r>   -5.0878    1.0000 </r>
       <r>   -5.0876    1.0000 </r>
       <r>   -5.0875    1.0000 </r>
       <r>   -5.0084    1.0000 </r>
       <r>   -4.9191    1.0000 </r>
       <r>   -4.8269    1.0000 </r>
       <r>   -4.5973    1.0000 </r>
       <r>   -4.5428    1.0000 </r>
       <r>   -4.5347    1.0000 </r>
       <r>   -4.4749    1.0000 </r>
       <r>   -4.4741    1.0000 </r>
       <r>   -4.4719    1.0000 </r>
       <r>   -4.4713    1.0000 </r>
       <r>   -4.4701    1.0000 </r>
       <r>   -4.4690    1.0000 </r>
       <r>   -4.4683    1.0000 </r>
       <r>   -4.4662    1.0000 </r>
       <r>   -4.3413    1.0000 </r>
       <r>   -4.3410    1.0000 </r>
       <r>   -4.3409    1.0000 </r>
       <r>   -4.3408    1.0000 </r>
       <r>   -4.3119    1.0000 </r>
       <r>   -4.1906    1.0000 </r>
       <r>   -4.0919    1.0000 </r>
       <r>   -4.0880    1.0000 </r>
       <r>   -4.0873    1.0000 </r>
       <r>   -4.0846    1.0000 </r>
       <r>   -4.0826    1.0000 </r>
       <r>   -4.0744    1.0000 </r>
       <r>   -4.0743    1.0000 </r>
       <r>   -4.0712    1.0000 </r>
       <r>   -4.0701    1.0000 </r>
       <r>   -4.0358    1.0000 </r>
       <r>   -4.0246    1.0000 </r>
       <r>   -3.9502    1.0000 </r>
       <r>   -3.9501    1.0000 </r>
       <r>   -3.9467    1.0000 </r>
       <r>   -3.9466    1.0000 </r>
       <r>   -3.9074    1.0000 </r>
       <r>   -3.8631    1.0000 </r>
       <r>   -3.7743    1.0000 </r>
       <r>   -3.6222    1.0000 </r>
       <r>   -3.6208    1.0000 </r>
       <r>   -3.6152    1.0000 </r>
       <r>   -3.6140    1.0000 </r>
       <r>   -3.6049    1.0000 </r>
       <r>   -3.6028    1.0000 </r>
       <r>   -3.5987    1.0000 </r>
       <r>   -3.5969    1.0000 </r>
       <r>   -3.5947    1.0000 </r>
       <r>   -3.4796    1.0000 </r>
       <r>   -3.4795    1.0000 </r>
       <r>   -3.4741    1.0000 </r>
       <r>   -3.4741    1.0000 </r>
       <r>   -3.4688    1.0000 </r>
       <r>   -3.4679    1.0000 </r>
       <r>   -3.4673    1.0000 </r>
       <r>   -3.4656    1.0000 </r>
       <r>   -3.4650    1.0000 </r>
       <r>   -3.3893    1.0000 </r>
       <r>   -3.3575    1.0000 </r>
       <r>   -3.3422    1.0000 </r>
       <r>   -3.3383    1.0000 </r>
       <r>   -3.3383    1.0000 </r>
       <r>   -3.3147    1.0000 </r>
       <r>   -3.3063    1.0000 </r>
       <r>   -3.1465    1.0000 </r>
       <r>   -3.0895    1.0000 </r>
       <r>   -3.0767    1.0000 </r>
       <r>   -3.0736    1.0000 </r>
       <r>   -3.0712    1.0000 </r>
       <r>   -3.0666    1.0000 </r>
       <r>   -3.0023    1.0000 </r>
       <r>   -2.9995    1.0000 </r>
       <r>   -2.9864    1.0000 </r>
       <r>   -2.9383    1.0000 </r>
       <r>   -2.9377    1.0000 </r>
       <r>   -2.8455    1.0000 </r>
       <r>   -2.7637    1.0000 </r>
       <r>   -2.7599    1.0000 </r>
       <r>   -2.7516    1.0000 </r>
       <r>   -2.7276    1.0000 </r>
       <r>   -2.7234    1.0000 </r>
       <r>   -2.6736    1.0000 </r>
       <r>   -2.6721    1.0000 </r>
       <r>   -2.6688    1.0000 </r>
       <r>   -2.6495    1.0000 </r>
       <r>   -2.6138    1.0000 </r>
       <r>   -2.5455    1.0000 </r>
       <r>   -2.5451    1.0000 </r>
       <r>   -2.5428    1.0000 </r>
       <r>   -2.5146    1.0000 </r>
       <r>   -2.4620    1.0000 </r>
       <r>   -2.3911    1.0000 </r>
       <r>   -2.3858    1.0000 </r>
       <r>   -2.3770    1.0000 </r>
       <r>   -2.3748    1.0000 </r>
       <r>   -2.3738    1.0000 </r>
       <r>   -2.3724    1.0000 </r>
       <r>   -2.3709    1.0000 </r>
       <r>   -2.3705    1.0000 </r>
       <r>   -2.3684    1.0000 </r>
       <r>   -2.3684    1.0000 </r>
       <r>   -2.3662    1.0000 </r>
       <r>   -2.3420    1.0000 </r>
       <r>   -2.2704    1.0000 </r>
       <r>   -2.2630    1.0000 </r>
       <r>   -2.2560    1.0000 </r>
       <r>   -2.2410    1.0000 </r>
       <r>   -2.2406    1.0000 </r>
       <r>   -2.2405    1.0000 </r>
       <r>   -2.2403    1.0000 </r>
       <r>   -2.2362    1.0000 </r>
       <r>   -2.2061    1.0000 </r>
       <r>   -2.1944    1.0000 </r>
       <r>   -2.1930    1.0000 </r>
       <r>   -2.1631    1.0000 </r>
       <r>   -2.1500    1.0000 </r>
       <r>   -2.1427    1.0000 </r>
       <r>   -2.1239    1.0000 </r>
       <r>   -2.0976    1.0000 </r>
       <r>   -2.0915    1.0000 </r>
       <r>   -2.0907    1.0000 </r>
       <r>   -2.0858    1.0000 </r>
       <r>   -2.0852    1.0000 </r>
       <r>   -2.0582    1.0000 </r>
       <r>   -2.0569    1.0000 </r>
       <r>   -2.0515    1.0000 </r>
       <r>   -2.0503    1.0000 </r>
       <r>   -2.0079    1.0000 </r>
       <r>   -1.9630    1.0000 </r>
       <r>   -1.9430    1.0000 </r>
       <r>   -1.9430    1.0000 </r>
       <r>   -1.9331    1.0000 </r>
       <r>   -1.9331    1.0000 </r>
       <r>   -1.9310    1.0000 </r>
       <r>   -1.9063    1.0000 </r>
       <r>   -1.9051    1.0000 </r>
       <r>   -1.8978    1.0000 </r>
       <r>   -1.8957    1.0000 </r>
       <r>   -1.8642    1.0000 </r>
       <r>   -1.8617    1.0000 </r>
       <r>   -1.8595    1.0000 </r>
       <r>   -1.8590    1.0000 </r>
       <r>   -1.8584    1.0000 </r>
       <r>   -1.8572    1.0000 </r>
       <r>   -1.8562    1.0000 </r>
       <r>   -1.8534    1.0000 </r>
       <r>   -1.8507    1.0000 </r>
       <r>   -1.7807    1.0000 </r>
       <r>   -1.7784    1.0000 </r>
       <r>   -1.7774    1.0000 </r>
       <r>   -1.7769    1.0000 </r>
       <r>   -1.7747    1.0000 </r>
       <r>   -1.7737    1.0000 </r>
       <r>   -1.7722    1.0000 </r>
       <r>   -1.7698    1.0000 </r>
       <r>   -1.7443    1.0000 </r>
       <r>   -1.7430    1.0000 </r>
       <r>   -1.7411    1.0000 </r>
       <r>   -1.7404    1.0000 </r>
       <r>   -1.7111    1.0000 </r>
       <r>   -1.7053    1.0000 </r>
       <r>   -1.6627    1.0000 </r>
       <r>   -1.6451    1.0000 </r>
       <r>   -1.6450    1.0000 </r>
       <r>   -1.6449    1.0000 </r>
       <r>   -1.6449    1.0000 </r>
       <r>   -1.6229    1.0000 </r>
       <r>   -1.6095    1.0000 </r>
       <r>   -1.6073    1.0000 </r>
       <r>   -1.5849    1.0000 </r>
       <r>   -1.5836    1.0000 </r>
       <r>   -1.5794    1.0000 </r>
       <r>   -1.5574    1.0000 </r>
       <r>   -1.5548    1.0000 </r>
       <r>   -1.5499    1.0000 </r>
       <r>   -1.4501    1.0000 </r>
       <r>   -1.4450    1.0000 </r>
       <r>   -1.4410    1.0000 </r>
       <r>   -1.4316    1.0000 </r>
       <r>   -1.2552    1.0000 </r>
       <r>   -1.2521    1.0000 </r>
       <r>   -1.2355    1.0000 </r>
       <r>   -1.2347    1.0000 </r>
       <r>   -1.2266    1.0000 </r>
       <r>   -1.2234    1.0000 </r>
       <r>   -1.2205    1.0000 </r>
       <r>   -1.2092    1.0000 </r>
       <r>   -1.2065    1.0000 </r>
       <r>   -1.2061    1.0000 </r>
       <r>   -1.2034    1.0000 </r>
       <r>   -1.1919    1.0000 </r>
       <r>   -1.1870    1.0000 </r>
       <r>   -1.1831    1.0000 </r>
       <r>   -1.1713    1.0000 </r>
       <r>   -1.1495    1.0000 </r>
       <r>   -1.1164    1.0000 </r>
       <r>   -1.0878    1.0000 </r>
       <r>   -1.0876    1.0000 </r>
       <r>   -1.0824    1.0000 </r>
       <r>   -1.0824    1.0000 </r>
       <r>   -1.0538    1.0000 </r>
       <r>   -1.0093    1.0000 </r>
       <r>   -0.9281    1.0000 </r>
       <r>   -0.9149    1.0000 </r>
       <r>   -0.9107    1.0000 </r>
       <r>   -0.9087    1.0000 </r>
       <r>   -0.8996    1.0000 </r>
       <r>   -0.8547    1.0000 </r>
       <r>   -0.8441    1.0000 </r>
       <r>   -0.8217    1.0000 </r>
       <r>   -0.7759    1.0000 </r>
       <r>   -0.7080    1.0000 </r>
       <r>   -0.6861    1.0000 </r>
       <r>   -0.6848    1.0000 </r>
       <r>   -0.6527    1.0000 </r>
       <r>   -0.5968    1.0000 </r>
       <r>   -0.5946    1.0000 </r>
       <r>   -0.5913    1.0000 </r>
       <r>   -0.5233    1.0000 </r>
       <r>   -0.5189    1.0000 </r>
       <r>   -0.5176    1.0000 </r>
       <r>   -0.5156    1.0000 </r>
       <r>   -0.5142    1.0000 </r>
       <r>   -0.4609    1.0000 </r>
       <r>   -0.4601    1.0000 </r>
       <r>   -0.4577    1.0000 </r>
       <r>   -0.4564    1.0000 </r>
       <r>   -0.4542    1.0000 </r>
       <r>   -0.4535    1.0000 </r>
       <r>   -0.4513    1.0000 </r>
       <r>   -0.4447    1.0000 </r>
       <r>   -0.4032    1.0000 </r>
       <r>   -0.3835    1.0000 </r>
       <r>   -0.3834    1.0000 </r>
       <r>   -0.3545    1.0000 </r>
       <r>   -0.3511    1.0000 </r>
       <r>   -0.3484    1.0000 </r>
       <r>   -0.3463    1.0000 </r>
       <r>   -0.3441    1.0000 </r>
       <r>   -0.3265    1.0000 </r>
       <r>   -0.3260    1.0000 </r>
       <r>   -0.3257    1.0000 </r>
       <r>   -0.3254    1.0000 </r>
       <r>   -0.2756    1.0000 </r>
       <r>   -0.2623    1.0000 </r>
       <r>   -0.2576    1.0000 </r>
       <r>   -0.2564    1.0000 </r>
       <r>   -0.2557    1.0000 </r>
       <r>   -0.2549    1.0000 </r>
       <r>   -0.2466    1.0000 </r>
       <r>   -0.2247    1.0000 </r>
       <r>   -0.2241    1.0000 </r>
       <r>   -0.2152    1.0000 </r>
       <r>   -0.2090    1.0000 </r>
       <r>   -0.1406    1.0000 </r>
       <r>   -0.1396    1.0000 </r>
       <r>   -0.0451    1.0000 </r>
       <r>   -0.0063    1.0000 </r>
       <r>    0.0011    1.0000 </r>
       <r>    0.0097    1.0000 </r>
       <r>    0.0116    1.0000 </r>
       <r>    0.0169    1.0000 </r>
       <r>    0.0197    1.0000 </r>
       <r>    0.0343    1.0000 </r>
       <r>    0.0357    1.0000 </r>
       <r>    0.0745    1.0000 </r>
       <r>    0.1874    1.0000 </r>
       <r>    0.2886    1.0000 </r>
       <r>    0.3192    1.0000 </r>
       <r>    0.3440    1.0000 </r>
       <r>    0.3460    1.0000 </r>
       <r>    0.3481    1.0000 </r>
       <r>    0.3502    1.0000 </r>
       <r>    0.3742    1.0000 </r>
       <r>    0.3969    1.0000 </r>
       <r>    0.4527    1.0000 </r>
       <r>    0.4767    1.0000 </r>
       <r>    0.4773    1.0000 </r>
       <r>    0.4889    1.0000 </r>
       <r>    0.5105    1.0000 </r>
       <r>    0.5573    1.0000 </r>
       <r>    0.5588    1.0000 </r>
       <r>    0.5663    1.0000 </r>
       <r>    0.5870    1.0000 </r>
       <r>    0.5889    1.0000 </r>
       <r>    0.5968    1.0000 </r>
       <r>    0.6200    1.0000 </r>
       <r>    0.6355    1.0000 </r>
       <r>    0.6553    1.0000 </r>
       <r>    0.6941    1.0000 </r>
       <r>    0.7033    1.0000 </r>
       <r>    0.7337    1.0000 </r>
       <r>    0.7374    1.0000 </r>
       <r>    0.8553    1.0000 </r>
       <r>    0.8560    1.0000 </r>
       <r>    0.8570    1.0000 </r>
       <r>    0.8626    1.0000 </r>
       <r>    0.8645    1.0000 </r>
       <r>    0.8658    1.0000 </r>
       <r>    0.8686    1.0000 </r>
       <r>    0.8749    1.0000 </r>
       <r>    0.8759    1.0000 </r>
       <r>    0.8768    1.0000 </r>
       <r>    0.8838    1.0000 </r>
       <r>    0.8859    1.0000 </r>
       <r>    0.8967    1.0000 </r>
       <r>    0.8970    1.0000 </r>
       <r>    0.9055    1.0000 </r>
       <r>    0.9091    1.0000 </r>
       <r>    0.9937    1.0000 </r>
       <r>    1.0028    1.0000 </r>
       <r>    1.0603    1.0000 </r>
       <r>    1.0656    1.0000 </r>
       <r>    1.0771    1.0000 </r>
       <r>    1.0785    1.0000 </r>
       <r>    1.0943    1.0000 </r>
       <r>    1.0950    1.0000 </r>
       <r>    1.1086    1.0000 </r>
       <r>    1.1096    1.0000 </r>
       <r>    1.1187    1.0000 </r>
       <r>    1.2572    1.0000 </r>
       <r>    1.2630    1.0000 </r>
       <r>    1.3108    1.0000 </r>
       <r>    1.4349    1.0000 </r>
       <r>    1.4534    1.0000 </r>
       <r>    1.4566    1.0000 </r>
       <r>    1.4711    1.0000 </r>
       <r>    1.6005    1.0000 </r>
       <r>    1.6031    1.0000 </r>
       <r>    1.6053    1.0000 </r>
       <r>    1.6067    1.0000 </r>
       <r>    1.6159    1.0000 </r>
       <r>    1.6263    1.0000 </r>
       <r>    1.6570    1.0000 </r>
       <r>    1.6679    1.0000 </r>
       <r>    1.7137    1.0000 </r>
       <r>    1.7146    1.0000 </r>
       <r>    1.7690    1.0000 </r>
       <r>    1.7733    1.0000 </r>
       <r>    1.8452    1.0000 </r>
       <r>    1.8513    1.0000 </r>
       <r>    1.8537    1.0000 </r>
       <r>    1.8627    1.0000 </r>
       <r>    1.8661    1.0000 </r>
       <r>    1.8705    1.0000 </r>
       <r>    1.8785    1.0000 </r>
       <r>    1.8798    1.0000 </r>
       <r>    1.9903    1.0000 </r>
       <r>    2.0030    1.0000 </r>
       <r>    2.1875    1.0000 </r>
       <r>    2.1922    1.0000 </r>
       <r>    2.1973    1.0000 </r>
       <r>    2.1997    1.0000 </r>
       <r>    2.2081    1.0000 </r>
       <r>    2.2110    1.0000 </r>
       <r>    2.3799    1.0000 </r>
       <r>    2.3813    1.0000 </r>
       <r>    2.3888    1.0000 </r>
       <r>    2.3901    1.0000 </r>
       <r>    5.5463    0.0000 </r>
       <r>    6.6588    0.0000 </r>
       <r>    6.6753    0.0000 </r>
       <r>    6.6833    0.0000 </r>
       <r>    6.7932    0.0000 </r>
       <r>    6.8856    0.0000 </r>
       <r>    6.9412    0.0000 </r>
       <r>    7.0092    0.0000 </r>
       <r>    7.0224    0.0000 </r>
       <r>    7.0453    0.0000 </r>
       <r>    7.0546    0.0000 </r>
       <r>    7.0760    0.0000 </r>
       <r>    7.0868    0.0000 </r>
       <r>    7.1079    0.0000 </r>
       <r>    7.1171    0.0000 </r>
       <r>    7.1459    0.0000 </r>
       <r>    7.1469    0.0000 </r>
       <r>    7.2576    0.0000 </r>
       <r>    7.2652    0.0000 </r>
       <r>    7.2663    0.0000 </r>
       <r>    7.2864    0.0000 </r>
       <r>    7.2870    0.0000 </r>
       <r>    7.4416    0.0000 </r>
       <r>    7.4576    0.0000 </r>
       <r>    7.4666    0.0000 </r>
       <r>    7.4815    0.0000 </r>
       <r>    7.4891    0.0000 </r>
       <r>    7.5705    0.0000 </r>
       <r>    7.5752    0.0000 </r>
       <r>    7.6362    0.0000 </r>
       <r>    7.6480    0.0000 </r>
       <r>    7.6611    0.0000 </r>
       <r>    7.6649    0.0000 </r>
       <r>    7.6662    0.0000 </r>
       <r>    7.6672    0.0000 </r>
       <r>    7.6832    0.0000 </r>
       <r>    7.7170    0.0000 </r>
       <r>    7.7329    0.0000 </r>
       <r>    7.7354    0.0000 </r>
       <r>    7.7952    0.0000 </r>
       <r>    7.8471    0.0000 </r>
       <r>    7.8815    0.0000 </r>
       <r>    7.8995    0.0000 </r>
       <r>    7.9711    0.0000 </r>
       <r>    7.9779    0.0000 </r>
       <r>    8.0055    0.0000 </r>
       <r>    8.0068    0.0000 </r>
       <r>    8.0970    0.0000 </r>
       <r>    8.0997    0.0000 </r>
       <r>    8.1131    0.0000 </r>
       <r>    8.2085    0.0000 </r>
       <r>    8.2296    0.0000 </r>
       <r>    8.2532    0.0000 </r>
       <r>    8.2892    0.0000 </r>
       <r>    8.3388    0.0000 </r>
       <r>    8.3416    0.0000 </r>
       <r>    8.3681    0.0000 </r>
       <r>    8.4743    0.0000 </r>
       <r>    8.4839    0.0000 </r>
       <r>    8.4911    0.0000 </r>
       <r>    8.4949    0.0000 </r>
       <r>    8.4974    0.0000 </r>
       <r>    8.5092    0.0000 </r>
       <r>    8.5105    0.0000 </r>
       <r>    8.5108    0.0000 </r>
       <r>    8.5336    0.0000 </r>
       <r>    8.5698    0.0000 </r>
       <r>    8.6005    0.0000 </r>
       <r>    8.6274    0.0000 </r>
       <r>    8.7868    0.0000 </r>
       <r>    8.8297    0.0000 </r>
       <r>    8.9033    0.0000 </r>
       <r>    8.9110    0.0000 </r>
       <r>    8.9302    0.0000 </r>
       <r>    9.0006    0.0000 </r>
       <r>    9.0086    0.0000 </r>
       <r>    9.0119    0.0000 </r>
       <r>    9.0199    0.0000 </r>
       <r>    9.0207    0.0000 </r>
       <r>    9.0245    0.0000 </r>
       <r>    9.0308    0.0000 </r>
       <r>    9.1313    0.0000 </r>
       <r>    9.1449    0.0000 </r>
       <r>    9.1632    0.0000 </r>
       <r>    9.1662    0.0000 </r>
       <r>    9.1852    0.0000 </r>
       <r>    9.2084    0.0000 </r>
       <r>    9.2092    0.0000 </r>
       <r>    9.2134    0.0000 </r>
       <r>    9.3690    0.0000 </r>
       <r>    9.4074    0.0000 </r>
       <r>    9.4127    0.0000 </r>
       <r>    9.4323    0.0000 </r>
       <r>    9.4447    0.0000 </r>
       <r>    9.4487    0.0000 </r>
       <r>    9.5844    0.0000 </r>
       <r>    9.6019    0.0000 </r>
       <r>    9.6036    0.0000 </r>
       <r>    9.6065    0.0000 </r>
       <r>    9.6077    0.0000 </r>
       <r>    9.6388    0.0000 </r>
       <r>    9.6662    0.0000 </r>
       <r>    9.7112    0.0000 </r>
       <r>    9.7131    0.0000 </r>
       <r>    9.7140    0.0000 </r>
       <r>    9.7293    0.0000 </r>
       <r>    9.7699    0.0000 </r>
       <r>    9.7872    0.0000 </r>
       <r>    9.8361    0.0000 </r>
       <r>    9.8364    0.0000 </r>
       <r>    9.9244    0.0000 </r>
       <r>    9.9269    0.0000 </r>
       <r>    9.9645    0.0000 </r>
       <r>    9.9697    0.0000 </r>
       <r>    9.9724    0.0000 </r>
       <r>   10.0350    0.0000 </r>
       <r>   10.0723    0.0000 </r>
       <r>   10.1149    0.0000 </r>
       <r>   10.1330    0.0000 </r>
       <r>   10.3107    0.0000 </r>
       <r>   10.3473    0.0000 </r>
       <r>   10.4275    0.0000 </r>
       <r>   10.4281    0.0000 </r>
       <r>   10.5260    0.0000 </r>
       <r>   10.5266    0.0000 </r>
       <r>   10.5500    0.0000 </r>
       <r>   10.5542    0.0000 </r>
       <r>   10.8978    0.0000 </r>
       <r>   10.9992    0.0000 </r>
       <r>   11.2080    0.0000 </r>
       <r>   11.2114    0.0000 </r>
       <r>   11.2944    0.0000 </r>
       <r>   11.4158    0.0000 </r>
       <r>   11.4219    0.0000 </r>
       <r>   11.4356    0.0000 </r>
       <r>   11.4697    0.0000 </r>
       <r>   11.5052    0.0000 </r>
       <r>   11.5226    0.0000 </r>
       <r>   11.5574    0.0000 </r>
       <r>   11.5698    0.0000 </r>
       <r>   11.5916    0.0000 </r>
       <r>   11.5909    0.0000 </r>
       <r>   11.6091    0.0000 </r>
       <r>   11.6406    0.0000 </r>
       <r>   11.6691    0.0000 </r>
       <r>   11.7403    0.0000 </r>
       <r>   11.7906    0.0000 </r>
       <r>   11.8518    0.0000 </r>
       <r>   11.8934    0.0000 </r>
       <r>   11.9502    0.0000 </r>
       <r>   12.0096    0.0000 </r>
       <r>   12.0562    0.0000 </r>
      </set>
      <set comment="kpoint 8">
       <r>  -17.1661    1.0000 </r>
       <r>  -15.7432    1.0000 </r>
       <r>  -15.6888    1.0000 </r>
       <r>  -15.4114    1.0000 </r>
       <r>  -15.2838    1.0000 </r>
       <r>  -15.2745    1.0000 </r>
       <r>  -15.2426    1.0000 </r>
       <r>  -15.2041    1.0000 </r>
       <r>  -15.1424    1.0000 </r>
       <r>  -15.0836    1.0000 </r>
       <r>  -15.0472    1.0000 </r>
       <r>  -15.0339    1.0000 </r>
       <r>  -15.0154    1.0000 </r>
       <r>  -14.9848    1.0000 </r>
       <r>  -14.9831    1.0000 </r>
       <r>  -14.9056    1.0000 </r>
       <r>  -14.8990    1.0000 </r>
       <r>  -14.8524    1.0000 </r>
       <r>  -14.7580    1.0000 </r>
       <r>  -14.7572    1.0000 </r>
       <r>  -14.6140    1.0000 </r>
       <r>  -14.5661    1.0000 </r>
       <r>  -14.5390    1.0000 </r>
       <r>  -14.4678    1.0000 </r>
       <r>  -14.4616    1.0000 </r>
       <r>  -14.4602    1.0000 </r>
       <r>  -14.4584    1.0000 </r>
       <r>  -14.4232    1.0000 </r>
       <r>  -14.4007    1.0000 </r>
       <r>  -14.3958    1.0000 </r>
       <r>  -14.3851    1.0000 </r>
       <r>  -14.3351    1.0000 </r>
       <r>  -14.2476    1.0000 </r>
       <r>  -14.2453    1.0000 </r>
       <r>  -14.2436    1.0000 </r>
       <r>  -14.2427    1.0000 </r>
       <r>  -14.2075    1.0000 </r>
       <r>  -14.2059    1.0000 </r>
       <r>  -14.1683    1.0000 </r>
       <r>  -14.1484    1.0000 </r>
       <r>  -14.1059    1.0000 </r>
       <r>  -14.0340    1.0000 </r>
       <r>  -13.9976    1.0000 </r>
       <r>  -13.9973    1.0000 </r>
       <r>  -13.9395    1.0000 </r>
       <r>  -13.7795    1.0000 </r>
       <r>  -13.7410    1.0000 </r>
       <r>  -13.7396    1.0000 </r>
       <r>  -13.7135    1.0000 </r>
       <r>  -13.7110    1.0000 </r>
       <r>  -13.7011    1.0000 </r>
       <r>  -13.6798    1.0000 </r>
       <r>  -13.6580    1.0000 </r>
       <r>  -13.6559    1.0000 </r>
       <r>  -13.5966    1.0000 </r>
       <r>  -13.5326    1.0000 </r>
       <r>  -13.5323    1.0000 </r>
       <r>  -13.5191    1.0000 </r>
       <r>  -13.5184    1.0000 </r>
       <r>  -13.5020    1.0000 </r>
       <r>  -13.3574    1.0000 </r>
       <r>  -13.3334    1.0000 </r>
       <r>  -13.2536    1.0000 </r>
       <r>  -13.2218    1.0000 </r>
       <r>  -13.1074    1.0000 </r>
       <r>  -13.0698    1.0000 </r>
       <r>  -13.0626    1.0000 </r>
       <r>  -13.0623    1.0000 </r>
       <r>  -13.0603    1.0000 </r>
       <r>  -13.0338    1.0000 </r>
       <r>  -13.0265    1.0000 </r>
       <r>  -13.0234    1.0000 </r>
       <r>  -13.0153    1.0000 </r>
       <r>  -12.9709    1.0000 </r>
       <r>  -12.9228    1.0000 </r>
       <r>  -12.8935    1.0000 </r>
       <r>  -12.8923    1.0000 </r>
       <r>  -12.8893    1.0000 </r>
       <r>  -12.8888    1.0000 </r>
       <r>  -12.8788    1.0000 </r>
       <r>  -12.8772    1.0000 </r>
       <r>  -12.8772    1.0000 </r>
       <r>  -12.8768    1.0000 </r>
       <r>  -12.8655    1.0000 </r>
       <r>  -12.8575    1.0000 </r>
       <r>  -12.8570    1.0000 </r>
       <r>  -12.8506    1.0000 </r>
       <r>  -12.8503    1.0000 </r>
       <r>  -12.7154    1.0000 </r>
       <r>  -12.7150    1.0000 </r>
       <r>  -12.7147    1.0000 </r>
       <r>  -12.7145    1.0000 </r>
       <r>  -12.6817    1.0000 </r>
       <r>  -12.6080    1.0000 </r>
       <r>  -12.5978    1.0000 </r>
       <r>  -12.5762    1.0000 </r>
       <r>  -12.5725    1.0000 </r>
       <r>  -12.5515    1.0000 </r>
       <r>  -12.5336    1.0000 </r>
       <r>  -12.4983    1.0000 </r>
       <r>  -12.4352    1.0000 </r>
       <r>  -12.4291    1.0000 </r>
       <r>  -12.4229    1.0000 </r>
       <r>  -12.4216    1.0000 </r>
       <r>  -12.3411    1.0000 </r>
       <r>  -12.3388    1.0000 </r>
       <r>  -12.3207    1.0000 </r>
       <r>  -12.3175    1.0000 </r>
       <r>  -12.2457    1.0000 </r>
       <r>  -12.2441    1.0000 </r>
       <r>  -12.2361    1.0000 </r>
       <r>  -12.2318    1.0000 </r>
       <r>  -12.2229    1.0000 </r>
       <r>  -12.2172    1.0000 </r>
       <r>  -12.2085    1.0000 </r>
       <r>  -12.2054    1.0000 </r>
       <r>  -12.1766    1.0000 </r>
       <r>  -12.1761    1.0000 </r>
       <r>  -12.1698    1.0000 </r>
       <r>  -12.1696    1.0000 </r>
       <r>  -12.0957    1.0000 </r>
       <r>  -12.0956    1.0000 </r>
       <r>  -12.0879    1.0000 </r>
       <r>  -12.0876    1.0000 </r>
       <r>  -12.0871    1.0000 </r>
       <r>  -12.0841    1.0000 </r>
       <r>  -11.9509    1.0000 </r>
       <r>  -11.9485    1.0000 </r>
       <r>  -11.9460    1.0000 </r>
       <r>  -11.9436    1.0000 </r>
       <r>  -11.8159    1.0000 </r>
       <r>  -11.8153    1.0000 </r>
       <r>  -11.8069    1.0000 </r>
       <r>  -11.8068    1.0000 </r>
       <r>  -11.8028    1.0000 </r>
       <r>  -11.8026    1.0000 </r>
       <r>  -11.7887    1.0000 </r>
       <r>  -11.7834    1.0000 </r>
       <r>  -11.7812    1.0000 </r>
       <r>  -11.7764    1.0000 </r>
       <r>  -11.6684    1.0000 </r>
       <r>  -11.6682    1.0000 </r>
       <r>  -11.6614    1.0000 </r>
       <r>  -11.6614    1.0000 </r>
       <r>   -8.1625    1.0000 </r>
       <r>   -7.2498    1.0000 </r>
       <r>   -7.2354    1.0000 </r>
       <r>   -6.7831    1.0000 </r>
       <r>   -6.6996    1.0000 </r>
       <r>   -6.6790    1.0000 </r>
       <r>   -6.4258    1.0000 </r>
       <r>   -6.4021    1.0000 </r>
       <r>   -6.3170    1.0000 </r>
       <r>   -6.3083    1.0000 </r>
       <r>   -6.3051    1.0000 </r>
       <r>   -6.3033    1.0000 </r>
       <r>   -6.2976    1.0000 </r>
       <r>   -6.2831    1.0000 </r>
       <r>   -6.2790    1.0000 </r>
       <r>   -6.2738    1.0000 </r>
       <r>   -6.2703    1.0000 </r>
       <r>   -6.2674    1.0000 </r>
       <r>   -6.2155    1.0000 </r>
       <r>   -6.2130    1.0000 </r>
       <r>   -6.2108    1.0000 </r>
       <r>   -6.2071    1.0000 </r>
       <r>   -6.1951    1.0000 </r>
       <r>   -6.1916    1.0000 </r>
       <r>   -6.1588    1.0000 </r>
       <r>   -6.1586    1.0000 </r>
       <r>   -6.1493    1.0000 </r>
       <r>   -6.1493    1.0000 </r>
       <r>   -6.0726    1.0000 </r>
       <r>   -6.0712    1.0000 </r>
       <r>   -5.9342    1.0000 </r>
       <r>   -5.9267    1.0000 </r>
       <r>   -5.9109    1.0000 </r>
       <r>   -5.9035    1.0000 </r>
       <r>   -5.8366    1.0000 </r>
       <r>   -5.7894    1.0000 </r>
       <r>   -5.7820    1.0000 </r>
       <r>   -5.7692    1.0000 </r>
       <r>   -5.7677    1.0000 </r>
       <r>   -5.7659    1.0000 </r>
       <r>   -5.7614    1.0000 </r>
       <r>   -5.7599    1.0000 </r>
       <r>   -5.7589    1.0000 </r>
       <r>   -5.7578    1.0000 </r>
       <r>   -5.7553    1.0000 </r>
       <r>   -5.7501    1.0000 </r>
       <r>   -5.7353    1.0000 </r>
       <r>   -5.6802    1.0000 </r>
       <r>   -5.6517    1.0000 </r>
       <r>   -5.6393    1.0000 </r>
       <r>   -5.6232    1.0000 </r>
       <r>   -5.6231    1.0000 </r>
       <r>   -5.6201    1.0000 </r>
       <r>   -5.6199    1.0000 </r>
       <r>   -5.2303    1.0000 </r>
       <r>   -5.2278    1.0000 </r>
       <r>   -5.2257    1.0000 </r>
       <r>   -5.2243    1.0000 </r>
       <r>   -5.2222    1.0000 </r>
       <r>   -5.2208    1.0000 </r>
       <r>   -5.2190    1.0000 </r>
       <r>   -5.2184    1.0000 </r>
       <r>   -5.2178    1.0000 </r>
       <r>   -5.2174    1.0000 </r>
       <r>   -5.2168    1.0000 </r>
       <r>   -5.2165    1.0000 </r>
       <r>   -5.1063    1.0000 </r>
       <r>   -5.0950    1.0000 </r>
       <r>   -5.0907    1.0000 </r>
       <r>   -5.0907    1.0000 </r>
       <r>   -5.0879    1.0000 </r>
       <r>   -5.0878    1.0000 </r>
       <r>   -5.0875    1.0000 </r>
       <r>   -5.0875    1.0000 </r>
       <r>   -5.0085    1.0000 </r>
       <r>   -4.9189    1.0000 </r>
       <r>   -4.8269    1.0000 </r>
       <r>   -4.5974    1.0000 </r>
       <r>   -4.5430    1.0000 </r>
       <r>   -4.5347    1.0000 </r>
       <r>   -4.4764    1.0000 </r>
       <r>   -4.4729    1.0000 </r>
       <r>   -4.4714    1.0000 </r>
       <r>   -4.4709    1.0000 </r>
       <r>   -4.4704    1.0000 </r>
       <r>   -4.4682    1.0000 </r>
       <r>   -4.4677    1.0000 </r>
       <r>   -4.4654    1.0000 </r>
       <r>   -4.3414    1.0000 </r>
       <r>   -4.3410    1.0000 </r>
       <r>   -4.3409    1.0000 </r>
       <r>   -4.3407    1.0000 </r>
       <r>   -4.3118    1.0000 </r>
       <r>   -4.1905    1.0000 </r>
       <r>   -4.0920    1.0000 </r>
       <r>   -4.0874    1.0000 </r>
       <r>   -4.0872    1.0000 </r>
       <r>   -4.0841    1.0000 </r>
       <r>   -4.0823    1.0000 </r>
       <r>   -4.0748    1.0000 </r>
       <r>   -4.0743    1.0000 </r>
       <r>   -4.0714    1.0000 </r>
       <r>   -4.0702    1.0000 </r>
       <r>   -4.0357    1.0000 </r>
       <r>   -4.0247    1.0000 </r>
       <r>   -3.9501    1.0000 </r>
       <r>   -3.9500    1.0000 </r>
       <r>   -3.9467    1.0000 </r>
       <r>   -3.9467    1.0000 </r>
       <r>   -3.9072    1.0000 </r>
       <r>   -3.8631    1.0000 </r>
       <r>   -3.7742    1.0000 </r>
       <r>   -3.6216    1.0000 </r>
       <r>   -3.6192    1.0000 </r>
       <r>   -3.6143    1.0000 </r>
       <r>   -3.6126    1.0000 </r>
       <r>   -3.6073    1.0000 </r>
       <r>   -3.6047    1.0000 </r>
       <r>   -3.5997    1.0000 </r>
       <r>   -3.5986    1.0000 </r>
       <r>   -3.5950    1.0000 </r>
       <r>   -3.4795    1.0000 </r>
       <r>   -3.4795    1.0000 </r>
       <r>   -3.4742    1.0000 </r>
       <r>   -3.4741    1.0000 </r>
       <r>   -3.4686    1.0000 </r>
       <r>   -3.4677    1.0000 </r>
       <r>   -3.4672    1.0000 </r>
       <r>   -3.4654    1.0000 </r>
       <r>   -3.4641    1.0000 </r>
       <r>   -3.3890    1.0000 </r>
       <r>   -3.3577    1.0000 </r>
       <r>   -3.3423    1.0000 </r>
       <r>   -3.3384    1.0000 </r>
       <r>   -3.3383    1.0000 </r>
       <r>   -3.3144    1.0000 </r>
       <r>   -3.3060    1.0000 </r>
       <r>   -3.1465    1.0000 </r>
       <r>   -3.0895    1.0000 </r>
       <r>   -3.0780    1.0000 </r>
       <r>   -3.0732    1.0000 </r>
       <r>   -3.0724    1.0000 </r>
       <r>   -3.0662    1.0000 </r>
       <r>   -3.0026    1.0000 </r>
       <r>   -2.9991    1.0000 </r>
       <r>   -2.9866    1.0000 </r>
       <r>   -2.9384    1.0000 </r>
       <r>   -2.9376    1.0000 </r>
       <r>   -2.8456    1.0000 </r>
       <r>   -2.7637    1.0000 </r>
       <r>   -2.7608    1.0000 </r>
       <r>   -2.7516    1.0000 </r>
       <r>   -2.7277    1.0000 </r>
       <r>   -2.7233    1.0000 </r>
       <r>   -2.6737    1.0000 </r>
       <r>   -2.6711    1.0000 </r>
       <r>   -2.6686    1.0000 </r>
       <r>   -2.6486    1.0000 </r>
       <r>   -2.6134    1.0000 </r>
       <r>   -2.5454    1.0000 </r>
       <r>   -2.5451    1.0000 </r>
       <r>   -2.5425    1.0000 </r>
       <r>   -2.5147    1.0000 </r>
       <r>   -2.4621    1.0000 </r>
       <r>   -2.3910    1.0000 </r>
       <r>   -2.3867    1.0000 </r>
       <r>   -2.3810    1.0000 </r>
       <r>   -2.3741    1.0000 </r>
       <r>   -2.3737    1.0000 </r>
       <r>   -2.3726    1.0000 </r>
       <r>   -2.3714    1.0000 </r>
       <r>   -2.3702    1.0000 </r>
       <r>   -2.3686    1.0000 </r>
       <r>   -2.3685    1.0000 </r>
       <r>   -2.3657    1.0000 </r>
       <r>   -2.3428    1.0000 </r>
       <r>   -2.2701    1.0000 </r>
       <r>   -2.2628    1.0000 </r>
       <r>   -2.2558    1.0000 </r>
       <r>   -2.2411    1.0000 </r>
       <r>   -2.2406    1.0000 </r>
       <r>   -2.2405    1.0000 </r>
       <r>   -2.2402    1.0000 </r>
       <r>   -2.2358    1.0000 </r>
       <r>   -2.2059    1.0000 </r>
       <r>   -2.1947    1.0000 </r>
       <r>   -2.1935    1.0000 </r>
       <r>   -2.1631    1.0000 </r>
       <r>   -2.1498    1.0000 </r>
       <r>   -2.1425    1.0000 </r>
       <r>   -2.1238    1.0000 </r>
       <r>   -2.0977    1.0000 </r>
       <r>   -2.0910    1.0000 </r>
       <r>   -2.0905    1.0000 </r>
       <r>   -2.0854    1.0000 </r>
       <r>   -2.0851    1.0000 </r>
       <r>   -2.0590    1.0000 </r>
       <r>   -2.0561    1.0000 </r>
       <r>   -2.0520    1.0000 </r>
       <r>   -2.0490    1.0000 </r>
       <r>   -2.0077    1.0000 </r>
       <r>   -1.9627    1.0000 </r>
       <r>   -1.9429    1.0000 </r>
       <r>   -1.9428    1.0000 </r>
       <r>   -1.9333    1.0000 </r>
       <r>   -1.9332    1.0000 </r>
       <r>   -1.9311    1.0000 </r>
       <r>   -1.9061    1.0000 </r>
       <r>   -1.9056    1.0000 </r>
       <r>   -1.8975    1.0000 </r>
       <r>   -1.8957    1.0000 </r>
       <r>   -1.8662    1.0000 </r>
       <r>   -1.8604    1.0000 </r>
       <r>   -1.8594    1.0000 </r>
       <r>   -1.8590    1.0000 </r>
       <r>   -1.8574    1.0000 </r>
       <r>   -1.8568    1.0000 </r>
       <r>   -1.8562    1.0000 </r>
       <r>   -1.8549    1.0000 </r>
       <r>   -1.8501    1.0000 </r>
       <r>   -1.7790    1.0000 </r>
       <r>   -1.7781    1.0000 </r>
       <r>   -1.7774    1.0000 </r>
       <r>   -1.7766    1.0000 </r>
       <r>   -1.7744    1.0000 </r>
       <r>   -1.7736    1.0000 </r>
       <r>   -1.7725    1.0000 </r>
       <r>   -1.7688    1.0000 </r>
       <r>   -1.7443    1.0000 </r>
       <r>   -1.7429    1.0000 </r>
       <r>   -1.7412    1.0000 </r>
       <r>   -1.7405    1.0000 </r>
       <r>   -1.7110    1.0000 </r>
       <r>   -1.7053    1.0000 </r>
       <r>   -1.6626    1.0000 </r>
       <r>   -1.6451    1.0000 </r>
       <r>   -1.6451    1.0000 </r>
       <r>   -1.6449    1.0000 </r>
       <r>   -1.6449    1.0000 </r>
       <r>   -1.6228    1.0000 </r>
       <r>   -1.6092    1.0000 </r>
       <r>   -1.6077    1.0000 </r>
       <r>   -1.5850    1.0000 </r>
       <r>   -1.5830    1.0000 </r>
       <r>   -1.5786    1.0000 </r>
       <r>   -1.5577    1.0000 </r>
       <r>   -1.5576    1.0000 </r>
       <r>   -1.5513    1.0000 </r>
       <r>   -1.4508    1.0000 </r>
       <r>   -1.4444    1.0000 </r>
       <r>   -1.4409    1.0000 </r>
       <r>   -1.4317    1.0000 </r>
       <r>   -1.2548    1.0000 </r>
       <r>   -1.2517    1.0000 </r>
       <r>   -1.2360    1.0000 </r>
       <r>   -1.2346    1.0000 </r>
       <r>   -1.2267    1.0000 </r>
       <r>   -1.2241    1.0000 </r>
       <r>   -1.2201    1.0000 </r>
       <r>   -1.2076    1.0000 </r>
       <r>   -1.2066    1.0000 </r>
       <r>   -1.2059    1.0000 </r>
       <r>   -1.2017    1.0000 </r>
       <r>   -1.1918    1.0000 </r>
       <r>   -1.1867    1.0000 </r>
       <r>   -1.1831    1.0000 </r>
       <r>   -1.1723    1.0000 </r>
       <r>   -1.1490    1.0000 </r>
       <r>   -1.1161    1.0000 </r>
       <r>   -1.0877    1.0000 </r>
       <r>   -1.0876    1.0000 </r>
       <r>   -1.0825    1.0000 </r>
       <r>   -1.0825    1.0000 </r>
       <r>   -1.0538    1.0000 </r>
       <r>   -1.0093    1.0000 </r>
       <r>   -0.9285    1.0000 </r>
       <r>   -0.9154    1.0000 </r>
       <r>   -0.9097    1.0000 </r>
       <r>   -0.9088    1.0000 </r>
       <r>   -0.8997    1.0000 </r>
       <r>   -0.8545    1.0000 </r>
       <r>   -0.8441    1.0000 </r>
       <r>   -0.8212    1.0000 </r>
       <r>   -0.7757    1.0000 </r>
       <r>   -0.7081    1.0000 </r>
       <r>   -0.6863    1.0000 </r>
       <r>   -0.6849    1.0000 </r>
       <r>   -0.6528    1.0000 </r>
       <r>   -0.5963    1.0000 </r>
       <r>   -0.5953    1.0000 </r>
       <r>   -0.5918    1.0000 </r>
       <r>   -0.5231    1.0000 </r>
       <r>   -0.5216    1.0000 </r>
       <r>   -0.5174    1.0000 </r>
       <r>   -0.5154    1.0000 </r>
       <r>   -0.5141    1.0000 </r>
       <r>   -0.4607    1.0000 </r>
       <r>   -0.4593    1.0000 </r>
       <r>   -0.4572    1.0000 </r>
       <r>   -0.4550    1.0000 </r>
       <r>   -0.4536    1.0000 </r>
       <r>   -0.4531    1.0000 </r>
       <r>   -0.4518    1.0000 </r>
       <r>   -0.4477    1.0000 </r>
       <r>   -0.4030    1.0000 </r>
       <r>   -0.3835    1.0000 </r>
       <r>   -0.3835    1.0000 </r>
       <r>   -0.3562    1.0000 </r>
       <r>   -0.3534    1.0000 </r>
       <r>   -0.3503    1.0000 </r>
       <r>   -0.3463    1.0000 </r>
       <r>   -0.3437    1.0000 </r>
       <r>   -0.3265    1.0000 </r>
       <r>   -0.3260    1.0000 </r>
       <r>   -0.3257    1.0000 </r>
       <r>   -0.3255    1.0000 </r>
       <r>   -0.2758    1.0000 </r>
       <r>   -0.2638    1.0000 </r>
       <r>   -0.2578    1.0000 </r>
       <r>   -0.2565    1.0000 </r>
       <r>   -0.2557    1.0000 </r>
       <r>   -0.2541    1.0000 </r>
       <r>   -0.2461    1.0000 </r>
       <r>   -0.2248    1.0000 </r>
       <r>   -0.2241    1.0000 </r>
       <r>   -0.2150    1.0000 </r>
       <r>   -0.2088    1.0000 </r>
       <r>   -0.1405    1.0000 </r>
       <r>   -0.1398    1.0000 </r>
       <r>   -0.0451    1.0000 </r>
       <r>   -0.0060    1.0000 </r>
       <r>    0.0012    1.0000 </r>
       <r>    0.0097    1.0000 </r>
       <r>    0.0113    1.0000 </r>
       <r>    0.0183    1.0000 </r>
       <r>    0.0194    1.0000 </r>
       <r>    0.0336    1.0000 </r>
       <r>    0.0354    1.0000 </r>
       <r>    0.0749    1.0000 </r>
       <r>    0.1876    1.0000 </r>
       <r>    0.2878    1.0000 </r>
       <r>    0.3190    1.0000 </r>
       <r>    0.3441    1.0000 </r>
       <r>    0.3475    1.0000 </r>
       <r>    0.3496    1.0000 </r>
       <r>    0.3512    1.0000 </r>
       <r>    0.3744    1.0000 </r>
       <r>    0.3970    1.0000 </r>
       <r>    0.4530    1.0000 </r>
       <r>    0.4766    1.0000 </r>
       <r>    0.4773    1.0000 </r>
       <r>    0.4894    1.0000 </r>
       <r>    0.5097    1.0000 </r>
       <r>    0.5574    1.0000 </r>
       <r>    0.5589    1.0000 </r>
       <r>    0.5662    1.0000 </r>
       <r>    0.5876    1.0000 </r>
       <r>    0.5936    1.0000 </r>
       <r>    0.5956    1.0000 </r>
       <r>    0.6199    1.0000 </r>
       <r>    0.6354    1.0000 </r>
       <r>    0.6560    1.0000 </r>
       <r>    0.6943    1.0000 </r>
       <r>    0.7031    1.0000 </r>
       <r>    0.7347    1.0000 </r>
       <r>    0.7375    1.0000 </r>
       <r>    0.8550    1.0000 </r>
       <r>    0.8558    1.0000 </r>
       <r>    0.8581    1.0000 </r>
       <r>    0.8629    1.0000 </r>
       <r>    0.8647    1.0000 </r>
       <r>    0.8664    1.0000 </r>
       <r>    0.8681    1.0000 </r>
       <r>    0.8751    1.0000 </r>
       <r>    0.8756    1.0000 </r>
       <r>    0.8773    1.0000 </r>
       <r>    0.8779    1.0000 </r>
       <r>    0.8848    1.0000 </r>
       <r>    0.8952    1.0000 </r>
       <r>    0.8978    1.0000 </r>
       <r>    0.9055    1.0000 </r>
       <r>    0.9091    1.0000 </r>
       <r>    0.9938    1.0000 </r>
       <r>    1.0027    1.0000 </r>
       <r>    1.0601    1.0000 </r>
       <r>    1.0652    1.0000 </r>
       <r>    1.0781    1.0000 </r>
       <r>    1.0781    1.0000 </r>
       <r>    1.0949    1.0000 </r>
       <r>    1.0952    1.0000 </r>
       <r>    1.1074    1.0000 </r>
       <r>    1.1108    1.0000 </r>
       <r>    1.1190    1.0000 </r>
       <r>    1.2572    1.0000 </r>
       <r>    1.2622    1.0000 </r>
       <r>    1.3107    1.0000 </r>
       <r>    1.4351    1.0000 </r>
       <r>    1.4537    1.0000 </r>
       <r>    1.4560    1.0000 </r>
       <r>    1.4710    1.0000 </r>
       <r>    1.6012    1.0000 </r>
       <r>    1.6022    1.0000 </r>
       <r>    1.6057    1.0000 </r>
       <r>    1.6070    1.0000 </r>
       <r>    1.6158    1.0000 </r>
       <r>    1.6252    1.0000 </r>
       <r>    1.6571    1.0000 </r>
       <r>    1.6679    1.0000 </r>
       <r>    1.7121    1.0000 </r>
       <r>    1.7165    1.0000 </r>
       <r>    1.7693    1.0000 </r>
       <r>    1.7733    1.0000 </r>
       <r>    1.8463    1.0000 </r>
       <r>    1.8519    1.0000 </r>
       <r>    1.8538    1.0000 </r>
       <r>    1.8619    1.0000 </r>
       <r>    1.8661    1.0000 </r>
       <r>    1.8699    1.0000 </r>
       <r>    1.8779    1.0000 </r>
       <r>    1.8806    1.0000 </r>
       <r>    1.9900    1.0000 </r>
       <r>    2.0034    1.0000 </r>
       <r>    2.1881    1.0000 </r>
       <r>    2.1920    1.0000 </r>
       <r>    2.1964    1.0000 </r>
       <r>    2.2000    1.0000 </r>
       <r>    2.2082    1.0000 </r>
       <r>    2.2107    1.0000 </r>
       <r>    2.3801    1.0000 </r>
       <r>    2.3815    1.0000 </r>
       <r>    2.3887    1.0000 </r>
       <r>    2.3899    1.0000 </r>
       <r>    5.5463    0.0000 </r>
       <r>    6.6590    0.0000 </r>
       <r>    6.6755    0.0000 </r>
       <r>    6.6830    0.0000 </r>
       <r>    6.7932    0.0000 </r>
       <r>    6.8858    0.0000 </r>
       <r>    6.9401    0.0000 </r>
       <r>    7.0094    0.0000 </r>
       <r>    7.0226    0.0000 </r>
       <r>    7.0456    0.0000 </r>
       <r>    7.0548    0.0000 </r>
       <r>    7.0763    0.0000 </r>
       <r>    7.0869    0.0000 </r>
       <r>    7.1082    0.0000 </r>
       <r>    7.1173    0.0000 </r>
       <r>    7.1446    0.0000 </r>
       <r>    7.1467    0.0000 </r>
       <r>    7.2581    0.0000 </r>
       <r>    7.2661    0.0000 </r>
       <r>    7.2662    0.0000 </r>
       <r>    7.2863    0.0000 </r>
       <r>    7.2866    0.0000 </r>
       <r>    7.4412    0.0000 </r>
       <r>    7.4571    0.0000 </r>
       <r>    7.4654    0.0000 </r>
       <r>    7.4815    0.0000 </r>
       <r>    7.4899    0.0000 </r>
       <r>    7.5713    0.0000 </r>
       <r>    7.5754    0.0000 </r>
       <r>    7.6369    0.0000 </r>
       <r>    7.6482    0.0000 </r>
       <r>    7.6610    0.0000 </r>
       <r>    7.6651    0.0000 </r>
       <r>    7.6660    0.0000 </r>
       <r>    7.6672    0.0000 </r>
       <r>    7.6835    0.0000 </r>
       <r>    7.7169    0.0000 </r>
       <r>    7.7339    0.0000 </r>
       <r>    7.7356    0.0000 </r>
       <r>    7.7955    0.0000 </r>
       <r>    7.8452    0.0000 </r>
       <r>    7.8820    0.0000 </r>
       <r>    7.8997    0.0000 </r>
       <r>    7.9714    0.0000 </r>
       <r>    7.9782    0.0000 </r>
       <r>    8.0048    0.0000 </r>
       <r>    8.0064    0.0000 </r>
       <r>    8.0971    0.0000 </r>
       <r>    8.0985    0.0000 </r>
       <r>    8.1131    0.0000 </r>
       <r>    8.2083    0.0000 </r>
       <r>    8.2300    0.0000 </r>
       <r>    8.2531    0.0000 </r>
       <r>    8.2895    0.0000 </r>
       <r>    8.3387    0.0000 </r>
       <r>    8.3400    0.0000 </r>
       <r>    8.3688    0.0000 </r>
       <r>    8.4738    0.0000 </r>
       <r>    8.4834    0.0000 </r>
       <r>    8.4911    0.0000 </r>
       <r>    8.4950    0.0000 </r>
       <r>    8.4973    0.0000 </r>
       <r>    8.5094    0.0000 </r>
       <r>    8.5103    0.0000 </r>
       <r>    8.5106    0.0000 </r>
       <r>    8.5340    0.0000 </r>
       <r>    8.5700    0.0000 </r>
       <r>    8.6011    0.0000 </r>
       <r>    8.6271    0.0000 </r>
       <r>    8.7870    0.0000 </r>
       <r>    8.8300    0.0000 </r>
       <r>    8.9034    0.0000 </r>
       <r>    8.9111    0.0000 </r>
       <r>    8.9301    0.0000 </r>
       <r>    9.0000    0.0000 </r>
       <r>    9.0077    0.0000 </r>
       <r>    9.0124    0.0000 </r>
       <r>    9.0199    0.0000 </r>
       <r>    9.0206    0.0000 </r>
       <r>    9.0242    0.0000 </r>
       <r>    9.0309    0.0000 </r>
       <r>    9.1311    0.0000 </r>
       <r>    9.1446    0.0000 </r>
       <r>    9.1632    0.0000 </r>
       <r>    9.1665    0.0000 </r>
       <r>    9.1844    0.0000 </r>
       <r>    9.2087    0.0000 </r>
       <r>    9.2092    0.0000 </r>
       <r>    9.2146    0.0000 </r>
       <r>    9.3688    0.0000 </r>
       <r>    9.4085    0.0000 </r>
       <r>    9.4128    0.0000 </r>
       <r>    9.4326    0.0000 </r>
       <r>    9.4449    0.0000 </r>
       <r>    9.4490    0.0000 </r>
       <r>    9.5846    0.0000 </r>
       <r>    9.6018    0.0000 </r>
       <r>    9.6041    0.0000 </r>
       <r>    9.6066    0.0000 </r>
       <r>    9.6079    0.0000 </r>
       <r>    9.6384    0.0000 </r>
       <r>    9.6664    0.0000 </r>
       <r>    9.7115    0.0000 </r>
       <r>    9.7131    0.0000 </r>
       <r>    9.7139    0.0000 </r>
       <r>    9.7300    0.0000 </r>
       <r>    9.7694    0.0000 </r>
       <r>    9.7870    0.0000 </r>
       <r>    9.8364    0.0000 </r>
       <r>    9.8365    0.0000 </r>
       <r>    9.9247    0.0000 </r>
       <r>    9.9268    0.0000 </r>
       <r>    9.9642    0.0000 </r>
       <r>    9.9694    0.0000 </r>
       <r>    9.9718    0.0000 </r>
       <r>   10.0354    0.0000 </r>
       <r>   10.0718    0.0000 </r>
       <r>   10.1141    0.0000 </r>
       <r>   10.1338    0.0000 </r>
       <r>   10.3113    0.0000 </r>
       <r>   10.3477    0.0000 </r>
       <r>   10.4266    0.0000 </r>
       <r>   10.4273    0.0000 </r>
       <r>   10.5264    0.0000 </r>
       <r>   10.5268    0.0000 </r>
       <r>   10.5493    0.0000 </r>
       <r>   10.5542    0.0000 </r>
       <r>   10.8984    0.0000 </r>
       <r>   11.0001    0.0000 </r>
       <r>   11.2083    0.0000 </r>
       <r>   11.2115    0.0000 </r>
       <r>   11.2972    0.0000 </r>
       <r>   11.4125    0.0000 </r>
       <r>   11.4180    0.0000 </r>
       <r>   11.4334    0.0000 </r>
       <r>   11.4488    0.0000 </r>
       <r>   11.5167    0.0000 </r>
       <r>   11.5388    0.0000 </r>
       <r>   11.5647    0.0000 </r>
       <r>   11.5832    0.0000 </r>
       <r>   11.5868    0.0000 </r>
       <r>   11.5955    0.0000 </r>
       <r>   11.6140    0.0000 </r>
       <r>   11.6468    0.0000 </r>
       <r>   11.6646    0.0000 </r>
       <r>   11.7428    0.0000 </r>
       <r>   11.8158    0.0000 </r>
       <r>   11.8846    0.0000 </r>
       <r>   11.9343    0.0000 </r>
       <r>   11.9535    0.0000 </r>
       <r>   11.9802    0.0000 </r>
       <r>   12.0283    0.0000 </r>
      </set>
     </set>
    </set>
   </array>
  </eigenvalues>
  <separator name="orbital magnetization" >
   <v name="MAGDIPOLOUT">      0.00000000      0.00000000      0.00000000</v>
  </separator>
  <dos>
   <i name="efermi">      2.78824285 </i>
   <total>
    <array>
     <dimension dim="1">gridpoints</dimension>
     <dimension dim="2">spin</dimension>
     <field>energy</field>
     <field>total</field>
     <field>integrated</field>
     <set>
      <set comment="spin 1">
       <r>   -18.7784     0.0000     0.0000 </r>
       <r>   -18.6695     0.0000     0.0000 </r>
       <r>   -18.5607     0.0000     0.0000 </r>
       <r>   -18.4518     0.0000     0.0000 </r>
       <r>   -18.3430     0.0000     0.0000 </r>
       <r>   -18.2341     0.0000     0.0000 </r>
       <r>   -18.1253     0.0000     0.0000 </r>
       <r>   -18.0164     0.0000     0.0000 </r>
       <r>   -17.9075     0.0000     0.0000 </r>
       <r>   -17.7987     0.0000     0.0000 </r>
       <r>   -17.6898     0.0000     0.0000 </r>
       <r>   -17.5810     0.0000     0.0000 </r>
       <r>   -17.4721     0.0000     0.0000 </r>
       <r>   -17.3633     0.4554     0.0496 </r>
       <r>   -17.2544    15.4855     1.7352 </r>
       <r>   -17.1456     2.4322     2.0000 </r>
       <r>   -17.0367     0.0003     2.0000 </r>
       <r>   -16.9279     0.0000     2.0000 </r>
       <r>   -16.8190     0.0000     2.0000 </r>
       <r>   -16.7102     0.0000     2.0000 </r>
       <r>   -16.6013     0.0000     2.0000 </r>
       <r>   -16.4924     0.0000     2.0000 </r>
       <r>   -16.3836     0.0000     2.0000 </r>
       <r>   -16.2747     0.0000     2.0000 </r>
       <r>   -16.1659     0.0000     2.0000 </r>
       <r>   -16.0570     0.0000     2.0000 </r>
       <r>   -15.9482     0.0000     2.0000 </r>
       <r>   -15.8393     0.5065     2.0551 </r>
       <r>   -15.7305    22.2905     4.4815 </r>
       <r>   -15.6216    14.3409     6.0426 </r>
       <r>   -15.5128     4.0762     6.4863 </r>
       <r>   -15.4039    10.6439     7.6449 </r>
       <r>   -15.2951    23.8792    10.2443 </r>
       <r>   -15.1862    44.9712    15.1395 </r>
       <r>   -15.0774    44.3530    19.9675 </r>
       <r>   -14.9685    56.1095    26.0752 </r>
       <r>   -14.8596    60.6734    32.6798 </r>
       <r>   -14.7508    61.8876    39.4165 </r>
       <r>   -14.6419    36.5696    43.3972 </r>
       <r>   -14.5331    54.2153    49.2987 </r>
       <r>   -14.4242    69.6976    56.8855 </r>
       <r>   -14.3154    59.7297    63.3873 </r>
       <r>   -14.2065    75.8864    71.6478 </r>
       <r>   -14.0977    58.4138    78.0064 </r>
       <r>   -13.9888    35.1269    81.8301 </r>
       <r>   -13.8800    36.5069    85.8040 </r>
       <r>   -13.7711    69.1930    93.3359 </r>
       <r>   -13.6623   111.0520   105.4243 </r>
       <r>   -13.5534    67.4458   112.7660 </r>
       <r>   -13.4445    58.3152   119.1138 </r>
       <r>   -13.3357    63.8237   126.0613 </r>
       <r>   -13.2268    50.1723   131.5227 </r>
       <r>   -13.1180    40.8158   135.9657 </r>
       <r>   -13.0091    97.6642   146.5968 </r>
       <r>   -12.9003    87.6696   156.1399 </r>
       <r>   -12.7914   149.7535   172.4411 </r>
       <r>   -12.6826    59.6039   178.9292 </r>
       <r>   -12.5737    71.4380   186.7055 </r>
       <r>   -12.4649    82.4959   195.6855 </r>
       <r>   -12.3560    74.7212   203.8191 </r>
       <r>   -12.2472   163.8695   221.6569 </r>
       <r>   -12.1383   201.5504   243.5964 </r>
       <r>   -12.0295   117.7094   256.4095 </r>
       <r>   -11.9206    56.2881   262.5366 </r>
       <r>   -11.8117    63.4556   269.4440 </r>
       <r>   -11.7029    94.7823   279.7614 </r>
       <r>   -11.5940    56.0260   285.8600 </r>
       <r>   -11.4852    13.4032   287.3190 </r>
       <r>   -11.3763     6.2147   287.9955 </r>
       <r>   -11.2675     0.0411   288.0000 </r>
       <r>   -11.1586     0.0000   288.0000 </r>
       <r>   -11.0498     0.0000   288.0000 </r>
       <r>   -10.9409     0.0000   288.0000 </r>
       <r>   -10.8321     0.0000   288.0000 </r>
       <r>   -10.7232     0.0000   288.0000 </r>
       <r>   -10.6144     0.0000   288.0000 </r>
       <r>   -10.5055     0.0000   288.0000 </r>
       <r>   -10.3966     0.0000   288.0000 </r>
       <r>   -10.2878     0.0000   288.0000 </r>
       <r>   -10.1789     0.0000   288.0000 </r>
       <r>   -10.0701     0.0000   288.0000 </r>
       <r>    -9.9612     0.0000   288.0000 </r>
       <r>    -9.8524     0.0000   288.0000 </r>
       <r>    -9.7435     0.0000   288.0000 </r>
       <r>    -9.6347     0.0000   288.0000 </r>
       <r>    -9.5258     0.0000   288.0000 </r>
       <r>    -9.4170     0.0000   288.0000 </r>
       <r>    -9.3081     0.0000   288.0000 </r>
       <r>    -9.1993     0.0000   288.0000 </r>
       <r>    -9.0904     0.0000   288.0000 </r>
       <r>    -8.9816     0.0000   288.0000 </r>
       <r>    -8.8727     0.0000   288.0000 </r>
       <r>    -8.7638     0.0000   288.0000 </r>
       <r>    -8.6550     0.0000   288.0000 </r>
       <r>    -8.5461     0.0000   288.0000 </r>
       <r>    -8.4373     0.4118   288.0448 </r>
       <r>    -8.3284    15.2551   289.7054 </r>
       <r>    -8.2196     2.7060   290.0000 </r>
       <r>    -8.1107     0.0004   290.0000 </r>
       <r>    -8.0019     0.0000   290.0000 </r>
       <r>    -7.8930     0.0000   290.0000 </r>
       <r>    -7.7842     0.0000   290.0000 </r>
       <r>    -7.6753     0.0000   290.0000 </r>
       <r>    -7.5665     0.0000   290.0000 </r>
       <r>    -7.4576     0.0013   290.0001 </r>
       <r>    -7.3487     3.3066   290.3601 </r>
       <r>    -7.2399    29.3028   293.5498 </r>
       <r>    -7.1310     4.1353   293.9999 </r>
       <r>    -7.0222     0.0006   294.0000 </r>
       <r>    -6.9133     0.0049   294.0005 </r>
       <r>    -6.8045     5.2728   294.5745 </r>
       <r>    -6.6956    21.7664   296.9438 </r>
       <r>    -6.5868    22.4204   299.3844 </r>
       <r>    -6.4779    34.8937   303.1827 </r>
       <r>    -6.3691    42.1975   307.7760 </r>
       <r>    -6.2602   124.5674   321.3357 </r>
       <r>    -6.1514   131.9560   335.6995 </r>
       <r>    -6.0425    65.0916   342.7850 </r>
       <r>    -5.9337    41.5087   347.3034 </r>
       <r>    -5.8248    61.3929   353.9862 </r>
       <r>    -5.7159   174.2529   372.9542 </r>
       <r>    -5.6071   174.5463   391.9542 </r>
       <r>    -5.4982    88.2940   401.5654 </r>
       <r>    -5.3894    12.5806   402.9348 </r>
       <r>    -5.2805    13.9695   404.4554 </r>
       <r>    -5.1717   152.0742   421.0093 </r>
       <r>    -5.0628   109.1439   432.8900 </r>
       <r>    -4.9540    41.1122   437.3652 </r>
       <r>    -4.8451    27.8324   440.3948 </r>
       <r>    -4.7363    21.2743   442.7106 </r>
       <r>    -4.6274    15.8687   444.4380 </r>
       <r>    -4.5186    51.8384   450.0808 </r>
       <r>    -4.4097   151.0230   466.5202 </r>
       <r>    -4.3008    95.7751   476.9456 </r>
       <r>    -4.1920    32.0071   480.4297 </r>
       <r>    -4.0831    66.4569   487.6638 </r>
       <r>    -3.9743    94.9519   497.9997 </r>
       <r>    -3.8654    69.2114   505.5336 </r>
       <r>    -3.7566    22.9167   508.0281 </r>
       <r>    -3.6477    29.9597   511.2893 </r>
       <r>    -3.5389   121.5459   524.5201 </r>
       <r>    -3.4300   129.3900   538.6046 </r>
       <r>    -3.3212    81.8852   547.5181 </r>
       <r>    -3.2123    39.9944   551.8717 </r>
       <r>    -3.1035    76.9736   560.2505 </r>
       <r>    -2.9946   116.5062   572.9326 </r>
       <r>    -2.8858   141.8258   588.3709 </r>
       <r>    -2.7769   120.9202   601.5335 </r>
       <r>    -2.6680   126.3002   615.2817 </r>
       <r>    -2.5592    52.0123   620.9434 </r>
       <r>    -2.4503    63.9278   627.9022 </r>
       <r>    -2.3415   152.6316   644.5167 </r>
       <r>    -2.2326   125.1337   658.1379 </r>
       <r>    -2.1238   114.5096   670.6027 </r>
       <r>    -2.0149   148.7756   686.7975 </r>
       <r>    -1.9061   132.0126   701.1675 </r>
       <r>    -1.7972   180.4153   720.8064 </r>
       <r>    -1.6884   192.5431   741.7654 </r>
       <r>    -1.5795   188.5931   762.2944 </r>
       <r>    -1.4707   168.9718   780.6876 </r>
       <r>    -1.3618   101.7415   791.7626 </r>
       <r>    -1.2529    78.4333   800.3003 </r>
       <r>    -1.1441   191.2020   821.1133 </r>
       <r>    -1.0352   129.9213   835.2557 </r>
       <r>    -0.9264    83.0323   844.2941 </r>
       <r>    -0.8175   111.0063   856.3775 </r>
       <r>    -0.7087   111.4452   868.5088 </r>
       <r>    -0.5998   101.3558   879.5417 </r>
       <r>    -0.4910    80.1061   888.2615 </r>
       <r>    -0.3821   172.9818   907.0912 </r>
       <r>    -0.2733   181.2776   926.8240 </r>
       <r>    -0.1644    97.4389   937.4305 </r>
       <r>    -0.0556    46.9416   942.5403 </r>
       <r>     0.0533    82.7490   951.5478 </r>
       <r>     0.1621    51.0377   957.1034 </r>
       <r>     0.2710   126.3636   970.8586 </r>
       <r>     0.3799   129.5218   984.9575 </r>
       <r>     0.4887   110.8676   997.0258 </r>
       <r>     0.5976   100.7726  1007.9953 </r>
       <r>     0.7064    95.9755  1018.4426 </r>
       <r>     0.8153    70.9274  1026.1633 </r>
       <r>     0.9241   154.7426  1043.0076 </r>
       <r>     1.0330    91.2937  1052.9452 </r>
       <r>     1.1418    93.7429  1063.1495 </r>
       <r>     1.2507    81.9013  1072.0647 </r>
       <r>     1.3595    87.4938  1081.5887 </r>
       <r>     1.4684    70.3292  1089.2443 </r>
       <r>     1.5772    57.8645  1095.5431 </r>
       <r>     1.6861    73.5216  1103.5462 </r>
       <r>     1.7950    59.2160  1109.9920 </r>
       <r>     1.9038   116.2552  1122.6468 </r>
       <r>     2.0127    80.6879  1131.4300 </r>
       <r>     2.1215    47.4868  1136.5991 </r>
       <r>     2.2304    44.7297  1141.4681 </r>
       <r>     2.3392    22.1054  1143.8744 </r>
       <r>     2.4481    61.4049  1150.5585 </r>
       <r>     2.5569    12.6832  1151.9391 </r>
       <r>     2.6658     0.5593  1152.0000 </r>
       <r>     2.7746     0.0000  1152.0000 </r>
       <r>     2.8835     0.0000  1152.0000 </r>
       <r>     2.9923     0.0000  1152.0000 </r>
       <r>     3.1012     0.0000  1152.0000 </r>
       <r>     3.2101     0.0000  1152.0000 </r>
       <r>     3.3189     0.0000  1152.0000 </r>
       <r>     3.4278     0.0000  1152.0000 </r>
       <r>     3.5366     0.0000  1152.0000 </r>
       <r>     3.6455     0.0000  1152.0000 </r>
       <r>     3.7543     0.0000  1152.0000 </r>
       <r>     3.8632     0.0000  1152.0000 </r>
       <r>     3.9720     0.0000  1152.0000 </r>
       <r>     4.0809     0.0000  1152.0000 </r>
       <r>     4.1897     0.0000  1152.0000 </r>
       <r>     4.2986     0.0000  1152.0000 </r>
       <r>     4.4074     0.0000  1152.0000 </r>
       <r>     4.5163     0.0005  1152.0001 </r>
       <r>     4.6251     3.0237  1152.3292 </r>
       <r>     4.7340    15.0133  1153.9634 </r>
       <r>     4.8429     0.3358  1154.0000 </r>
       <r>     4.9517     0.0000  1154.0000 </r>
       <r>     5.0606     0.0000  1154.0000 </r>
       <r>     5.1694     0.0000  1154.0000 </r>
       <r>     5.2783     0.0000  1154.0000 </r>
       <r>     5.3871     0.0000  1154.0000 </r>
       <r>     5.4960     0.0000  1154.0000 </r>
       <r>     5.6048     0.0000  1154.0000 </r>
       <r>     5.7137     0.0000  1154.0000 </r>
       <r>     5.8225     0.4255  1154.0463 </r>
       <r>     5.9314    13.8458  1155.5535 </r>
       <r>     6.0402     4.0992  1155.9997 </r>
       <r>     6.1491     0.0028  1156.0000 </r>
       <r>     6.2580     0.0000  1156.0000 </r>
       <r>     6.3668     0.0037  1156.0004 </r>
       <r>     6.4757     3.5915  1156.3914 </r>
       <r>     6.5845    11.3932  1157.6315 </r>
       <r>     6.6934    37.9399  1161.7614 </r>
       <r>     6.8022     7.1704  1162.5420 </r>
       <r>     6.9111    21.5843  1164.8915 </r>
       <r>     7.0199    38.7003  1169.1042 </r>
       <r>     7.1288    69.8895  1176.7119 </r>
       <r>     7.2376    65.8783  1183.8830 </r>
       <r>     7.3465   101.4689  1194.9282 </r>
       <r>     7.4553    94.7152  1205.2383 </r>
       <r>     7.5642    46.7498  1210.3272 </r>
       <r>     7.6730    67.2015  1217.6423 </r>
       <r>     7.7819    92.6669  1227.7295 </r>
       <r>     7.8908    87.6039  1237.2655 </r>
       <r>     7.9996    83.0314  1246.3037 </r>
       <r>     8.1085    49.9648  1251.7426 </r>
       <r>     8.2173    75.8128  1259.9951 </r>
       <r>     8.3262    73.2950  1267.9735 </r>
       <r>     8.4350    56.3696  1274.1095 </r>
       <r>     8.5439    84.1089  1283.2651 </r>
       <r>     8.6527    66.8333  1290.5401 </r>
       <r>     8.7616    46.1557  1295.5643 </r>
       <r>     8.8704    23.3134  1298.1021 </r>
       <r>     8.9793    46.3486  1303.1473 </r>
       <r>     9.0881    69.9541  1310.7620 </r>
       <r>     9.1970    70.7645  1318.4650 </r>
       <r>     9.3059    99.7167  1329.3195 </r>
       <r>     9.4147    68.0213  1336.7239 </r>
       <r>     9.5236    42.3084  1341.3293 </r>
       <r>     9.6324    67.0448  1348.6274 </r>
       <r>     9.7413    71.0484  1356.3612 </r>
       <r>     9.8501    39.5491  1360.6663 </r>
       <r>     9.9590    39.9327  1365.0131 </r>
       <r>    10.0678    45.2554  1369.9393 </r>
       <r>    10.1767    85.6816  1379.2661 </r>
       <r>    10.2855    61.9859  1386.0135 </r>
       <r>    10.3944    57.0452  1392.2230 </r>
       <r>    10.5032    72.9583  1400.1648 </r>
       <r>    10.6121    64.1745  1407.1504 </r>
       <r>    10.7209    43.0863  1411.8405 </r>
       <r>    10.8298    73.1883  1419.8073 </r>
       <r>    10.9387    35.8345  1423.7081 </r>
       <r>    11.0475    13.8626  1425.2171 </r>
       <r>    11.1564     1.3344  1425.3623 </r>
       <r>    11.2652    23.9547  1427.9699 </r>
       <r>    11.3741    18.5993  1429.9945 </r>
       <r>    11.4829    34.7242  1433.7743 </r>
       <r>    11.5918    49.8229  1439.1977 </r>
       <r>    11.7006    53.0297  1444.9702 </r>
       <r>    11.8095    46.4120  1450.0223 </r>
       <r>    11.9183    27.6850  1453.0359 </r>
       <r>    12.0272    14.2900  1454.5914 </r>
       <r>    12.1360     7.5334  1455.4115 </r>
       <r>    12.2449     1.8610  1455.6140 </r>
       <r>    12.3538     1.5475  1455.7825 </r>
       <r>    12.4626     1.9407  1455.9937 </r>
       <r>    12.5715     0.0575  1456.0000 </r>
       <r>    12.6803     0.0000  1456.0000 </r>
       <r>    12.7892     0.0000  1456.0000 </r>
       <r>    12.8980     0.0000  1456.0000 </r>
       <r>    13.0069     0.0000  1456.0000 </r>
       <r>    13.1157     0.0000  1456.0000 </r>
       <r>    13.2246     0.0000  1456.0000 </r>
       <r>    13.3334     0.0000  1456.0000 </r>
       <r>    13.4423     0.0000  1456.0000 </r>
       <r>    13.5511     0.0000  1456.0000 </r>
       <r>    13.6600     0.0000  1456.0000 </r>
       <r>    13.7688     0.0000  1456.0000 </r>
       <r>    13.8777     0.0000  1456.0000 </r>
      </set>
      <set comment="spin 2">
       <r>   -18.7784     0.0000     0.0000 </r>
       <r>   -18.6695     0.0000     0.0000 </r>
       <r>   -18.5607     0.0000     0.0000 </r>
       <r>   -18.4518     0.0000     0.0000 </r>
       <r>   -18.3430     0.0000     0.0000 </r>
       <r>   -18.2341     0.0000     0.0000 </r>
       <r>   -18.1253     0.0000     0.0000 </r>
       <r>   -18.0164     0.0000     0.0000 </r>
       <r>   -17.9075     0.0000     0.0000 </r>
       <r>   -17.7987     0.0000     0.0000 </r>
       <r>   -17.6898     0.0000     0.0000 </r>
       <r>   -17.5810     0.0000     0.0000 </r>
       <r>   -17.4721     0.0000     0.0000 </r>
       <r>   -17.3633     0.0000     0.0000 </r>
       <r>   -17.2544     0.1158     0.0126 </r>
       <r>   -17.1456    13.1199     1.4407 </r>
       <r>   -17.0367     5.1354     1.9998 </r>
       <r>   -16.9279     0.0023     2.0000 </r>
       <r>   -16.8190     0.0000     2.0000 </r>
       <r>   -16.7102     0.0000     2.0000 </r>
       <r>   -16.6013     0.0000     2.0000 </r>
       <r>   -16.4924     0.0000     2.0000 </r>
       <r>   -16.3836     0.0000     2.0000 </r>
       <r>   -16.2747     0.0000     2.0000 </r>
       <r>   -16.1659     0.0000     2.0000 </r>
       <r>   -16.0570     0.0000     2.0000 </r>
       <r>   -15.9482     0.0000     2.0000 </r>
       <r>   -15.8393     0.0453     2.0049 </r>
       <r>   -15.7305    11.0070     3.2031 </r>
       <r>   -15.6216    25.0616     5.9311 </r>
       <r>   -15.5128     5.0116     6.4767 </r>
       <r>   -15.4039     9.9557     7.5604 </r>
       <r>   -15.2951    21.5396     9.9050 </r>
       <r>   -15.1862    47.2440    15.0477 </r>
       <r>   -15.0774    42.1724    19.6383 </r>
       <r>   -14.9685    58.7006    26.0281 </r>
       <r>   -14.8596    59.8175    32.5395 </r>
       <r>   -14.7508    61.7293    39.2589 </r>
       <r>   -14.6419    37.1160    43.2991 </r>
       <r>   -14.5331    52.4878    49.0126 </r>
       <r>   -14.4242    71.5283    56.7987 </r>
       <r>   -14.3154    59.4040    63.2651 </r>
       <r>   -14.2065    76.3555    71.5766 </r>
       <r>   -14.0977    58.0529    77.8959 </r>
       <r>   -13.9888    35.3210    81.7407 </r>
       <r>   -13.8800    36.5405    85.7183 </r>
       <r>   -13.7711    68.2924    93.1522 </r>
       <r>   -13.6623   112.0431   105.3485 </r>
       <r>   -13.5534    67.3817   112.6832 </r>
       <r>   -13.4445    58.8442   119.0886 </r>
       <r>   -13.3357    62.7769   125.9221 </r>
       <r>   -13.2268    50.6076   131.4309 </r>
       <r>   -13.1180    41.2431   135.9204 </r>
       <r>   -13.0091    97.4584   146.5291 </r>
       <r>   -12.9003    86.6010   155.9559 </r>
       <r>   -12.7914   151.2132   172.4160 </r>
       <r>   -12.6826    59.2632   178.8670 </r>
       <r>   -12.5737    71.5246   186.6527 </r>
       <r>   -12.4649    82.3118   195.6127 </r>
       <r>   -12.3560    74.9109   203.7670 </r>
       <r>   -12.2472   164.1225   221.6323 </r>
       <r>   -12.1383   201.4704   243.5631 </r>
       <r>   -12.0295   117.8973   256.3966 </r>
       <r>   -11.9206    56.2397   262.5185 </r>
       <r>   -11.8117    63.4625   269.4266 </r>
       <r>   -11.7029    94.9293   279.7600 </r>
       <r>   -11.5940    56.0050   285.8564 </r>
       <r>   -11.4852    13.4346   287.3188 </r>
       <r>   -11.3763     6.2170   287.9955 </r>
       <r>   -11.2675     0.0411   288.0000 </r>
       <r>   -11.1586     0.0000   288.0000 </r>
       <r>   -11.0498     0.0000   288.0000 </r>
       <r>   -10.9409     0.0000   288.0000 </r>
       <r>   -10.8321     0.0000   288.0000 </r>
       <r>   -10.7232     0.0000   288.0000 </r>
       <r>   -10.6144     0.0000   288.0000 </r>
       <r>   -10.5055     0.0000   288.0000 </r>
       <r>   -10.3966     0.0000   288.0000 </r>
       <r>   -10.2878     0.0000   288.0000 </r>
       <r>   -10.1789     0.0000   288.0000 </r>
       <r>   -10.0701     0.0000   288.0000 </r>
       <r>    -9.9612     0.0000   288.0000 </r>
       <r>    -9.8524     0.0000   288.0000 </r>
       <r>    -9.7435     0.0000   288.0000 </r>
       <r>    -9.6347     0.0000   288.0000 </r>
       <r>    -9.5258     0.0000   288.0000 </r>
       <r>    -9.4170     0.0000   288.0000 </r>
       <r>    -9.3081     0.0000   288.0000 </r>
       <r>    -9.1993     0.0000   288.0000 </r>
       <r>    -9.0904     0.0000   288.0000 </r>
       <r>    -8.9816     0.0000   288.0000 </r>
       <r>    -8.8727     0.0000   288.0000 </r>
       <r>    -8.7638     0.0000   288.0000 </r>
       <r>    -8.6550     0.0000   288.0000 </r>
       <r>    -8.5461     0.0000   288.0000 </r>
       <r>    -8.4373     0.0000   288.0000 </r>
       <r>    -8.3284     0.0001   288.0000 </r>
       <r>    -8.2196     1.2523   288.1363 </r>
       <r>    -8.1107    15.9927   289.8772 </r>
       <r>    -8.0019     1.1282   290.0000 </r>
       <r>    -7.8930     0.0000   290.0000 </r>
       <r>    -7.7842     0.0000   290.0000 </r>
       <r>    -7.6753     0.0000   290.0000 </r>
       <r>    -7.5665     0.0000   290.0000 </r>
       <r>    -7.4576     0.0000   290.0000 </r>
       <r>    -7.3487     0.7763   290.0845 </r>
       <r>    -7.2399    22.5782   292.5422 </r>
       <r>    -7.1310    13.3647   293.9970 </r>
       <r>    -7.0222     0.0273   294.0000 </r>
       <r>    -6.9133     0.0016   294.0002 </r>
       <r>    -6.8045     3.7859   294.4123 </r>
       <r>    -6.6956    21.7747   296.7825 </r>
       <r>    -6.5868    22.2319   299.2026 </r>
       <r>    -6.4779    34.3303   302.9395 </r>
       <r>    -6.3691    43.0461   307.6253 </r>
       <r>    -6.2602   124.4614   321.1733 </r>
       <r>    -6.1514   132.9196   335.6421 </r>
       <r>    -6.0425    65.2505   342.7449 </r>
       <r>    -5.9337    41.6655   347.2803 </r>
       <r>    -5.8248    60.0108   353.8127 </r>
       <r>    -5.7159   173.5865   372.7082 </r>
       <r>    -5.6071   176.2564   391.8943 </r>
       <r>    -5.4982    88.8383   401.5647 </r>
       <r>    -5.3894    12.1491   402.8872 </r>
       <r>    -5.2805    13.8169   404.3912 </r>
       <r>    -5.1717   151.0453   420.8330 </r>
       <r>    -5.0628   107.6371   432.5497 </r>
       <r>    -4.9540    42.8981   437.2193 </r>
       <r>    -4.8451    28.2638   440.2959 </r>
       <r>    -4.7363    22.1032   442.7019 </r>
       <r>    -4.6274    13.9604   444.2216 </r>
       <r>    -4.5186    51.3377   449.8099 </r>
       <r>    -4.4097   153.2937   466.4964 </r>
       <r>    -4.3008    84.9290   475.7413 </r>
       <r>    -4.1920    23.1558   478.2618 </r>
       <r>    -4.0831    73.8956   486.3056 </r>
       <r>    -3.9743   105.7878   497.8210 </r>
       <r>    -3.8654    69.9319   505.4334 </r>
       <r>    -3.7566    21.8338   507.8101 </r>
       <r>    -3.6477    28.1428   510.8735 </r>
       <r>    -3.5389   121.7672   524.1283 </r>
       <r>    -3.4300   128.6829   538.1359 </r>
       <r>    -3.3212    78.9838   546.7336 </r>
       <r>    -3.2123    45.0771   551.6404 </r>
       <r>    -3.1035    72.6697   559.5507 </r>
       <r>    -2.9946   121.3152   572.7563 </r>
       <r>    -2.8858   139.8060   587.9747 </r>
       <r>    -2.7769   111.5959   600.1223 </r>
       <r>    -2.6680   134.6374   614.7781 </r>
       <r>    -2.5592    54.0124   620.6575 </r>
       <r>    -2.4503    63.6656   627.5878 </r>
       <r>    -2.3415   151.5333   644.0827 </r>
       <r>    -2.2326   125.1228   657.7028 </r>
       <r>    -2.1238   116.3463   670.3675 </r>
       <r>    -2.0149   141.5125   685.7716 </r>
       <r>    -1.9061   131.7195   700.1098 </r>
       <r>    -1.7972   184.8064   720.2266 </r>
       <r>    -1.6884   191.4042   741.0617 </r>
       <r>    -1.5795   192.6301   762.0301 </r>
       <r>    -1.4707   168.1487   780.3337 </r>
       <r>    -1.3618   101.9556   791.4320 </r>
       <r>    -1.2529    76.7943   799.7913 </r>
       <r>    -1.1441   190.9721   820.5793 </r>
       <r>    -1.0352   130.1355   834.7450 </r>
       <r>    -0.9264    77.7084   843.2038 </r>
       <r>    -0.8175   118.5429   856.1077 </r>
       <r>    -0.7087   105.9813   867.6441 </r>
       <r>    -0.5998   105.1659   879.0918 </r>
       <r>    -0.4910    81.5533   887.9692 </r>
       <r>    -0.3821   168.9385   906.3587 </r>
       <r>    -0.2733   185.3102   926.5304 </r>
       <r>    -0.1644    98.9205   937.2983 </r>
       <r>    -0.0556    46.5063   942.3606 </r>
       <r>     0.0533    76.9590   950.7379 </r>
       <r>     0.1621    55.0960   956.7353 </r>
       <r>     0.2710   126.6156   970.5179 </r>
       <r>     0.3799   126.4135   984.2784 </r>
       <r>     0.4887   112.9032   996.5683 </r>
       <r>     0.5976   101.7403  1007.6431 </r>
       <r>     0.7064    95.7276  1018.0634 </r>
       <r>     0.8153    73.0908  1026.0196 </r>
       <r>     0.9241   154.5883  1042.8471 </r>
       <r>     1.0330    90.8433  1052.7357 </r>
       <r>     1.1418    93.5467  1062.9186 </r>
       <r>     1.2507    80.2083  1071.6496 </r>
       <r>     1.3595    90.3143  1081.4806 </r>
       <r>     1.4684    69.0456  1088.9965 </r>
       <r>     1.5772    57.6490  1095.2718 </r>
       <r>     1.6861    75.1750  1103.4548 </r>
       <r>     1.7950    59.1012  1109.8882 </r>
       <r>     1.9038   116.5141  1122.5712 </r>
       <r>     2.0127    80.2626  1131.3081 </r>
       <r>     2.1215    48.4040  1136.5770 </r>
       <r>     2.2304    44.4100  1141.4112 </r>
       <r>     2.3392    22.2947  1143.8381 </r>
       <r>     2.4481    61.5878  1150.5421 </r>
       <r>     2.5569    12.8307  1151.9388 </r>
       <r>     2.6658     0.5623  1152.0000 </r>
       <r>     2.7746     0.0000  1152.0000 </r>
       <r>     2.8835     0.0000  1152.0000 </r>
       <r>     2.9923     0.0000  1152.0000 </r>
       <r>     3.1012     0.0000  1152.0000 </r>
       <r>     3.2101     0.0000  1152.0000 </r>
       <r>     3.3189     0.0000  1152.0000 </r>
       <r>     3.4278     0.0000  1152.0000 </r>
       <r>     3.5366     0.0000  1152.0000 </r>
       <r>     3.6455     0.0000  1152.0000 </r>
       <r>     3.7543     0.0000  1152.0000 </r>
       <r>     3.8632     0.0000  1152.0000 </r>
       <r>     3.9720     0.0000  1152.0000 </r>
       <r>     4.0809     0.0000  1152.0000 </r>
       <r>     4.1897     0.0000  1152.0000 </r>
       <r>     4.2986     0.0000  1152.0000 </r>
       <r>     4.4074     0.0000  1152.0000 </r>
       <r>     4.5163     0.0000  1152.0000 </r>
       <r>     4.6251     0.0000  1152.0000 </r>
       <r>     4.7340     0.0000  1152.0000 </r>
       <r>     4.8429     0.0000  1152.0000 </r>
       <r>     4.9517     0.0000  1152.0000 </r>
       <r>     5.0606     0.0000  1152.0000 </r>
       <r>     5.1694     0.0000  1152.0000 </r>
       <r>     5.2783     0.0000  1152.0000 </r>
       <r>     5.3871     0.0000  1152.0000 </r>
       <r>     5.4960     1.2070  1152.1314 </r>
       <r>     5.6048    16.0664  1153.8803 </r>
       <r>     5.7137     1.0998  1154.0000 </r>
       <r>     5.8225     0.0000  1154.0000 </r>
       <r>     5.9314     0.0000  1154.0000 </r>
       <r>     6.0402     0.0000  1154.0000 </r>
       <r>     6.1491     0.0000  1154.0000 </r>
       <r>     6.2580     0.0000  1154.0000 </r>
       <r>     6.3668     0.0000  1154.0000 </r>
       <r>     6.4757     0.8064  1154.0878 </r>
       <r>     6.5845     8.2345  1154.9841 </r>
       <r>     6.6934    30.3579  1158.2887 </r>
       <r>     6.8022    34.9587  1162.0941 </r>
       <r>     6.9111    23.6702  1164.6707 </r>
       <r>     7.0199    36.5181  1168.6458 </r>
       <r>     7.1288    71.0733  1176.3824 </r>
       <r>     7.2376    63.7887  1183.3260 </r>
       <r>     7.3465   102.3403  1194.4661 </r>
       <r>     7.4553    92.4165  1204.5260 </r>
       <r>     7.5642    51.1596  1210.0949 </r>
       <r>     7.6730    65.2245  1217.1948 </r>
       <r>     7.7819    92.9730  1227.3152 </r>
       <r>     7.8908    87.5340  1236.8436 </r>
       <r>     7.9996    82.6159  1245.8367 </r>
       <r>     8.1085    49.1788  1251.1900 </r>
       <r>     8.2173    72.9201  1259.1276 </r>
       <r>     8.3262    77.9569  1267.6135 </r>
       <r>     8.4350    54.9150  1273.5912 </r>
       <r>     8.5439    84.8384  1282.8261 </r>
       <r>     8.6527    67.0042  1290.1198 </r>
       <r>     8.7616    45.6999  1295.0944 </r>
       <r>     8.8704    19.4869  1297.2156 </r>
       <r>     8.9793    45.1197  1302.1270 </r>
       <r>     9.0881    71.4047  1309.8997 </r>
       <r>     9.1970    71.6574  1317.6999 </r>
       <r>     9.3059    90.9623  1327.6014 </r>
       <r>     9.4147    70.9542  1335.3251 </r>
       <r>     9.5236    47.3906  1340.4837 </r>
       <r>     9.6324    59.5560  1346.9666 </r>
       <r>     9.7413    77.8703  1355.4430 </r>
       <r>     9.8501    43.8918  1360.2208 </r>
       <r>     9.9590    39.8352  1364.5570 </r>
       <r>    10.0678    43.5627  1369.2990 </r>
       <r>    10.1767    86.3358  1378.6970 </r>
       <r>    10.2855    62.2983  1385.4783 </r>
       <r>    10.3944    59.7069  1391.9777 </r>
       <r>    10.5032    71.8856  1399.8027 </r>
       <r>    10.6121    65.5992  1406.9434 </r>
       <r>    10.7209    43.3588  1411.6631 </r>
       <r>    10.8298    72.6264  1419.5688 </r>
       <r>    10.9387    35.7241  1423.4575 </r>
       <r>    11.0475    15.7803  1425.1752 </r>
       <r>    11.1564     1.6571  1425.3556 </r>
       <r>    11.2652    22.3755  1427.7912 </r>
       <r>    11.3741    18.2970  1429.7829 </r>
       <r>    11.4829    35.4679  1433.6437 </r>
       <r>    11.5918    53.3911  1439.4556 </r>
       <r>    11.7006    48.5302  1444.7382 </r>
       <r>    11.8095    42.8718  1449.4050 </r>
       <r>    11.9183    26.0863  1452.2446 </r>
       <r>    12.0272    20.9453  1454.5246 </r>
       <r>    12.1360     6.6017  1455.2432 </r>
       <r>    12.2449     0.9100  1455.3422 </r>
       <r>    12.3538     4.0451  1455.7826 </r>
       <r>    12.4626     1.9547  1455.9953 </r>
       <r>    12.5715     0.0428  1456.0000 </r>
       <r>    12.6803     0.0000  1456.0000 </r>
       <r>    12.7892     0.0000  1456.0000 </r>
       <r>    12.8980     0.0000  1456.0000 </r>
       <r>    13.0069     0.0000  1456.0000 </r>
       <r>    13.1157     0.0000  1456.0000 </r>
       <r>    13.2246     0.0000  1456.0000 </r>
       <r>    13.3334     0.0000  1456.0000 </r>
       <r>    13.4423     0.0000  1456.0000 </r>
       <r>    13.5511     0.0000  1456.0000 </r>
       <r>    13.6600     0.0000  1456.0000 </r>
       <r>    13.7688     0.0000  1456.0000 </r>
       <r>    13.8777     0.0000  1456.0000 </r>
      </set>
     </set>
    </array>
   </total>
  </dos>
 </calculation>
 <structure name="finalpos" >
  <crystal>
   <varray name="basis" >
    <v>      14.93631415       0.00000000       0.00000000 </v>
    <v>      -7.46815707      12.93522749      -0.00000000 </v>
    <v>       0.00000000       0.00000000      13.34127628 </v>
   </varray>
   <i name="volume">   2577.59623255 </i>
   <varray name="rec_basis" >
    <v>       0.06695092       0.03865413      -0.00000000 </v>
    <v>       0.00000000       0.07730827      -0.00000000 </v>
    <v>       0.00000000       0.00000000       0.07495535 </v>
   </varray>
  </crystal>
  <varray name="positions" >
   <v>       0.44444444       0.38888889       0.37500000 </v>
   <v>       0.11110578       0.05553988       0.12514209 </v>
   <v>       0.61111893       0.55556454       0.12533815 </v>
   <v>       0.44443410       0.05553988       0.12514209 </v>
   <v>       0.94445577       0.55556472       0.12511237 </v>
   <v>       0.77777778       0.05555556       0.12508750 </v>
   <v>       0.11111111       0.72222222       0.62490204 </v>
   <v>       0.44443410       0.72222755       0.62485791 </v>
   <v>       0.27776879       0.22221440       0.62466185 </v>
   <v>       0.77779345       0.72222755       0.62485791 </v>
   <v>       0.61111409       0.22221925       0.62484996 </v>
   <v>       0.94444599       0.22222938       0.62490241 </v>
   <v>       0.27776861       0.72222439       0.12511237 </v>
   <v>       0.11110516       0.22221925       0.12515004 </v>
   <v>       0.44444561       0.22221440       0.12533815 </v>
   <v>       0.61111409       0.72222817       0.12515004 </v>
   <v>       0.94445577       0.72222439       0.12511237 </v>
   <v>       0.77778339       0.22222938       0.12509759 </v>
   <v>       0.11110895       0.88887756       0.62488763 </v>
   <v>       0.44443273       0.88888303       0.62489877 </v>
   <v>       0.27776879       0.38888773       0.62466185 </v>
   <v>       0.61111893       0.38888773       0.62466185 </v>
   <v>       0.77778339       0.88888734       0.62490241 </v>
   <v>       0.94445030       0.38890061       0.62489877 </v>
   <v>       0.11110578       0.38889924       0.12514209 </v>
   <v>       0.27776861       0.88887756       0.12511237 </v>
   <v>       0.61110395       0.88888734       0.12509759 </v>
   <v>       0.44444444       0.38888889       0.12572567 </v>
   <v>       0.94445030       0.88888303       0.12510123 </v>
   <v>       0.77779345       0.38889924       0.12514209 </v>
   <v>       0.27776995       0.55556338       0.62481384 </v>
   <v>       0.11110578       0.05553988       0.62485791 </v>
   <v>       0.61111893       0.55556454       0.62466185 </v>
   <v>       0.44443410       0.05553988       0.62485791 </v>
   <v>       0.94445577       0.55556472       0.62488763 </v>
   <v>       0.11110895       0.55556472       0.12511237 </v>
   <v>       0.77777778       0.05555556       0.62491250 </v>
   <v>       0.27776995       0.05553990       0.12518616 </v>
   <v>       0.44444561       0.55556454       0.12533815 </v>
   <v>       0.77779343       0.55556338       0.12518616 </v>
   <v>       0.61110395       0.05554994       0.12509759 </v>
   <v>       0.44444561       0.55556454       0.62466185 </v>
   <v>       0.94444599       0.05554994       0.12509759 </v>
   <v>       0.27776861       0.72222439       0.62488763 </v>
   <v>       0.11110516       0.22221925       0.62484996 </v>
   <v>       0.44444561       0.22221440       0.62466185 </v>
   <v>       0.61111409       0.72222817       0.62484996 </v>
   <v>       0.94445577       0.72222439       0.62488763 </v>
   <v>       0.77778339       0.22222938       0.62490241 </v>
   <v>       0.11111111       0.72222222       0.12509796 </v>
   <v>       0.44443410       0.72222755       0.12514209 </v>
   <v>       0.27776879       0.22221440       0.12533815 </v>
   <v>       0.77779345       0.72222755       0.12514209 </v>
   <v>       0.61111409       0.22221925       0.12515004 </v>
   <v>       0.94444599       0.22222938       0.12509759 </v>
   <v>       0.11110578       0.38889924       0.62485791 </v>
   <v>       0.27776861       0.88887756       0.62488763 </v>
   <v>       0.61110395       0.88888734       0.62490241 </v>
   <v>       0.44444444       0.38888889       0.62427433 </v>
   <v>       0.94445030       0.88888303       0.62489877 </v>
   <v>       0.11110895       0.88887756       0.12511237 </v>
   <v>       0.77779345       0.38889924       0.62485791 </v>
   <v>       0.44443273       0.88888303       0.12510123 </v>
   <v>       0.27776879       0.38888773       0.12533815 </v>
   <v>       0.27776995       0.55556338       0.12518616 </v>
   <v>       0.61111893       0.38888773       0.12533815 </v>
   <v>       0.77778339       0.88888734       0.12509759 </v>
   <v>       0.94445030       0.38890061       0.12510123 </v>
   <v>       0.11110895       0.55556472       0.62488763 </v>
   <v>       0.27776995       0.05553990       0.62481384 </v>
   <v>       0.77779343       0.55556338       0.62481384 </v>
   <v>       0.61110395       0.05554994       0.62490241 </v>
   <v>       0.94444599       0.05554994       0.62490241 </v>
   <v>       0.05492459       0.11067225       0.37500000 </v>
   <v>       0.55597948       0.61195895       0.37500000 </v>
   <v>       0.38821178       0.10798614       0.37500000 </v>
   <v>       0.88997050       0.61165191       0.37500000 </v>
   <v>       0.72233166       0.11100168       0.37500000 </v>
   <v>       0.05555347       0.77777986       0.87500000 </v>
   <v>       0.38889499       0.77778040       0.87500000 </v>
   <v>       0.22222211       0.27777772       0.87500000 </v>
   <v>       0.72222208       0.77778036       0.87500000 </v>
   <v>       0.55555561       0.27777772       0.87500000 </v>
   <v>       0.88888780       0.27777560       0.87500000 </v>
   <v>       0.22203010       0.77768172       0.37500000 </v>
   <v>       0.05492459       0.27758567       0.37500000 </v>
   <v>       0.38321436       0.26642872       0.37500000 </v>
   <v>       0.55574766       0.77840874       0.37500000 </v>
   <v>       0.88973042       0.77847773       0.37500000 </v>
   <v>       0.72266108       0.27758567       0.37500000 </v>
   <v>       0.05555294       0.94444793       0.87500000 </v>
   <v>       0.38889499       0.94444793       0.87500000 </v>
   <v>       0.22222295       0.44443974       0.87500000 </v>
   <v>       0.55555250       0.44444291       0.87500000 </v>
   <v>       0.72222259       0.94444517       0.87500000 </v>
   <v>       0.88888540       0.44443834       0.87500000 </v>
   <v>       0.05485561       0.44458602       0.37500000 </v>
   <v>       0.22168142       0.94336284       0.37500000 </v>
   <v>       0.55571596       0.94452465       0.37500000 </v>
   <v>       0.38321436       0.45011897       0.37500000 </v>
   <v>       0.88880868       0.94452465       0.37500000 </v>
   <v>       0.72534720       0.44512155       0.37500000 </v>
   <v>       0.22222502       0.61110832       0.87500000 </v>
   <v>       0.05555297       0.11111126       0.87500000 </v>
   <v>       0.55555561       0.61111123       0.87500000 </v>
   <v>       0.38889360       0.11111654       0.87500000 </v>
   <v>       0.88888330       0.61110832       0.87500000 </v>
   <v>       0.05565162       0.61130323       0.37500000 </v>
   <v>       0.72222259       0.11111075       0.87500000 </v>
   <v>       0.21977436       0.10798614       0.37500000 </v>
   <v>       0.38821178       0.61355898       0.37500000 </v>
   <v>       0.72534720       0.61355898       0.37500000 </v>
   <v>       0.55574766       0.11067225       0.37500000 </v>
   <v>       0.38889360       0.61111039       0.87500000 </v>
   <v>       0.88867002       0.11100168       0.37500000 </v>
   <v>       0.22222639       0.77777986       0.87500000 </v>
   <v>       0.05555297       0.27777505       0.87500000 </v>
   <v>       0.38889042       0.27778084       0.87500000 </v>
   <v>       0.55555829       0.77778036       0.87500000 </v>
   <v>       0.88888540       0.77778040       0.87500000 </v>
   <v>       0.72222208       0.27777505       0.87500000 </v>
   <v>       0.05565162       0.77768172       0.37500000 </v>
   <v>       0.38874731       0.77847773       0.37500000 </v>
   <v>       0.22137438       0.27735386       0.37500000 </v>
   <v>       0.72266108       0.77840874       0.37500000 </v>
   <v>       0.55597948       0.27735386       0.37500000 </v>
   <v>       0.88880868       0.27761737       0.37500000 </v>
   <v>       0.05555294       0.44443834       0.87500000 </v>
   <v>       0.22222502       0.94445003       0.87500000 </v>
   <v>       0.55555773       0.94444553       0.87500000 </v>
   <v>       0.38889042       0.44444291       0.87500000 </v>
   <v>       0.88888780       0.94444553       0.87500000 </v>
   <v>       0.05485561       0.94360291       0.37500000 </v>
   <v>       0.72221679       0.44443974       0.87500000 </v>
   <v>       0.38874731       0.94360291       0.37500000 </v>
   <v>       0.21977436       0.44512155       0.37500000 </v>
   <v>       0.22168142       0.61165191       0.37500000 </v>
   <v>       0.56690462       0.45011897       0.37500000 </v>
   <v>       0.72233166       0.94466331       0.37500000 </v>
   <v>       0.88973042       0.44458602       0.37500000 </v>
   <v>       0.05555347       0.61110694       0.87500000 </v>
   <v>       0.22222295       0.11111654       0.87500000 </v>
   <v>       0.72221679       0.61111039       0.87500000 </v>
   <v>       0.55555829       0.11111126       0.87500000 </v>
   <v>       0.88888816       0.11111075       0.87500000 </v>
   <v>       0.10888702       0.05363429       0.37500000 </v>
   <v>       0.61662821       0.56151023       0.37500000 </v>
   <v>       0.44474727       0.05363429       0.37500000 </v>
   <v>       0.94505350       0.55569452       0.37500000 </v>
   <v>       0.77777778       0.05555556       0.37500000 </v>
   <v>       0.11111111       0.72222222       0.87500000 </v>
   <v>       0.44445789       0.72225917       0.87500000 </v>
   <v>       0.27773656       0.22218886       0.87500000 </v>
   <v>       0.77780129       0.72225917       0.87500000 </v>
   <v>       0.61113701       0.22219632       0.87500000 </v>
   <v>       0.94441891       0.22220602       0.87500000 </v>
   <v>       0.27763881       0.72269232       0.37500000 </v>
   <v>       0.10939752       0.22136543       0.37500000 </v>
   <v>       0.44488202       0.21670513       0.37500000 </v>
   <v>       0.61196791       0.72393582       0.37500000 </v>
   <v>       0.94505350       0.72269232       0.37500000 </v>
   <v>       0.77798832       0.22181380       0.37500000 </v>
   <v>       0.11109976       0.88887925       0.87500000 </v>
   <v>       0.44445802       0.88889568       0.87500000 </v>
   <v>       0.27773656       0.38888103       0.87500000 </v>
   <v>       0.61114447       0.38888103       0.87500000 </v>
   <v>       0.77778711       0.88891442       0.87500000 </v>
   <v>       0.94443766       0.38887531       0.87500000 </v>
   <v>       0.10888702       0.38858606       0.37500000 </v>
   <v>       0.27763881       0.88827983       0.37500000 </v>
   <v>       0.61151953       0.88950785       0.37500000 </v>
   <v>       0.94428960       0.88904373       0.37500000 </v>
   <v>       0.77969904       0.38858606       0.37500000 </v>
   <v>       0.27776270       0.55557063       0.87500000 </v>
   <v>       0.11107416       0.05553205       0.87500000 </v>
   <v>       0.61114447       0.55559678       0.87500000 </v>
   <v>       0.44445789       0.05553205       0.87500000 </v>
   <v>       0.94445408       0.55555385       0.87500000 </v>
   <v>       0.11064101       0.55569452       0.37500000 </v>
   <v>       0.77777778       0.05555556       0.87500000 </v>
   <v>       0.27665444       0.05330889       0.37500000 </v>
   <v>       0.44488202       0.56151023       0.37500000 </v>
   <v>       0.78002445       0.55667889       0.37500000 </v>
   <v>       0.61151953       0.05534502       0.37500000 </v>
   <v>       0.44445231       0.55559678       0.87500000 </v>
   <v>       0.94382548       0.05534502       0.37500000 </v>
   <v>       0.27777949       0.72223357       0.87500000 </v>
   <v>       0.11105932       0.22219632       0.87500000 </v>
   <v>       0.44445231       0.22218886       0.87500000 </v>
   <v>       0.61113701       0.72227402       0.87500000 </v>
   <v>       0.94445408       0.72223357       0.87500000 </v>
   <v>       0.77778711       0.22220602       0.87500000 </v>
   <v>       0.11111111       0.72222222       0.37500000 </v>
   <v>       0.44474727       0.72444631       0.37500000 </v>
   <v>       0.27182310       0.21670513       0.37500000 </v>
   <v>       0.77969904       0.72444631       0.37500000 </v>
   <v>       0.61196791       0.22136543       0.37500000 </v>
   <v>       0.94382548       0.22181380       0.37500000 </v>
   <v>       0.11107416       0.38887545       0.87500000 </v>
   <v>       0.27777949       0.88887925       0.87500000 </v>
   <v>       0.61112731       0.88891442       0.87500000 </v>
   <v>       0.44444444       0.38888889       0.87500000 </v>
   <v>       0.94443766       0.88889568       0.87500000 </v>
   <v>       0.11064101       0.88827983       0.37500000 </v>
   <v>       0.77780129       0.38887545       0.87500000 </v>
   <v>       0.44475413       0.88904373       0.37500000 </v>
   <v>       0.27182310       0.38845131       0.37500000 </v>
   <v>       0.27665444       0.55667889       0.37500000 </v>
   <v>       0.61662821       0.38845131       0.37500000 </v>
   <v>       0.77798832       0.88950785       0.37500000 </v>
   <v>       0.94428960       0.38857921       0.37500000 </v>
   <v>       0.11109976       0.55555385       0.87500000 </v>
   <v>       0.27776270       0.05552540       0.87500000 </v>
   <v>       0.77780793       0.55557063       0.87500000 </v>
   <v>       0.61112731       0.05554622       0.87500000 </v>
   <v>       0.94441891       0.05554622       0.87500000 </v>
   <v>       0.05546928       0.11103632       0.12487403 </v>
   <v>       0.55563492       0.61126984       0.12476730 </v>
   <v>       0.38882801       0.11092619       0.12483104 </v>
   <v>       0.88900701       0.61117017       0.12488859 </v>
   <v>       0.72156507       0.11109875       0.12491481 </v>
   <v>       0.05557215       0.77776118       0.62509033 </v>
   <v>       0.38885004       0.77781495       0.62510653 </v>
   <v>       0.22206349       0.27769841       0.62523270 </v>
   <v>       0.72229702       0.77786405       0.62512597 </v>
   <v>       0.55563492       0.27769841       0.62523270 </v>
   <v>       0.88889259       0.27778519       0.62508998 </v>
   <v>       0.22218903       0.77776118       0.12490967 </v>
   <v>       0.05546928       0.27776630       0.12487403 </v>
   <v>       0.38878395       0.27756790       0.12459556 </v>
   <v>       0.55556704       0.77786405       0.12487403 </v>
   <v>       0.88896491       0.77781495       0.12489347 </v>
   <v>       0.72229702       0.27776630       0.12487403 </v>
   <v>       0.05551838       0.94436842       0.62510653 </v>
   <v>       0.38885004       0.94436842       0.62510653 </v>
   <v>       0.22209818       0.44450532       0.62516896 </v>
   <v>       0.55576543       0.44454938       0.62540444 </v>
   <v>       0.72223458       0.94446917       0.62508519 </v>
   <v>       0.88896491       0.44448330       0.62510653 </v>
   <v>       0.05551838       0.44448330       0.12489347 </v>
   <v>       0.22216316       0.94432633       0.12488859 </v>
   <v>       0.55554814       0.94444074       0.12491002 </v>
   <v>       0.38878395       0.44454938       0.12459556 </v>
   <v>       0.88889259       0.94444074       0.12491002 </v>
   <v>       0.72240714       0.44450532       0.12483104 </v>
   <v>       0.22216316       0.61117017       0.62511141 </v>
   <v>       0.05546928       0.11103632       0.62512597 </v>
   <v>       0.55563492       0.61126984       0.62523270 </v>
   <v>       0.38882801       0.11092619       0.62516896 </v>
   <v>       0.88900701       0.61117017       0.62511141 </v>
   <v>       0.05557215       0.61114430       0.12490967 </v>
   <v>       0.72223458       0.11109875       0.62508519 </v>
   <v>       0.22209818       0.11092619       0.12483104 </v>
   <v>       0.38882801       0.61123515       0.12483104 </v>
   <v>       0.72240714       0.61123515       0.12483104 </v>
   <v>       0.55556704       0.11103632       0.12487403 </v>
   <v>       0.38882801       0.61123515       0.62516896 </v>
   <v>       0.88886417       0.11109875       0.12491481 </v>
   <v>       0.22218903       0.77776118       0.62509033 </v>
   <v>       0.05546928       0.27776630       0.62512597 </v>
   <v>       0.38878395       0.27756790       0.62540444 </v>
   <v>       0.55556704       0.77786405       0.62512597 </v>
   <v>       0.88896491       0.77781495       0.62510653 </v>
   <v>       0.72229702       0.27776630       0.62512597 </v>
   <v>       0.05557215       0.77776118       0.12490967 </v>
   <v>       0.38885004       0.77781495       0.12489347 </v>
   <v>       0.22206349       0.27769841       0.12476730 </v>
   <v>       0.72229702       0.77786405       0.12487403 </v>
   <v>       0.55563492       0.27769841       0.12476730 </v>
   <v>       0.88889259       0.27778519       0.12491002 </v>
   <v>       0.05551838       0.44448330       0.62510653 </v>
   <v>       0.22216316       0.94432633       0.62511141 </v>
   <v>       0.55554814       0.94444074       0.62508998 </v>
   <v>       0.38878395       0.44454938       0.62540444 </v>
   <v>       0.88889259       0.94444074       0.62508998 </v>
   <v>       0.05551838       0.94436842       0.12489347 </v>
   <v>       0.72240714       0.44450532       0.62516896 </v>
   <v>       0.38885004       0.94436842       0.12489347 </v>
   <v>       0.22209818       0.44450532       0.12483104 </v>
   <v>       0.22216316       0.61117017       0.12488859 </v>
   <v>       0.55576543       0.44454938       0.12459556 </v>
   <v>       0.72223458       0.94446917       0.12491481 </v>
   <v>       0.88896491       0.44448330       0.12489347 </v>
   <v>       0.05557215       0.61114430       0.62509033 </v>
   <v>       0.22209818       0.11092619       0.62516896 </v>
   <v>       0.72240714       0.61123515       0.62516896 </v>
   <v>       0.55556704       0.11103632       0.62512597 </v>
   <v>       0.88886417       0.11109875       0.62508519 </v>
  </varray>
 </structure>
</modeling>
