<?xml version="1.0" encoding="ISO-8859-1"?>
<modeling>
 <generator>
  <i name="program" type="string">vasp </i>
  <i name="version" type="string">6.4.2  </i>
  <i name="subversion" type="string">20Jul23 (build Nov 06 2023 14:01:30) complex                          parallel </i>
  <i name="platform" type="string">LinuxIFC </i>
  <i name="date" type="string">2024 11 16 </i>
  <i name="time" type="string">02:46:04 </i>
 </generator>
 <incar>
  <i type="int" name="IALGO">    38</i>
  <i type="string" name="ALGO">Fast</i>
  <i type="logical" name="ADDGRID"> T  </i>
  <i type="int" name="ISPIN">     2</i>
  <i type="int" name="NELM">   100</i>
  <i type="int" name="NELMIN">     4</i>
  <i type="int" name="IBRION">    -1</i>
  <i name="EDIFF">      0.00000100</i>
  <i name="ENCUT">    500.00000000</i>
  <i name="NUPDOWN">      1.00000000</i>
  <i name="NELECT">   1153.00000000</i>
  <i type="logical" name="LREAL"> F  </i>
  <i type="int" name="ISMEAR">     0</i>
  <i name="SIGMA">      0.05000000</i>
  <i type="logical" name="LWAVE"> F  </i>
  <i type="logical" name="LCHARG"> F  </i>
  <i type="string" name="GGA">PE</i>
  <i type="int" name="IVDW">    11</i>
 </incar>
 <primitive_cell>
  <structure name="primitive_cell" >
   <crystal>
    <varray name="basis" >
     <v>      14.93631415       0.00000000       0.00000000 </v>
     <v>      -7.46815707      12.93522749      -0.00000000 </v>
     <v>       0.00000000       0.00000000      13.34127628 </v>
    </varray>
    <i name="volume">   2577.59623255 </i>
    <varray name="rec_basis" >
     <v>       0.06695092       0.03865413      -0.00000000 </v>
     <v>       0.00000000       0.07730827      -0.00000000 </v>
     <v>       0.00000000       0.00000000       0.07495535 </v>
    </varray>
   </crystal>
   <varray name="positions" >
    <v>       0.44444444       0.38888889       0.37500000 </v>
    <v>       0.11110578       0.05553988       0.12514209 </v>
    <v>       0.61111893       0.55556454       0.12533815 </v>
    <v>       0.44443410       0.05553988       0.12514209 </v>
    <v>       0.94445577       0.55556472       0.12511237 </v>
    <v>       0.77777778       0.05555556       0.12508750 </v>
    <v>       0.11111111       0.72222222       0.62490204 </v>
    <v>       0.44443410       0.72222755       0.62485791 </v>
    <v>       0.27776879       0.22221440       0.62466185 </v>
    <v>       0.77779345       0.72222755       0.62485791 </v>
    <v>       0.61111409       0.22221925       0.62484996 </v>
    <v>       0.94444599       0.22222938       0.62490241 </v>
    <v>       0.27776861       0.72222439       0.12511237 </v>
    <v>       0.11110516       0.22221925       0.12515004 </v>
    <v>       0.44444561       0.22221440       0.12533815 </v>
    <v>       0.61111409       0.72222817       0.12515004 </v>
    <v>       0.94445577       0.72222439       0.12511237 </v>
    <v>       0.77778339       0.22222938       0.12509759 </v>
    <v>       0.11110895       0.88887756       0.62488763 </v>
    <v>       0.44443273       0.88888303       0.62489877 </v>
    <v>       0.27776879       0.38888773       0.62466185 </v>
    <v>       0.61111893       0.38888773       0.62466185 </v>
    <v>       0.77778339       0.88888734       0.62490241 </v>
    <v>       0.94445030       0.38890061       0.62489877 </v>
    <v>       0.11110578       0.38889924       0.12514209 </v>
    <v>       0.27776861       0.88887756       0.12511237 </v>
    <v>       0.61110395       0.88888734       0.12509759 </v>
    <v>       0.44444444       0.38888889       0.12572567 </v>
    <v>       0.94445030       0.88888303       0.12510123 </v>
    <v>       0.77779345       0.38889924       0.12514209 </v>
    <v>       0.27776995       0.55556338       0.62481384 </v>
    <v>       0.11110578       0.05553988       0.62485791 </v>
    <v>       0.61111893       0.55556454       0.62466185 </v>
    <v>       0.44443410       0.05553988       0.62485791 </v>
    <v>       0.94445577       0.55556472       0.62488763 </v>
    <v>       0.11110895       0.55556472       0.12511237 </v>
    <v>       0.77777778       0.05555556       0.62491250 </v>
    <v>       0.27776995       0.05553990       0.12518616 </v>
    <v>       0.44444561       0.55556454       0.12533815 </v>
    <v>       0.77779343       0.55556338       0.12518616 </v>
    <v>       0.61110395       0.05554994       0.12509759 </v>
    <v>       0.44444561       0.55556454       0.62466185 </v>
    <v>       0.94444599       0.05554994       0.12509759 </v>
    <v>       0.27776861       0.72222439       0.62488763 </v>
    <v>       0.11110516       0.22221925       0.62484996 </v>
    <v>       0.44444561       0.22221440       0.62466185 </v>
    <v>       0.61111409       0.72222817       0.62484996 </v>
    <v>       0.94445577       0.72222439       0.62488763 </v>
    <v>       0.77778339       0.22222938       0.62490241 </v>
    <v>       0.11111111       0.72222222       0.12509796 </v>
    <v>       0.44443410       0.72222755       0.12514209 </v>
    <v>       0.27776879       0.22221440       0.12533815 </v>
    <v>       0.77779345       0.72222755       0.12514209 </v>
    <v>       0.61111409       0.22221925       0.12515004 </v>
    <v>       0.94444599       0.22222938       0.12509759 </v>
    <v>       0.11110578       0.38889924       0.62485791 </v>
    <v>       0.27776861       0.88887756       0.62488763 </v>
    <v>       0.61110395       0.88888734       0.62490241 </v>
    <v>       0.44444444       0.38888889       0.62427433 </v>
    <v>       0.94445030       0.88888303       0.62489877 </v>
    <v>       0.11110895       0.88887756       0.12511237 </v>
    <v>       0.77779345       0.38889924       0.62485791 </v>
    <v>       0.44443273       0.88888303       0.12510123 </v>
    <v>       0.27776879       0.38888773       0.12533815 </v>
    <v>       0.27776995       0.55556338       0.12518616 </v>
    <v>       0.61111893       0.38888773       0.12533815 </v>
    <v>       0.77778339       0.88888734       0.12509759 </v>
    <v>       0.94445030       0.38890061       0.12510123 </v>
    <v>       0.11110895       0.55556472       0.62488763 </v>
    <v>       0.27776995       0.05553990       0.62481384 </v>
    <v>       0.77779343       0.55556338       0.62481384 </v>
    <v>       0.61110395       0.05554994       0.62490241 </v>
    <v>       0.94444599       0.05554994       0.62490241 </v>
    <v>       0.05492459       0.11067225       0.37500000 </v>
    <v>       0.55597948       0.61195895       0.37500000 </v>
    <v>       0.38821178       0.10798614       0.37500000 </v>
    <v>       0.88997050       0.61165191       0.37500000 </v>
    <v>       0.72233166       0.11100168       0.37500000 </v>
    <v>       0.05555347       0.77777986       0.87500000 </v>
    <v>       0.38889499       0.77778040       0.87500000 </v>
    <v>       0.22222211       0.27777772       0.87500000 </v>
    <v>       0.72222208       0.77778036       0.87500000 </v>
    <v>       0.55555561       0.27777772       0.87500000 </v>
    <v>       0.88888780       0.27777560       0.87500000 </v>
    <v>       0.22203010       0.77768172       0.37500000 </v>
    <v>       0.05492459       0.27758567       0.37500000 </v>
    <v>       0.38321436       0.26642872       0.37500000 </v>
    <v>       0.55574766       0.77840874       0.37500000 </v>
    <v>       0.88973042       0.77847773       0.37500000 </v>
    <v>       0.72266108       0.27758567       0.37500000 </v>
    <v>       0.05555294       0.94444793       0.87500000 </v>
    <v>       0.38889499       0.94444793       0.87500000 </v>
    <v>       0.22222295       0.44443974       0.87500000 </v>
    <v>       0.55555250       0.44444291       0.87500000 </v>
    <v>       0.72222259       0.94444517       0.87500000 </v>
    <v>       0.88888540       0.44443834       0.87500000 </v>
    <v>       0.05485561       0.44458602       0.37500000 </v>
    <v>       0.22168142       0.94336284       0.37500000 </v>
    <v>       0.55571596       0.94452465       0.37500000 </v>
    <v>       0.38321436       0.45011897       0.37500000 </v>
    <v>       0.88880868       0.94452465       0.37500000 </v>
    <v>       0.72534720       0.44512155       0.37500000 </v>
    <v>       0.22222502       0.61110832       0.87500000 </v>
    <v>       0.05555297       0.11111126       0.87500000 </v>
    <v>       0.55555561       0.61111123       0.87500000 </v>
    <v>       0.38889360       0.11111654       0.87500000 </v>
    <v>       0.88888330       0.61110832       0.87500000 </v>
    <v>       0.05565162       0.61130323       0.37500000 </v>
    <v>       0.72222259       0.11111075       0.87500000 </v>
    <v>       0.21977436       0.10798614       0.37500000 </v>
    <v>       0.38821178       0.61355898       0.37500000 </v>
    <v>       0.72534720       0.61355898       0.37500000 </v>
    <v>       0.55574766       0.11067225       0.37500000 </v>
    <v>       0.38889360       0.61111039       0.87500000 </v>
    <v>       0.88867002       0.11100168       0.37500000 </v>
    <v>       0.22222639       0.77777986       0.87500000 </v>
    <v>       0.05555297       0.27777505       0.87500000 </v>
    <v>       0.38889042       0.27778084       0.87500000 </v>
    <v>       0.55555829       0.77778036       0.87500000 </v>
    <v>       0.88888540       0.77778040       0.87500000 </v>
    <v>       0.72222208       0.27777505       0.87500000 </v>
    <v>       0.05565162       0.77768172       0.37500000 </v>
    <v>       0.38874731       0.77847773       0.37500000 </v>
    <v>       0.22137438       0.27735386       0.37500000 </v>
    <v>       0.72266108       0.77840874       0.37500000 </v>
    <v>       0.55597948       0.27735386       0.37500000 </v>
    <v>       0.88880868       0.27761737       0.37500000 </v>
    <v>       0.05555294       0.44443834       0.87500000 </v>
    <v>       0.22222502       0.94445003       0.87500000 </v>
    <v>       0.55555773       0.94444553       0.87500000 </v>
    <v>       0.38889042       0.44444291       0.87500000 </v>
    <v>       0.88888780       0.94444553       0.87500000 </v>
    <v>       0.05485561       0.94360291       0.37500000 </v>
    <v>       0.72221679       0.44443974       0.87500000 </v>
    <v>       0.38874731       0.94360291       0.37500000 </v>
    <v>       0.21977436       0.44512155       0.37500000 </v>
    <v>       0.22168142       0.61165191       0.37500000 </v>
    <v>       0.56690462       0.45011897       0.37500000 </v>
    <v>       0.72233166       0.94466331       0.37500000 </v>
    <v>       0.88973042       0.44458602       0.37500000 </v>
    <v>       0.05555347       0.61110694       0.87500000 </v>
    <v>       0.22222295       0.11111654       0.87500000 </v>
    <v>       0.72221679       0.61111039       0.87500000 </v>
    <v>       0.55555829       0.11111126       0.87500000 </v>
    <v>       0.88888816       0.11111075       0.87500000 </v>
    <v>       0.10888702       0.05363429       0.37500000 </v>
    <v>       0.61662821       0.56151023       0.37500000 </v>
    <v>       0.44474727       0.05363429       0.37500000 </v>
    <v>       0.94505350       0.55569452       0.37500000 </v>
    <v>       0.77777778       0.05555556       0.37500000 </v>
    <v>       0.11111111       0.72222222       0.87500000 </v>
    <v>       0.44445789       0.72225917       0.87500000 </v>
    <v>       0.27773656       0.22218886       0.87500000 </v>
    <v>       0.77780129       0.72225917       0.87500000 </v>
    <v>       0.61113701       0.22219632       0.87500000 </v>
    <v>       0.94391959       0.22220602       0.87450068 </v>
    <v>       0.27763881       0.72269232       0.37500000 </v>
    <v>       0.10939752       0.22136543       0.37500000 </v>
    <v>       0.44488202       0.21670513       0.37500000 </v>
    <v>       0.61196791       0.72393582       0.37500000 </v>
    <v>       0.94505350       0.72269232       0.37500000 </v>
    <v>       0.77798832       0.22181380       0.37500000 </v>
    <v>       0.11109976       0.88887925       0.87500000 </v>
    <v>       0.44445802       0.88889568       0.87500000 </v>
    <v>       0.27773656       0.38888103       0.87500000 </v>
    <v>       0.61114447       0.38888103       0.87500000 </v>
    <v>       0.77778711       0.88891442       0.87500000 </v>
    <v>       0.94443766       0.38887531       0.87500000 </v>
    <v>       0.10888702       0.38858606       0.37500000 </v>
    <v>       0.27763881       0.88827983       0.37500000 </v>
    <v>       0.61151953       0.88950785       0.37500000 </v>
    <v>       0.94428960       0.88904373       0.37500000 </v>
    <v>       0.77969904       0.38858606       0.37500000 </v>
    <v>       0.27776270       0.55557063       0.87500000 </v>
    <v>       0.11107416       0.05553205       0.87500000 </v>
    <v>       0.61114447       0.55559678       0.87500000 </v>
    <v>       0.44445789       0.05553205       0.87500000 </v>
    <v>       0.94445408       0.55555385       0.87500000 </v>
    <v>       0.11064101       0.55569452       0.37500000 </v>
    <v>       0.77777778       0.05555556       0.87500000 </v>
    <v>       0.27665444       0.05330889       0.37500000 </v>
    <v>       0.44488202       0.56151023       0.37500000 </v>
    <v>       0.78002445       0.55667889       0.37500000 </v>
    <v>       0.61151953       0.05534502       0.37500000 </v>
    <v>       0.44445231       0.55559678       0.87500000 </v>
    <v>       0.94382548       0.05534502       0.37500000 </v>
    <v>       0.27777949       0.72223357       0.87500000 </v>
    <v>       0.11105932       0.22219632       0.87500000 </v>
    <v>       0.44445231       0.22218886       0.87500000 </v>
    <v>       0.61113701       0.72227402       0.87500000 </v>
    <v>       0.94445408       0.72223357       0.87500000 </v>
    <v>       0.77778711       0.22220602       0.87500000 </v>
    <v>       0.11111111       0.72222222       0.37500000 </v>
    <v>       0.44474727       0.72444631       0.37500000 </v>
    <v>       0.27182310       0.21670513       0.37500000 </v>
    <v>       0.77969904       0.72444631       0.37500000 </v>
    <v>       0.61196791       0.22136543       0.37500000 </v>
    <v>       0.94382548       0.22181380       0.37500000 </v>
    <v>       0.11107416       0.38887545       0.87500000 </v>
    <v>       0.27777949       0.88887925       0.87500000 </v>
    <v>       0.61112731       0.88891442       0.87500000 </v>
    <v>       0.44444444       0.38888889       0.87500000 </v>
    <v>       0.94443766       0.88889568       0.87500000 </v>
    <v>       0.11064101       0.88827983       0.37500000 </v>
    <v>       0.77780129       0.38887545       0.87500000 </v>
    <v>       0.44475413       0.88904373       0.37500000 </v>
    <v>       0.27182310       0.38845131       0.37500000 </v>
    <v>       0.27665444       0.55667889       0.37500000 </v>
    <v>       0.61662821       0.38845131       0.37500000 </v>
    <v>       0.77798832       0.88950785       0.37500000 </v>
    <v>       0.94428960       0.38857921       0.37500000 </v>
    <v>       0.11109976       0.55555385       0.87500000 </v>
    <v>       0.27776270       0.05552540       0.87500000 </v>
    <v>       0.77780793       0.55557063       0.87500000 </v>
    <v>       0.61112731       0.05554622       0.87500000 </v>
    <v>       0.94441891       0.05554622       0.87500000 </v>
    <v>       0.05546928       0.11103632       0.12487403 </v>
    <v>       0.55563492       0.61126984       0.12476730 </v>
    <v>       0.38882801       0.11092619       0.12483104 </v>
    <v>       0.88900701       0.61117017       0.12488859 </v>
    <v>       0.72223458       0.11109875       0.12491481 </v>
    <v>       0.05557215       0.77776118       0.62509033 </v>
    <v>       0.38885004       0.77781495       0.62510653 </v>
    <v>       0.22206349       0.27769841       0.62523270 </v>
    <v>       0.72229702       0.77786405       0.62512597 </v>
    <v>       0.55563492       0.27769841       0.62523270 </v>
    <v>       0.88889259       0.27778519       0.62508998 </v>
    <v>       0.22218903       0.77776118       0.12490967 </v>
    <v>       0.05546928       0.27776630       0.12487403 </v>
    <v>       0.38878395       0.27756790       0.12459556 </v>
    <v>       0.55556704       0.77786405       0.12487403 </v>
    <v>       0.88896491       0.77781495       0.12489347 </v>
    <v>       0.72229702       0.27776630       0.12487403 </v>
    <v>       0.05551838       0.94436842       0.62510653 </v>
    <v>       0.38885004       0.94436842       0.62510653 </v>
    <v>       0.22209818       0.44450532       0.62516896 </v>
    <v>       0.55576543       0.44454938       0.62540444 </v>
    <v>       0.72223458       0.94446917       0.62508519 </v>
    <v>       0.88896491       0.44448330       0.62510653 </v>
    <v>       0.05551838       0.44448330       0.12489347 </v>
    <v>       0.22216316       0.94432633       0.12488859 </v>
    <v>       0.55554814       0.94444074       0.12491002 </v>
    <v>       0.38878395       0.44454938       0.12459556 </v>
    <v>       0.88889259       0.94444074       0.12491002 </v>
    <v>       0.72240714       0.44450532       0.12483104 </v>
    <v>       0.22216316       0.61117017       0.62511141 </v>
    <v>       0.05546928       0.11103632       0.62512597 </v>
    <v>       0.55563492       0.61126984       0.62523270 </v>
    <v>       0.38882801       0.11092619       0.62516896 </v>
    <v>       0.88900701       0.61117017       0.62511141 </v>
    <v>       0.05557215       0.61114430       0.12490967 </v>
    <v>       0.72223458       0.11109875       0.62508519 </v>
    <v>       0.22209818       0.11092619       0.12483104 </v>
    <v>       0.38882801       0.61123515       0.12483104 </v>
    <v>       0.72240714       0.61123515       0.12483104 </v>
    <v>       0.55556704       0.11103632       0.12487403 </v>
    <v>       0.38882801       0.61123515       0.62516896 </v>
    <v>       0.88886417       0.11109875       0.12491481 </v>
    <v>       0.22218903       0.77776118       0.62509033 </v>
    <v>       0.05546928       0.27776630       0.62512597 </v>
    <v>       0.38878395       0.27756790       0.62540444 </v>
    <v>       0.55556704       0.77786405       0.62512597 </v>
    <v>       0.88896491       0.77781495       0.62510653 </v>
    <v>       0.72229702       0.27776630       0.62512597 </v>
    <v>       0.05557215       0.77776118       0.12490967 </v>
    <v>       0.38885004       0.77781495       0.12489347 </v>
    <v>       0.22206349       0.27769841       0.12476730 </v>
    <v>       0.72229702       0.77786405       0.12487403 </v>
    <v>       0.55563492       0.27769841       0.12476730 </v>
    <v>       0.88889259       0.27778519       0.12491002 </v>
    <v>       0.05551838       0.44448330       0.62510653 </v>
    <v>       0.22216316       0.94432633       0.62511141 </v>
    <v>       0.55554814       0.94444074       0.62508998 </v>
    <v>       0.38878395       0.44454938       0.62540444 </v>
    <v>       0.88889259       0.94444074       0.62508998 </v>
    <v>       0.05551838       0.94436842       0.12489347 </v>
    <v>       0.72240714       0.44450532       0.62516896 </v>
    <v>       0.38885004       0.94436842       0.12489347 </v>
    <v>       0.22209818       0.44450532       0.12483104 </v>
    <v>       0.22216316       0.61117017       0.12488859 </v>
    <v>       0.55576543       0.44454938       0.12459556 </v>
    <v>       0.72223458       0.94446917       0.12491481 </v>
    <v>       0.88896491       0.44448330       0.12489347 </v>
    <v>       0.05557215       0.61114430       0.62509033 </v>
    <v>       0.22209818       0.11092619       0.62516896 </v>
    <v>       0.72240714       0.61123515       0.62516896 </v>
    <v>       0.55556704       0.11103632       0.62512597 </v>
    <v>       0.88886417       0.11109875       0.62508519 </v>
   </varray>
  </structure>
  <varray name="primitive_index" >
   <v type="int" >        1 </v>
   <v type="int" >        2 </v>
   <v type="int" >        3 </v>
   <v type="int" >        4 </v>
   <v type="int" >        5 </v>
   <v type="int" >        6 </v>
   <v type="int" >        7 </v>
   <v type="int" >        8 </v>
   <v type="int" >        9 </v>
   <v type="int" >       10 </v>
   <v type="int" >       11 </v>
   <v type="int" >       12 </v>
   <v type="int" >       13 </v>
   <v type="int" >       14 </v>
   <v type="int" >       15 </v>
   <v type="int" >       16 </v>
   <v type="int" >       17 </v>
   <v type="int" >       18 </v>
   <v type="int" >       19 </v>
   <v type="int" >       20 </v>
   <v type="int" >       21 </v>
   <v type="int" >       22 </v>
   <v type="int" >       23 </v>
   <v type="int" >       24 </v>
   <v type="int" >       25 </v>
   <v type="int" >       26 </v>
   <v type="int" >       27 </v>
   <v type="int" >       28 </v>
   <v type="int" >       29 </v>
   <v type="int" >       30 </v>
   <v type="int" >       31 </v>
   <v type="int" >       32 </v>
   <v type="int" >       33 </v>
   <v type="int" >       34 </v>
   <v type="int" >       35 </v>
   <v type="int" >       36 </v>
   <v type="int" >       37 </v>
   <v type="int" >       38 </v>
   <v type="int" >       39 </v>
   <v type="int" >       40 </v>
   <v type="int" >       41 </v>
   <v type="int" >       42 </v>
   <v type="int" >       43 </v>
   <v type="int" >       44 </v>
   <v type="int" >       45 </v>
   <v type="int" >       46 </v>
   <v type="int" >       47 </v>
   <v type="int" >       48 </v>
   <v type="int" >       49 </v>
   <v type="int" >       50 </v>
   <v type="int" >       51 </v>
   <v type="int" >       52 </v>
   <v type="int" >       53 </v>
   <v type="int" >       54 </v>
   <v type="int" >       55 </v>
   <v type="int" >       56 </v>
   <v type="int" >       57 </v>
   <v type="int" >       58 </v>
   <v type="int" >       59 </v>
   <v type="int" >       60 </v>
   <v type="int" >       61 </v>
   <v type="int" >       62 </v>
   <v type="int" >       63 </v>
   <v type="int" >       64 </v>
   <v type="int" >       65 </v>
   <v type="int" >       66 </v>
   <v type="int" >       67 </v>
   <v type="int" >       68 </v>
   <v type="int" >       69 </v>
   <v type="int" >       70 </v>
   <v type="int" >       71 </v>
   <v type="int" >       72 </v>
   <v type="int" >       73 </v>
   <v type="int" >       74 </v>
   <v type="int" >       75 </v>
   <v type="int" >       76 </v>
   <v type="int" >       77 </v>
   <v type="int" >       78 </v>
   <v type="int" >       79 </v>
   <v type="int" >       80 </v>
   <v type="int" >       81 </v>
   <v type="int" >       82 </v>
   <v type="int" >       83 </v>
   <v type="int" >       84 </v>
   <v type="int" >       85 </v>
   <v type="int" >       86 </v>
   <v type="int" >       87 </v>
   <v type="int" >       88 </v>
   <v type="int" >       89 </v>
   <v type="int" >       90 </v>
   <v type="int" >       91 </v>
   <v type="int" >       92 </v>
   <v type="int" >       93 </v>
   <v type="int" >       94 </v>
   <v type="int" >       95 </v>
   <v type="int" >       96 </v>
   <v type="int" >       97 </v>
   <v type="int" >       98 </v>
   <v type="int" >       99 </v>
   <v type="int" >      100 </v>
   <v type="int" >      101 </v>
   <v type="int" >      102 </v>
   <v type="int" >      103 </v>
   <v type="int" >      104 </v>
   <v type="int" >      105 </v>
   <v type="int" >      106 </v>
   <v type="int" >      107 </v>
   <v type="int" >      108 </v>
   <v type="int" >      109 </v>
   <v type="int" >      110 </v>
   <v type="int" >      111 </v>
   <v type="int" >      112 </v>
   <v type="int" >      113 </v>
   <v type="int" >      114 </v>
   <v type="int" >      115 </v>
   <v type="int" >      116 </v>
   <v type="int" >      117 </v>
   <v type="int" >      118 </v>
   <v type="int" >      119 </v>
   <v type="int" >      120 </v>
   <v type="int" >      121 </v>
   <v type="int" >      122 </v>
   <v type="int" >      123 </v>
   <v type="int" >      124 </v>
   <v type="int" >      125 </v>
   <v type="int" >      126 </v>
   <v type="int" >      127 </v>
   <v type="int" >      128 </v>
   <v type="int" >      129 </v>
   <v type="int" >      130 </v>
   <v type="int" >      131 </v>
   <v type="int" >      132 </v>
   <v type="int" >      133 </v>
   <v type="int" >      134 </v>
   <v type="int" >      135 </v>
   <v type="int" >      136 </v>
   <v type="int" >      137 </v>
   <v type="int" >      138 </v>
   <v type="int" >      139 </v>
   <v type="int" >      140 </v>
   <v type="int" >      141 </v>
   <v type="int" >      142 </v>
   <v type="int" >      143 </v>
   <v type="int" >      144 </v>
   <v type="int" >      145 </v>
   <v type="int" >      146 </v>
   <v type="int" >      147 </v>
   <v type="int" >      148 </v>
   <v type="int" >      149 </v>
   <v type="int" >      150 </v>
   <v type="int" >      151 </v>
   <v type="int" >      152 </v>
   <v type="int" >      153 </v>
   <v type="int" >      154 </v>
   <v type="int" >      155 </v>
   <v type="int" >      156 </v>
   <v type="int" >      157 </v>
   <v type="int" >      158 </v>
   <v type="int" >      159 </v>
   <v type="int" >      160 </v>
   <v type="int" >      161 </v>
   <v type="int" >      162 </v>
   <v type="int" >      163 </v>
   <v type="int" >      164 </v>
   <v type="int" >      165 </v>
   <v type="int" >      166 </v>
   <v type="int" >      167 </v>
   <v type="int" >      168 </v>
   <v type="int" >      169 </v>
   <v type="int" >      170 </v>
   <v type="int" >      171 </v>
   <v type="int" >      172 </v>
   <v type="int" >      173 </v>
   <v type="int" >      174 </v>
   <v type="int" >      175 </v>
   <v type="int" >      176 </v>
   <v type="int" >      177 </v>
   <v type="int" >      178 </v>
   <v type="int" >      179 </v>
   <v type="int" >      180 </v>
   <v type="int" >      181 </v>
   <v type="int" >      182 </v>
   <v type="int" >      183 </v>
   <v type="int" >      184 </v>
   <v type="int" >      185 </v>
   <v type="int" >      186 </v>
   <v type="int" >      187 </v>
   <v type="int" >      188 </v>
   <v type="int" >      189 </v>
   <v type="int" >      190 </v>
   <v type="int" >      191 </v>
   <v type="int" >      192 </v>
   <v type="int" >      193 </v>
   <v type="int" >      194 </v>
   <v type="int" >      195 </v>
   <v type="int" >      196 </v>
   <v type="int" >      197 </v>
   <v type="int" >      198 </v>
   <v type="int" >      199 </v>
   <v type="int" >      200 </v>
   <v type="int" >      201 </v>
   <v type="int" >      202 </v>
   <v type="int" >      203 </v>
   <v type="int" >      204 </v>
   <v type="int" >      205 </v>
   <v type="int" >      206 </v>
   <v type="int" >      207 </v>
   <v type="int" >      208 </v>
   <v type="int" >      209 </v>
   <v type="int" >      210 </v>
   <v type="int" >      211 </v>
   <v type="int" >      212 </v>
   <v type="int" >      213 </v>
   <v type="int" >      214 </v>
   <v type="int" >      215 </v>
   <v type="int" >      216 </v>
   <v type="int" >      217 </v>
   <v type="int" >      218 </v>
   <v type="int" >      219 </v>
   <v type="int" >      220 </v>
   <v type="int" >      221 </v>
   <v type="int" >      222 </v>
   <v type="int" >      223 </v>
   <v type="int" >      224 </v>
   <v type="int" >      225 </v>
   <v type="int" >      226 </v>
   <v type="int" >      227 </v>
   <v type="int" >      228 </v>
   <v type="int" >      229 </v>
   <v type="int" >      230 </v>
   <v type="int" >      231 </v>
   <v type="int" >      232 </v>
   <v type="int" >      233 </v>
   <v type="int" >      234 </v>
   <v type="int" >      235 </v>
   <v type="int" >      236 </v>
   <v type="int" >      237 </v>
   <v type="int" >      238 </v>
   <v type="int" >      239 </v>
   <v type="int" >      240 </v>
   <v type="int" >      241 </v>
   <v type="int" >      242 </v>
   <v type="int" >      243 </v>
   <v type="int" >      244 </v>
   <v type="int" >      245 </v>
   <v type="int" >      246 </v>
   <v type="int" >      247 </v>
   <v type="int" >      248 </v>
   <v type="int" >      249 </v>
   <v type="int" >      250 </v>
   <v type="int" >      251 </v>
   <v type="int" >      252 </v>
   <v type="int" >      253 </v>
   <v type="int" >      254 </v>
   <v type="int" >      255 </v>
   <v type="int" >      256 </v>
   <v type="int" >      257 </v>
   <v type="int" >      258 </v>
   <v type="int" >      259 </v>
   <v type="int" >      260 </v>
   <v type="int" >      261 </v>
   <v type="int" >      262 </v>
   <v type="int" >      263 </v>
   <v type="int" >      264 </v>
   <v type="int" >      265 </v>
   <v type="int" >      266 </v>
   <v type="int" >      267 </v>
   <v type="int" >      268 </v>
   <v type="int" >      269 </v>
   <v type="int" >      270 </v>
   <v type="int" >      271 </v>
   <v type="int" >      272 </v>
   <v type="int" >      273 </v>
   <v type="int" >      274 </v>
   <v type="int" >      275 </v>
   <v type="int" >      276 </v>
   <v type="int" >      277 </v>
   <v type="int" >      278 </v>
   <v type="int" >      279 </v>
   <v type="int" >      280 </v>
   <v type="int" >      281 </v>
   <v type="int" >      282 </v>
   <v type="int" >      283 </v>
   <v type="int" >      284 </v>
   <v type="int" >      285 </v>
   <v type="int" >      286 </v>
   <v type="int" >      287 </v>
   <v type="int" >      288 </v>
  </varray>
 </primitive_cell>
 <kpoints>
  <generation param="Gamma">
   <v type="int" name="divisions">       2        2        2 </v>
   <v name="usershift">      0.00000000       0.00000000       0.00000000 </v>
   <v name="genvec1">      0.50000000       0.00000000       0.00000000 </v>
   <v name="genvec2">      0.00000000       0.50000000      -0.00000000 </v>
   <v name="genvec3">      0.00000000      -0.00000000       0.50000000 </v>
   <v name="shift">      0.00000000       0.00000000       0.00000000 </v>
  </generation>
  <varray name="kpointlist" >
   <v>       0.00000000       0.00000000       0.00000000 </v>
   <v>       0.50000000       0.00000000       0.00000000 </v>
   <v>       0.00000000       0.50000000       0.00000000 </v>
   <v>       0.50000000       0.50000000       0.00000000 </v>
   <v>       0.00000000      -0.00000000       0.50000000 </v>
   <v>       0.50000000      -0.00000000       0.50000000 </v>
   <v>       0.00000000       0.50000000       0.50000000 </v>
   <v>       0.50000000       0.50000000       0.50000000 </v>
  </varray>
  <varray name="weights" >
   <v>       0.12500000 </v>
   <v>       0.12500000 </v>
   <v>       0.12500000 </v>
   <v>       0.12500000 </v>
   <v>       0.12500000 </v>
   <v>       0.12500000 </v>
   <v>       0.12500000 </v>
   <v>       0.12500000 </v>
  </varray>
 </kpoints>
 <parameters>
  <separator name="general" >
   <i type="string" name="SYSTEM">unknown system</i>
   <i type="logical" name="LCOMPAT"> F  </i>
  </separator>
  <separator name="electronic" >
   <i type="string" name="PREC">normal</i>
   <i name="ENMAX">    500.00000000</i>
   <i name="ENAUG">    627.11200000</i>
   <i name="EDIFF">      0.00000100</i>
   <i type="int" name="IALGO">    68</i>
   <i type="int" name="IWAVPR">    10</i>
   <i type="int" name="NBANDS">   728</i>
   <i type="int" name="NBANDSLOW">    -1</i>
   <i type="int" name="NBANDSHIGH">    -1</i>
   <i name="NELECT">   1153.00000000</i>
   <i type="int" name="TURBO">     0</i>
   <i type="int" name="IRESTART">     0</i>
   <i type="int" name="NREBOOT">     0</i>
   <i type="int" name="NMIN">     0</i>
   <i name="EREF">      0.00000000</i>
   <separator name="electronic smearing" >
    <i type="int" name="ISMEAR">     0</i>
    <i name="SIGMA">      0.05000000</i>
    <i name="KSPACING">      0.50000000</i>
    <i type="logical" name="KGAMMA"> T  </i>
    <i type="logical" name="KBLOWUP"> T  </i>
   </separator>
   <separator name="electronic projectors" >
    <i type="logical" name="LREAL"> F  </i>
    <v name="ROPT">      0.00000000      0.00000000      0.00000000</v>
    <i type="int" name="LMAXPAW">  -100</i>
    <i type="int" name="LMAXMIX">     2</i>
    <i type="logical" name="NLSPLINE"> F  </i>
   </separator>
   <separator name="electronic startup" >
    <i type="int" name="ISTART">     0</i>
    <i type="int" name="ICHARG">     2</i>
    <i type="int" name="INIWAV">     1</i>
   </separator>
   <separator name="electronic spin" >
    <i type="int" name="ISPIN">     2</i>
    <i type="logical" name="LNONCOLLINEAR"> F  </i>
    <v name="MAGMOM">      0.00347222      0.00347222      0.00347222      0.00347222      0.00347222      0.00347222      0.00347222      0.00347222      0.00347222      0.00347222      0.00347222      0.00347222      0.00347222      0.00347222      0.00347222      0.00347222      0.00347222      0.00347222      0.00347222      0.00347222
      0.00347222      0.00347222      0.00347222      0.00347222      0.00347222      0.00347222      0.00347222      0.00347222      0.00347222      0.00347222      0.00347222      0.00347222      0.00347222      0.00347222      0.00347222      0.00347222      0.00347222      0.00347222      0.00347222      0.00347222
      0.00347222      0.00347222      0.00347222      0.00347222      0.00347222      0.00347222      0.00347222      0.00347222      0.00347222      0.00347222      0.00347222      0.00347222      0.00347222      0.00347222      0.00347222      0.00347222      0.00347222      0.00347222      0.00347222      0.00347222
      0.00347222      0.00347222      0.00347222      0.00347222      0.00347222      0.00347222      0.00347222      0.00347222      0.00347222      0.00347222      0.00347222      0.00347222      0.00347222      0.00347222      0.00347222      0.00347222      0.00347222      0.00347222      0.00347222      0.00347222
      0.00347222      0.00347222      0.00347222      0.00347222      0.00347222      0.00347222      0.00347222      0.00347222      0.00347222      0.00347222      0.00347222      0.00347222      0.00347222      0.00347222      0.00347222      0.00347222      0.00347222      0.00347222      0.00347222      0.00347222
      0.00347222      0.00347222      0.00347222      0.00347222      0.00347222      0.00347222      0.00347222      0.00347222      0.00347222      0.00347222      0.00347222      0.00347222      0.00347222      0.00347222      0.00347222      0.00347222      0.00347222      0.00347222      0.00347222      0.00347222
      0.00347222      0.00347222      0.00347222      0.00347222      0.00347222      0.00347222      0.00347222      0.00347222      0.00347222      0.00347222      0.00347222      0.00347222      0.00347222      0.00347222      0.00347222      0.00347222      0.00347222      0.00347222      0.00347222      0.00347222
      0.00347222      0.00347222      0.00347222      0.00347222      0.00347222      0.00347222      0.00347222      0.00347222      0.00347222      0.00347222      0.00347222      0.00347222      0.00347222      0.00347222      0.00347222      0.00347222      0.00347222      0.00347222      0.00347222      0.00347222
      0.00347222      0.00347222      0.00347222      0.00347222      0.00347222      0.00347222      0.00347222      0.00347222      0.00347222      0.00347222      0.00347222      0.00347222      0.00347222      0.00347222      0.00347222      0.00347222      0.00347222      0.00347222      0.00347222      0.00347222
      0.00347222      0.00347222      0.00347222      0.00347222      0.00347222      0.00347222      0.00347222      0.00347222      0.00347222      0.00347222      0.00347222      0.00347222      0.00347222      0.00347222      0.00347222      0.00347222      0.00347222      0.00347222      0.00347222      0.00347222
      0.00347222      0.00347222      0.00347222      0.00347222      0.00347222      0.00347222      0.00347222      0.00347222      0.00347222      0.00347222      0.00347222      0.00347222      0.00347222      0.00347222      0.00347222      0.00347222      0.00347222      0.00347222      0.00347222      0.00347222
      0.00347222      0.00347222      0.00347222      0.00347222      0.00347222      0.00347222      0.00347222      0.00347222      0.00347222      0.00347222      0.00347222      0.00347222      0.00347222      0.00347222      0.00347222      0.00347222      0.00347222      0.00347222      0.00347222      0.00347222
      0.00347222      0.00347222      0.00347222      0.00347222      0.00347222      0.00347222      0.00347222      0.00347222      0.00347222      0.00347222      0.00347222      0.00347222      0.00347222      0.00347222      0.00347222      0.00347222      0.00347222      0.00347222      0.00347222      0.00347222
      0.00347222      0.00347222      0.00347222      0.00347222      0.00347222      0.00347222      0.00347222      0.00347222      0.00347222      0.00347222      0.00347222      0.00347222      0.00347222      0.00347222      0.00347222      0.00347222      0.00347222      0.00347222      0.00347222      0.00347222
      0.00347222      0.00347222      0.00347222      0.00347222      0.00347222      0.00347222      0.00347222      0.00347222</v>
    <i name="NUPDOWN">      1.00000000</i>
    <i type="logical" name="LSORBIT"> F  </i>
    <v name="SAXIS">      0.00000000      0.00000000      1.00000000</v>
    <i type="logical" name="LSPIRAL"> F  </i>
    <v name="QSPIRAL">      0.00000000      0.00000000      0.00000000</v>
    <i type="logical" name="LZEROZ"> F  </i>
   </separator>
   <separator name="electronic exchange-correlation" >
    <i type="logical" name="LASPH"> F  </i>
    <i type="logical" name="LMETAGGA"> F  </i>
   </separator>
   <separator name="electronic convergence" >
    <i type="int" name="NELM">   100</i>
    <i type="int" name="NELMDL">    -5</i>
    <i type="int" name="NELMIN">     4</i>
    <i name="ENINI">    500.00000000</i>
    <separator name="electronic convergence detail" >
     <i type="logical" name="LDIAG"> T  </i>
     <i type="logical" name="LSUBROT"> F  </i>
     <i name="WEIMIN">      0.00000000</i>
     <i name="EBREAK">      0.00000000</i>
     <i name="DEPER">      0.30000000</i>
     <i type="int" name="NRMM">     4</i>
     <i name="TIME">      0.40000000</i>
    </separator>
   </separator>
   <separator name="electronic mixer" >
    <i name="AMIX">      0.40000000</i>
    <i name="BMIX">      1.00000000</i>
    <i name="AMIN">      0.10000000</i>
    <i name="AMIX_MAG">      1.60000000</i>
    <i name="BMIX_MAG">      1.00000000</i>
    <separator name="electronic mixer details" >
     <i type="int" name="IMIX">     4</i>
     <i type="logical" name="MIXFIRST"> F  </i>
     <i type="int" name="MAXMIX">   -45</i>
     <i name="WC">    100.00000000</i>
     <i type="int" name="INIMIX">     1</i>
     <i type="int" name="MIXPRE">     1</i>
     <i type="int" name="MREMOVE">     5</i>
    </separator>
   </separator>
   <separator name="electronic dipolcorrection" >
    <i type="logical" name="LDIPOL"> F  </i>
    <i type="logical" name="LMONO"> F  </i>
    <i type="int" name="IDIPOL">     0</i>
    <i name="EPSILON">      1.00000000</i>
    <v name="DIPOL">   -100.00000000   -100.00000000   -100.00000000</v>
    <i name="EFIELD">      0.00000000</i>
   </separator>
  </separator>
  <separator name="grids" >
   <i type="int" name="NGX">    84</i>
   <i type="int" name="NGY">    84</i>
   <i type="int" name="NGZ">    80</i>
   <i type="int" name="NGXF">   168</i>
   <i type="int" name="NGYF">   168</i>
   <i type="int" name="NGZF">   160</i>
   <i type="logical" name="ADDGRID"> T  </i>
  </separator>
  <separator name="ionic" >
   <i type="int" name="NSW">     0</i>
   <i type="int" name="IBRION">    -1</i>
   <i type="int" name="MDALGO">     0</i>
   <i type="int" name="ISIF">     2</i>
   <i name="PSTRESS">      0.00000000</i>
   <i name="EDIFFG">      0.00001000</i>
   <i type="int" name="NFREE">     0</i>
   <i name="POTIM">      0.50000000</i>
   <i name="SMASS">     -3.00000000</i>
   <i name="SCALEE">      1.00000000</i>
  </separator>
  <separator name="ionic md" >
   <i name="TEBEG">      0.00010000</i>
   <i name="TEEND">      0.00010000</i>
   <i type="int" name="NBLOCK">     1</i>
   <i type="int" name="KBLOCK">     1</i>
   <i type="int" name="NPACO">   256</i>
   <i name="APACO">     10.00000000</i>
  </separator>
  <separator name="symmetry" >
   <i type="int" name="ISYM">     2</i>
   <i name="SYMPREC">      0.00001000</i>
  </separator>
  <separator name="dos" >
   <i type="int" name="LORBIT">     0</i>
   <v name="RWIGS">     -1.00000000     -1.00000000     -1.00000000</v>
   <i type="int" name="NEDOS">   301</i>
   <i name="EMIN">     10.00000000</i>
   <i name="EMAX">    -10.00000000</i>
   <i name="EFERMI">      0.00000000</i>
  </separator>
  <separator name="writing" >
   <i type="int" name="NWRITE">     2</i>
   <i type="logical" name="LWAVE"> F  </i>
   <i type="logical" name="LDOWNSAMPLE"> F  </i>
   <i type="logical" name="LCHARG"> F  </i>
   <i type="logical" name="LPARD"> F  </i>
   <i type="logical" name="LVTOT"> F  </i>
   <i type="logical" name="LVHAR"> F  </i>
   <i type="logical" name="LELF"> F  </i>
   <i type="logical" name="LOPTICS"> F  </i>
   <v name="STM">      0.00000000      0.00000000      0.00000000      0.00000000      0.00000000      0.00000000      0.00000000</v>
  </separator>
  <separator name="performance" >
   <i type="int" name="NPAR">     8</i>
   <i type="int" name="NSIM">     4</i>
   <i type="int" name="NBLK">    -1</i>
   <i type="logical" name="LPLANE"> T  </i>
   <i type="logical" name="LSCALAPACK"> T  </i>
   <i type="logical" name="LSCAAWARE"> T  </i>
   <i type="logical" name="LSCALU"> F  </i>
   <i type="logical" name="LASYNC"> F  </i>
   <i type="logical" name="LORBITALREAL"> F  </i>
  </separator>
  <separator name="miscellaneous" >
   <i type="int" name="IDIOT">     3</i>
   <i type="int" name="PHON_NSTRUCT">    -1</i>
   <i type="logical" name="LMUSIC"> F  </i>
   <v name="POMASS">     30.97400000     14.00100000     10.81100000</v>
   <v name="DARWINR">      0.00000000      0.00000000      0.00000000</v>
   <v name="DARWINV">      1.00000000      1.00000000      1.00000000</v>
   <i type="logical" name="LCORR"> T  </i>
  </separator>
  <i type="logical" name="GGA_COMPAT"> T  </i>
  <i type="logical" name="LBERRY"> F  </i>
  <i type="int" name="ICORELEVEL">     0</i>
  <i type="logical" name="LDAU"> F  </i>
  <i type="int" name="I_CONSTRAINED_M">     0</i>
  <separator name="electronic exchange-correlation" >
   <i type="string" name="GGA">PE</i>
   <i type="int" name="VOSKOWN">     0</i>
   <i type="logical" name="LHFCALC"> F  </i>
   <i type="string" name="PRECFOCK"></i>
   <i type="logical" name="LSYMGRAD"> F  </i>
   <i type="logical" name="LHFONE"> F  </i>
   <i type="logical" name="LRHFCALC"> F  </i>
   <i type="logical" name="LTHOMAS"> F  </i>
   <i type="logical" name="LMODELHF"> F  </i>
   <i type="logical" name="LFOCKACE"> F  </i>
   <i name="ENCUT4O">     -1.00000000</i>
   <i type="int" name="EXXOEP">     0</i>
   <i type="int" name="FOURORBIT">     0</i>
   <i name="AEXX">      0.00000000</i>
   <i name="HFALPHA">      0.00000000</i>
   <i name="MCALPHA">      0.00000000</i>
   <i name="ALDAX">      1.00000000</i>
   <i name="AGGAX">      1.00000000</i>
   <i name="ALDAC">      1.00000000</i>
   <i name="AGGAC">      1.00000000</i>
   <i type="int" name="NKREDX">     1</i>
   <i type="int" name="NKREDY">     1</i>
   <i type="int" name="NKREDZ">     1</i>
   <i type="logical" name="SHIFTRED"> F  </i>
   <i type="logical" name="ODDONLY"> F  </i>
   <i type="logical" name="EVENONLY"> F  </i>
   <i type="int" name="LMAXFOCK">     0</i>
   <i type="int" name="NMAXFOCKAE">     0</i>
   <i type="logical" name="LFOCKAEDFT"> F  </i>
   <i name="HFSCREEN">      0.00000000</i>
   <i name="HFSCREENC">      0.00000000</i>
   <i type="int" name="NBANDSGWLOW">     0</i>
  </separator>
  <separator name="vdW DFT" >
   <i type="logical" name="LUSE_VDW"> F  </i>
   <i type="int" name="IVDW_NL">     1</i>
   <i type="logical" name="LSPIN_VDW"> F  </i>
   <i name="Zab_VDW">     -0.84910000</i>
   <i name="PARAM1">      0.12340000</i>
   <i name="PARAM2">      1.00000000</i>
   <i name="PARAM3">      0.00000000</i>
  </separator>
  <separator name="model GW" >
   <i type="int" name="MODEL_GW">     0</i>
   <i name="MODEL_EPS0">      5.36999215</i>
   <i name="MODEL_ALPHA">      1.00000000</i>
  </separator>
  <separator name="linear response parameters" >
   <i type="logical" name="LEPSILON"> F  </i>
   <i type="logical" name="LRPA"> F  </i>
   <i type="logical" name="LNABLA"> F  </i>
   <i type="logical" name="LVEL"> F  </i>
   <i name="CSHIFT">      0.10000000</i>
   <i name="OMEGAMAX">     -1.00000000</i>
   <i name="DEG_THRESHOLD">      0.00200000</i>
   <i name="RTIME">     -0.10000000</i>
   <i name="WPLASMAI">      0.00000000</i>
   <v name="DFIELD">      0.00000000      0.00000000      0.00000000</v>
   <v name="WPLASMA">      0.00000000      0.00000000      0.00000000      0.00000000      0.00000000      0.00000000      0.00000000      0.00000000      0.00000000</v>
  </separator>
  <separator name="orbital magnetization" >
   <i type="logical" name="NUCIND"> F  </i>
   <v name="MAGPOS">      0.00000000      0.00000000      0.00000000</v>
   <i type="logical" name="LNICSALL"> T  </i>
   <i type="logical" name="ORBITALMAG"> F  </i>
   <i type="logical" name="LMAGBLOCH"> F  </i>
   <i type="logical" name="LCHIMAG"> F  </i>
   <i type="logical" name="LGAUGE"> T  </i>
   <i type="int" name="MAGATOM">     0</i>
   <v name="MAGDIPOL">      0.00000000      0.00000000      0.00000000</v>
   <v name="AVECCONST">      0.00000000      0.00000000      0.00000000</v>
  </separator>
  <separator name="response functions" >
   <i type="logical" name="LALL_IN_ONE"> F  </i>
   <i type="int" name="IALL_IN_ONE">    -1</i>
   <i type="int" name="NBANDS_WAVE">    -1</i>
   <i type="logical" name="LFINITE_TEMPERATURE"> F  </i>
   <i type="logical" name="LADDER"> F  </i>
   <i type="logical" name="LRPAFORCE"> F  </i>
   <i type="logical" name="LFXC"> F  </i>
   <i type="logical" name="LHARTREE"> T  </i>
   <i type="int" name="IBSE">     0</i>
   <v type="int" name="KPOINT">    -1     0     0     0</v>
   <i type="logical" name="LTCTC"> F  </i>
   <i type="logical" name="LTCTE"> F  </i>
   <i type="logical" name="LTETE"> F  </i>
   <i type="logical" name="LTRIPLET"> F  </i>
   <i type="logical" name="LFXCEPS"> F  </i>
   <i type="logical" name="LFXHEG"> F  </i>
   <i type="int" name="NATURALO">     2</i>
   <i type="logical" name="LHOLEGF"> F  </i>
   <i type="logical" name="L2ORDER"> F  </i>
   <i type="logical" name="LDMP1"> F  </i>
   <i type="logical" name="LMP2LT"> F  </i>
   <i type="logical" name="LSMP2LT"> F  </i>
   <i type="logical" name="LGWLF"> F  </i>
   <i name="ENCUTGW">     -1.60000002</i>
   <i name="ENCUTGWSOFT">     -1.60000002</i>
   <i name="ENCUTLF">     -1.00000000</i>
   <i type="logical" name="LESF_SPLINES"> F  </i>
   <i type="int" name="LMAXMP2">    -1</i>
   <i name="SCISSOR">      0.00000000</i>
   <i type="int" name="NOMEGA">     0</i>
   <i type="int" name="NOMEGAR">     0</i>
   <i type="int" name="NBANDSGW">    -1</i>
   <i type="int" name="NBANDSO">    -1</i>
   <i type="int" name="NBANDSV">    -1</i>
   <i type="int" name="NELMGW">     1</i>
   <i type="int" name="NELMHF">     1</i>
   <i type="int" name="DIM">     3</i>
   <i type="int" name="IESPILON">     4</i>
   <i type="int" name="ANTIRES">     0</i>
   <i name="OMEGAMAX">    -30.00000000</i>
   <i name="OMEGAMIN">    -30.00000000</i>
   <i name="OMEGATL">   -200.00000000</i>
   <i type="int" name="OMEGAGRID">     0</i>
   <i name="CSHIFT">     -0.10000000</i>
   <i type="logical" name="LSELFENERGY"> F  </i>
   <i type="logical" name="LSPECTRAL"> F  </i>
   <i type="logical" name="LSPECTRALGW"> F  </i>
   <i type="logical" name="LSINGLES"> F  </i>
   <i type="logical" name="LFERMIGW"> F  </i>
   <i type="logical" name="ODDONLYGW"> F  </i>
   <i type="logical" name="EVENONLYGW"> F  </i>
   <i type="int" name="NKREDLFX">     1</i>
   <i type="int" name="NKREDLFY">     1</i>
   <i type="int" name="NKREDLFZ">     1</i>
   <i type="int" name="MAXMEM">  2800</i>
   <i type="int" name="TELESCOPE">     0</i>
   <i type="int" name="NTAUPAR">    -1</i>
   <i type="int" name="NOMEGAPAR">    -1</i>
   <i name="DAMP_NEWTON">      0.80000001</i>
   <i name="LAMBDA">      1.00000000</i>
  </separator>
  <separator name="External order field" >
   <i name="OFIELD_KAPPA">      0.00000000</i>
   <v name="OFIELD_K">      0.00000000      0.00000000      0.00000000</v>
   <i name="OFIELD_Q6_NEAR">      0.00000000</i>
   <i name="OFIELD_Q6_FAR">      0.00000000</i>
   <i name="OFIELD_A">      0.00000000</i>
  </separator>
  <separator name="optional k-points parameters" >
   <i type="int" name="KPOINTS_OPT_MODE">     1</i>
   <i type="logical" name="LKPOINTS_OPT"> F  </i>
  </separator>
  <separator name="solvation model" >
   <i type="logical" name="LSOL"> F  </i>
  </separator>
 </parameters>
 <atominfo>
  <atoms>     288 </atoms>
  <types>       3 </types>
  <array name="atoms" >
   <dimension dim="1">ion</dimension>
   <field type="string">element</field>
   <field type="int">atomtype</field>
   <set>
    <rc><c>P </c><c>   1</c></rc>
    <rc><c>N </c><c>   2</c></rc>
    <rc><c>N </c><c>   2</c></rc>
    <rc><c>N </c><c>   2</c></rc>
    <rc><c>N </c><c>   2</c></rc>
    <rc><c>N </c><c>   2</c></rc>
    <rc><c>N </c><c>   2</c></rc>
    <rc><c>N </c><c>   2</c></rc>
    <rc><c>N </c><c>   2</c></rc>
    <rc><c>N </c><c>   2</c></rc>
    <rc><c>N </c><c>   2</c></rc>
    <rc><c>N </c><c>   2</c></rc>
    <rc><c>N </c><c>   2</c></rc>
    <rc><c>N </c><c>   2</c></rc>
    <rc><c>N </c><c>   2</c></rc>
    <rc><c>N </c><c>   2</c></rc>
    <rc><c>N </c><c>   2</c></rc>
    <rc><c>N </c><c>   2</c></rc>
    <rc><c>N </c><c>   2</c></rc>
    <rc><c>N </c><c>   2</c></rc>
    <rc><c>N </c><c>   2</c></rc>
    <rc><c>N </c><c>   2</c></rc>
    <rc><c>N </c><c>   2</c></rc>
    <rc><c>N </c><c>   2</c></rc>
    <rc><c>N </c><c>   2</c></rc>
    <rc><c>N </c><c>   2</c></rc>
    <rc><c>N </c><c>   2</c></rc>
    <rc><c>N </c><c>   2</c></rc>
    <rc><c>N </c><c>   2</c></rc>
    <rc><c>N </c><c>   2</c></rc>
    <rc><c>N </c><c>   2</c></rc>
    <rc><c>N </c><c>   2</c></rc>
    <rc><c>N </c><c>   2</c></rc>
    <rc><c>N </c><c>   2</c></rc>
    <rc><c>N </c><c>   2</c></rc>
    <rc><c>N </c><c>   2</c></rc>
    <rc><c>N </c><c>   2</c></rc>
    <rc><c>N </c><c>   2</c></rc>
    <rc><c>N </c><c>   2</c></rc>
    <rc><c>N </c><c>   2</c></rc>
    <rc><c>N </c><c>   2</c></rc>
    <rc><c>N </c><c>   2</c></rc>
    <rc><c>N </c><c>   2</c></rc>
    <rc><c>N </c><c>   2</c></rc>
    <rc><c>N </c><c>   2</c></rc>
    <rc><c>N </c><c>   2</c></rc>
    <rc><c>N </c><c>   2</c></rc>
    <rc><c>N </c><c>   2</c></rc>
    <rc><c>N </c><c>   2</c></rc>
    <rc><c>N </c><c>   2</c></rc>
    <rc><c>N </c><c>   2</c></rc>
    <rc><c>N </c><c>   2</c></rc>
    <rc><c>N </c><c>   2</c></rc>
    <rc><c>N </c><c>   2</c></rc>
    <rc><c>N </c><c>   2</c></rc>
    <rc><c>N </c><c>   2</c></rc>
    <rc><c>N </c><c>   2</c></rc>
    <rc><c>N </c><c>   2</c></rc>
    <rc><c>N </c><c>   2</c></rc>
    <rc><c>N </c><c>   2</c></rc>
    <rc><c>N </c><c>   2</c></rc>
    <rc><c>N </c><c>   2</c></rc>
    <rc><c>N </c><c>   2</c></rc>
    <rc><c>N </c><c>   2</c></rc>
    <rc><c>N </c><c>   2</c></rc>
    <rc><c>N </c><c>   2</c></rc>
    <rc><c>N </c><c>   2</c></rc>
    <rc><c>N </c><c>   2</c></rc>
    <rc><c>N </c><c>   2</c></rc>
    <rc><c>N </c><c>   2</c></rc>
    <rc><c>N </c><c>   2</c></rc>
    <rc><c>N </c><c>   2</c></rc>
    <rc><c>N </c><c>   2</c></rc>
    <rc><c>N </c><c>   2</c></rc>
    <rc><c>N </c><c>   2</c></rc>
    <rc><c>N </c><c>   2</c></rc>
    <rc><c>N </c><c>   2</c></rc>
    <rc><c>N </c><c>   2</c></rc>
    <rc><c>N </c><c>   2</c></rc>
    <rc><c>N </c><c>   2</c></rc>
    <rc><c>N </c><c>   2</c></rc>
    <rc><c>N </c><c>   2</c></rc>
    <rc><c>N </c><c>   2</c></rc>
    <rc><c>N </c><c>   2</c></rc>
    <rc><c>N </c><c>   2</c></rc>
    <rc><c>N </c><c>   2</c></rc>
    <rc><c>N </c><c>   2</c></rc>
    <rc><c>N </c><c>   2</c></rc>
    <rc><c>N </c><c>   2</c></rc>
    <rc><c>N </c><c>   2</c></rc>
    <rc><c>N </c><c>   2</c></rc>
    <rc><c>N </c><c>   2</c></rc>
    <rc><c>N </c><c>   2</c></rc>
    <rc><c>N </c><c>   2</c></rc>
    <rc><c>N </c><c>   2</c></rc>
    <rc><c>N </c><c>   2</c></rc>
    <rc><c>N </c><c>   2</c></rc>
    <rc><c>N </c><c>   2</c></rc>
    <rc><c>N </c><c>   2</c></rc>
    <rc><c>N </c><c>   2</c></rc>
    <rc><c>N </c><c>   2</c></rc>
    <rc><c>N </c><c>   2</c></rc>
    <rc><c>N </c><c>   2</c></rc>
    <rc><c>N </c><c>   2</c></rc>
    <rc><c>N </c><c>   2</c></rc>
    <rc><c>N </c><c>   2</c></rc>
    <rc><c>N </c><c>   2</c></rc>
    <rc><c>N </c><c>   2</c></rc>
    <rc><c>N </c><c>   2</c></rc>
    <rc><c>N </c><c>   2</c></rc>
    <rc><c>N </c><c>   2</c></rc>
    <rc><c>N </c><c>   2</c></rc>
    <rc><c>N </c><c>   2</c></rc>
    <rc><c>N </c><c>   2</c></rc>
    <rc><c>N </c><c>   2</c></rc>
    <rc><c>N </c><c>   2</c></rc>
    <rc><c>N </c><c>   2</c></rc>
    <rc><c>N </c><c>   2</c></rc>
    <rc><c>N </c><c>   2</c></rc>
    <rc><c>N </c><c>   2</c></rc>
    <rc><c>N </c><c>   2</c></rc>
    <rc><c>N </c><c>   2</c></rc>
    <rc><c>N </c><c>   2</c></rc>
    <rc><c>N </c><c>   2</c></rc>
    <rc><c>N </c><c>   2</c></rc>
    <rc><c>N </c><c>   2</c></rc>
    <rc><c>N </c><c>   2</c></rc>
    <rc><c>N </c><c>   2</c></rc>
    <rc><c>N </c><c>   2</c></rc>
    <rc><c>N </c><c>   2</c></rc>
    <rc><c>N </c><c>   2</c></rc>
    <rc><c>N </c><c>   2</c></rc>
    <rc><c>N </c><c>   2</c></rc>
    <rc><c>N </c><c>   2</c></rc>
    <rc><c>N </c><c>   2</c></rc>
    <rc><c>N </c><c>   2</c></rc>
    <rc><c>N </c><c>   2</c></rc>
    <rc><c>N </c><c>   2</c></rc>
    <rc><c>N </c><c>   2</c></rc>
    <rc><c>N </c><c>   2</c></rc>
    <rc><c>N </c><c>   2</c></rc>
    <rc><c>N </c><c>   2</c></rc>
    <rc><c>N </c><c>   2</c></rc>
    <rc><c>N </c><c>   2</c></rc>
    <rc><c>N </c><c>   2</c></rc>
    <rc><c>B </c><c>   3</c></rc>
    <rc><c>B </c><c>   3</c></rc>
    <rc><c>B </c><c>   3</c></rc>
    <rc><c>B </c><c>   3</c></rc>
    <rc><c>B </c><c>   3</c></rc>
    <rc><c>B </c><c>   3</c></rc>
    <rc><c>B </c><c>   3</c></rc>
    <rc><c>B </c><c>   3</c></rc>
    <rc><c>B </c><c>   3</c></rc>
    <rc><c>B </c><c>   3</c></rc>
    <rc><c>B </c><c>   3</c></rc>
    <rc><c>B </c><c>   3</c></rc>
    <rc><c>B </c><c>   3</c></rc>
    <rc><c>B </c><c>   3</c></rc>
    <rc><c>B </c><c>   3</c></rc>
    <rc><c>B </c><c>   3</c></rc>
    <rc><c>B </c><c>   3</c></rc>
    <rc><c>B </c><c>   3</c></rc>
    <rc><c>B </c><c>   3</c></rc>
    <rc><c>B </c><c>   3</c></rc>
    <rc><c>B </c><c>   3</c></rc>
    <rc><c>B </c><c>   3</c></rc>
    <rc><c>B </c><c>   3</c></rc>
    <rc><c>B </c><c>   3</c></rc>
    <rc><c>B </c><c>   3</c></rc>
    <rc><c>B </c><c>   3</c></rc>
    <rc><c>B </c><c>   3</c></rc>
    <rc><c>B </c><c>   3</c></rc>
    <rc><c>B </c><c>   3</c></rc>
    <rc><c>B </c><c>   3</c></rc>
    <rc><c>B </c><c>   3</c></rc>
    <rc><c>B </c><c>   3</c></rc>
    <rc><c>B </c><c>   3</c></rc>
    <rc><c>B </c><c>   3</c></rc>
    <rc><c>B </c><c>   3</c></rc>
    <rc><c>B </c><c>   3</c></rc>
    <rc><c>B </c><c>   3</c></rc>
    <rc><c>B </c><c>   3</c></rc>
    <rc><c>B </c><c>   3</c></rc>
    <rc><c>B </c><c>   3</c></rc>
    <rc><c>B </c><c>   3</c></rc>
    <rc><c>B </c><c>   3</c></rc>
    <rc><c>B </c><c>   3</c></rc>
    <rc><c>B </c><c>   3</c></rc>
    <rc><c>B </c><c>   3</c></rc>
    <rc><c>B </c><c>   3</c></rc>
    <rc><c>B </c><c>   3</c></rc>
    <rc><c>B </c><c>   3</c></rc>
    <rc><c>B </c><c>   3</c></rc>
    <rc><c>B </c><c>   3</c></rc>
    <rc><c>B </c><c>   3</c></rc>
    <rc><c>B </c><c>   3</c></rc>
    <rc><c>B </c><c>   3</c></rc>
    <rc><c>B </c><c>   3</c></rc>
    <rc><c>B </c><c>   3</c></rc>
    <rc><c>B </c><c>   3</c></rc>
    <rc><c>B </c><c>   3</c></rc>
    <rc><c>B </c><c>   3</c></rc>
    <rc><c>B </c><c>   3</c></rc>
    <rc><c>B </c><c>   3</c></rc>
    <rc><c>B </c><c>   3</c></rc>
    <rc><c>B </c><c>   3</c></rc>
    <rc><c>B </c><c>   3</c></rc>
    <rc><c>B </c><c>   3</c></rc>
    <rc><c>B </c><c>   3</c></rc>
    <rc><c>B </c><c>   3</c></rc>
    <rc><c>B </c><c>   3</c></rc>
    <rc><c>B </c><c>   3</c></rc>
    <rc><c>B </c><c>   3</c></rc>
    <rc><c>B </c><c>   3</c></rc>
    <rc><c>B </c><c>   3</c></rc>
    <rc><c>B </c><c>   3</c></rc>
    <rc><c>B </c><c>   3</c></rc>
    <rc><c>B </c><c>   3</c></rc>
    <rc><c>B </c><c>   3</c></rc>
    <rc><c>B </c><c>   3</c></rc>
    <rc><c>B </c><c>   3</c></rc>
    <rc><c>B </c><c>   3</c></rc>
    <rc><c>B </c><c>   3</c></rc>
    <rc><c>B </c><c>   3</c></rc>
    <rc><c>B </c><c>   3</c></rc>
    <rc><c>B </c><c>   3</c></rc>
    <rc><c>B </c><c>   3</c></rc>
    <rc><c>B </c><c>   3</c></rc>
    <rc><c>B </c><c>   3</c></rc>
    <rc><c>B </c><c>   3</c></rc>
    <rc><c>B </c><c>   3</c></rc>
    <rc><c>B </c><c>   3</c></rc>
    <rc><c>B </c><c>   3</c></rc>
    <rc><c>B </c><c>   3</c></rc>
    <rc><c>B </c><c>   3</c></rc>
    <rc><c>B </c><c>   3</c></rc>
    <rc><c>B </c><c>   3</c></rc>
    <rc><c>B </c><c>   3</c></rc>
    <rc><c>B </c><c>   3</c></rc>
    <rc><c>B </c><c>   3</c></rc>
    <rc><c>B </c><c>   3</c></rc>
    <rc><c>B </c><c>   3</c></rc>
    <rc><c>B </c><c>   3</c></rc>
    <rc><c>B </c><c>   3</c></rc>
    <rc><c>B </c><c>   3</c></rc>
    <rc><c>B </c><c>   3</c></rc>
    <rc><c>B </c><c>   3</c></rc>
    <rc><c>B </c><c>   3</c></rc>
    <rc><c>B </c><c>   3</c></rc>
    <rc><c>B </c><c>   3</c></rc>
    <rc><c>B </c><c>   3</c></rc>
    <rc><c>B </c><c>   3</c></rc>
    <rc><c>B </c><c>   3</c></rc>
    <rc><c>B </c><c>   3</c></rc>
    <rc><c>B </c><c>   3</c></rc>
    <rc><c>B </c><c>   3</c></rc>
    <rc><c>B </c><c>   3</c></rc>
    <rc><c>B </c><c>   3</c></rc>
    <rc><c>B </c><c>   3</c></rc>
    <rc><c>B </c><c>   3</c></rc>
    <rc><c>B </c><c>   3</c></rc>
    <rc><c>B </c><c>   3</c></rc>
    <rc><c>B </c><c>   3</c></rc>
    <rc><c>B </c><c>   3</c></rc>
    <rc><c>B </c><c>   3</c></rc>
    <rc><c>B </c><c>   3</c></rc>
    <rc><c>B </c><c>   3</c></rc>
    <rc><c>B </c><c>   3</c></rc>
    <rc><c>B </c><c>   3</c></rc>
    <rc><c>B </c><c>   3</c></rc>
    <rc><c>B </c><c>   3</c></rc>
    <rc><c>B </c><c>   3</c></rc>
    <rc><c>B </c><c>   3</c></rc>
    <rc><c>B </c><c>   3</c></rc>
    <rc><c>B </c><c>   3</c></rc>
    <rc><c>B </c><c>   3</c></rc>
    <rc><c>B </c><c>   3</c></rc>
    <rc><c>B </c><c>   3</c></rc>
    <rc><c>B </c><c>   3</c></rc>
    <rc><c>B </c><c>   3</c></rc>
    <rc><c>B </c><c>   3</c></rc>
    <rc><c>B </c><c>   3</c></rc>
    <rc><c>B </c><c>   3</c></rc>
    <rc><c>B </c><c>   3</c></rc>
    <rc><c>B </c><c>   3</c></rc>
    <rc><c>B </c><c>   3</c></rc>
    <rc><c>B </c><c>   3</c></rc>
   </set>
  </array>
  <array name="atomtypes" >
   <dimension dim="1">type</dimension>
   <field type="int">atomspertype</field>
   <field type="string">element</field>
   <field>mass</field>
   <field>valence</field>
   <field type="string">pseudopotential</field>
   <set>
    <rc><c>   1</c><c>P </c><c>     30.97400000</c><c>      5.00000000</c><c>  PAW_PBE P 06Sep2000                   </c></rc>
    <rc><c> 144</c><c>N </c><c>     14.00100000</c><c>      5.00000000</c><c>  PAW_PBE N 08Apr2002                   </c></rc>
    <rc><c> 143</c><c>B </c><c>     10.81100000</c><c>      3.00000000</c><c>  PAW_PBE B 06Sep2000                   </c></rc>
   </set>
  </array>
 </atominfo>
 <structure name="initialpos" >
  <crystal>
   <varray name="basis" >
    <v>      14.93631415       0.00000000       0.00000000 </v>
    <v>      -7.46815707      12.93522749      -0.00000000 </v>
    <v>       0.00000000       0.00000000      13.34127628 </v>
   </varray>
   <i name="volume">   2577.59623255 </i>
   <varray name="rec_basis" >
    <v>       0.06695092       0.03865413      -0.00000000 </v>
    <v>       0.00000000       0.07730827      -0.00000000 </v>
    <v>       0.00000000       0.00000000       0.07495535 </v>
   </varray>
  </crystal>
  <varray name="positions" >
   <v>       0.44444444       0.38888889       0.37500000 </v>
   <v>       0.11110578       0.05553988       0.12514209 </v>
   <v>       0.61111893       0.55556454       0.12533815 </v>
   <v>       0.44443410       0.05553988       0.12514209 </v>
   <v>       0.94445577       0.55556472       0.12511237 </v>
   <v>       0.77777778       0.05555556       0.12508750 </v>
   <v>       0.11111111       0.72222222       0.62490204 </v>
   <v>       0.44443410       0.72222755       0.62485791 </v>
   <v>       0.27776879       0.22221440       0.62466185 </v>
   <v>       0.77779345       0.72222755       0.62485791 </v>
   <v>       0.61111409       0.22221925       0.62484996 </v>
   <v>       0.94444599       0.22222938       0.62490241 </v>
   <v>       0.27776861       0.72222439       0.12511237 </v>
   <v>       0.11110516       0.22221925       0.12515004 </v>
   <v>       0.44444561       0.22221440       0.12533815 </v>
   <v>       0.61111409       0.72222817       0.12515004 </v>
   <v>       0.94445577       0.72222439       0.12511237 </v>
   <v>       0.77778339       0.22222938       0.12509759 </v>
   <v>       0.11110895       0.88887756       0.62488763 </v>
   <v>       0.44443273       0.88888303       0.62489877 </v>
   <v>       0.27776879       0.38888773       0.62466185 </v>
   <v>       0.61111893       0.38888773       0.62466185 </v>
   <v>       0.77778339       0.88888734       0.62490241 </v>
   <v>       0.94445030       0.38890061       0.62489877 </v>
   <v>       0.11110578       0.38889924       0.12514209 </v>
   <v>       0.27776861       0.88887756       0.12511237 </v>
   <v>       0.61110395       0.88888734       0.12509759 </v>
   <v>       0.44444444       0.38888889       0.12572567 </v>
   <v>       0.94445030       0.88888303       0.12510123 </v>
   <v>       0.77779345       0.38889924       0.12514209 </v>
   <v>       0.27776995       0.55556338       0.62481384 </v>
   <v>       0.11110578       0.05553988       0.62485791 </v>
   <v>       0.61111893       0.55556454       0.62466185 </v>
   <v>       0.44443410       0.05553988       0.62485791 </v>
   <v>       0.94445577       0.55556472       0.62488763 </v>
   <v>       0.11110895       0.55556472       0.12511237 </v>
   <v>       0.77777778       0.05555556       0.62491250 </v>
   <v>       0.27776995       0.05553990       0.12518616 </v>
   <v>       0.44444561       0.55556454       0.12533815 </v>
   <v>       0.77779343       0.55556338       0.12518616 </v>
   <v>       0.61110395       0.05554994       0.12509759 </v>
   <v>       0.44444561       0.55556454       0.62466185 </v>
   <v>       0.94444599       0.05554994       0.12509759 </v>
   <v>       0.27776861       0.72222439       0.62488763 </v>
   <v>       0.11110516       0.22221925       0.62484996 </v>
   <v>       0.44444561       0.22221440       0.62466185 </v>
   <v>       0.61111409       0.72222817       0.62484996 </v>
   <v>       0.94445577       0.72222439       0.62488763 </v>
   <v>       0.77778339       0.22222938       0.62490241 </v>
   <v>       0.11111111       0.72222222       0.12509796 </v>
   <v>       0.44443410       0.72222755       0.12514209 </v>
   <v>       0.27776879       0.22221440       0.12533815 </v>
   <v>       0.77779345       0.72222755       0.12514209 </v>
   <v>       0.61111409       0.22221925       0.12515004 </v>
   <v>       0.94444599       0.22222938       0.12509759 </v>
   <v>       0.11110578       0.38889924       0.62485791 </v>
   <v>       0.27776861       0.88887756       0.62488763 </v>
   <v>       0.61110395       0.88888734       0.62490241 </v>
   <v>       0.44444444       0.38888889       0.62427433 </v>
   <v>       0.94445030       0.88888303       0.62489877 </v>
   <v>       0.11110895       0.88887756       0.12511237 </v>
   <v>       0.77779345       0.38889924       0.62485791 </v>
   <v>       0.44443273       0.88888303       0.12510123 </v>
   <v>       0.27776879       0.38888773       0.12533815 </v>
   <v>       0.27776995       0.55556338       0.12518616 </v>
   <v>       0.61111893       0.38888773       0.12533815 </v>
   <v>       0.77778339       0.88888734       0.12509759 </v>
   <v>       0.94445030       0.38890061       0.12510123 </v>
   <v>       0.11110895       0.55556472       0.62488763 </v>
   <v>       0.27776995       0.05553990       0.62481384 </v>
   <v>       0.77779343       0.55556338       0.62481384 </v>
   <v>       0.61110395       0.05554994       0.62490241 </v>
   <v>       0.94444599       0.05554994       0.62490241 </v>
   <v>       0.05492459       0.11067225       0.37500000 </v>
   <v>       0.55597948       0.61195895       0.37500000 </v>
   <v>       0.38821178       0.10798614       0.37500000 </v>
   <v>       0.88997050       0.61165191       0.37500000 </v>
   <v>       0.72233166       0.11100168       0.37500000 </v>
   <v>       0.05555347       0.77777986       0.87500000 </v>
   <v>       0.38889499       0.77778040       0.87500000 </v>
   <v>       0.22222211       0.27777772       0.87500000 </v>
   <v>       0.72222208       0.77778036       0.87500000 </v>
   <v>       0.55555561       0.27777772       0.87500000 </v>
   <v>       0.88888780       0.27777560       0.87500000 </v>
   <v>       0.22203010       0.77768172       0.37500000 </v>
   <v>       0.05492459       0.27758567       0.37500000 </v>
   <v>       0.38321436       0.26642872       0.37500000 </v>
   <v>       0.55574766       0.77840874       0.37500000 </v>
   <v>       0.88973042       0.77847773       0.37500000 </v>
   <v>       0.72266108       0.27758567       0.37500000 </v>
   <v>       0.05555294       0.94444793       0.87500000 </v>
   <v>       0.38889499       0.94444793       0.87500000 </v>
   <v>       0.22222295       0.44443974       0.87500000 </v>
   <v>       0.55555250       0.44444291       0.87500000 </v>
   <v>       0.72222259       0.94444517       0.87500000 </v>
   <v>       0.88888540       0.44443834       0.87500000 </v>
   <v>       0.05485561       0.44458602       0.37500000 </v>
   <v>       0.22168142       0.94336284       0.37500000 </v>
   <v>       0.55571596       0.94452465       0.37500000 </v>
   <v>       0.38321436       0.45011897       0.37500000 </v>
   <v>       0.88880868       0.94452465       0.37500000 </v>
   <v>       0.72534720       0.44512155       0.37500000 </v>
   <v>       0.22222502       0.61110832       0.87500000 </v>
   <v>       0.05555297       0.11111126       0.87500000 </v>
   <v>       0.55555561       0.61111123       0.87500000 </v>
   <v>       0.38889360       0.11111654       0.87500000 </v>
   <v>       0.88888330       0.61110832       0.87500000 </v>
   <v>       0.05565162       0.61130323       0.37500000 </v>
   <v>       0.72222259       0.11111075       0.87500000 </v>
   <v>       0.21977436       0.10798614       0.37500000 </v>
   <v>       0.38821178       0.61355898       0.37500000 </v>
   <v>       0.72534720       0.61355898       0.37500000 </v>
   <v>       0.55574766       0.11067225       0.37500000 </v>
   <v>       0.38889360       0.61111039       0.87500000 </v>
   <v>       0.88867002       0.11100168       0.37500000 </v>
   <v>       0.22222639       0.77777986       0.87500000 </v>
   <v>       0.05555297       0.27777505       0.87500000 </v>
   <v>       0.38889042       0.27778084       0.87500000 </v>
   <v>       0.55555829       0.77778036       0.87500000 </v>
   <v>       0.88888540       0.77778040       0.87500000 </v>
   <v>       0.72222208       0.27777505       0.87500000 </v>
   <v>       0.05565162       0.77768172       0.37500000 </v>
   <v>       0.38874731       0.77847773       0.37500000 </v>
   <v>       0.22137438       0.27735386       0.37500000 </v>
   <v>       0.72266108       0.77840874       0.37500000 </v>
   <v>       0.55597948       0.27735386       0.37500000 </v>
   <v>       0.88880868       0.27761737       0.37500000 </v>
   <v>       0.05555294       0.44443834       0.87500000 </v>
   <v>       0.22222502       0.94445003       0.87500000 </v>
   <v>       0.55555773       0.94444553       0.87500000 </v>
   <v>       0.38889042       0.44444291       0.87500000 </v>
   <v>       0.88888780       0.94444553       0.87500000 </v>
   <v>       0.05485561       0.94360291       0.37500000 </v>
   <v>       0.72221679       0.44443974       0.87500000 </v>
   <v>       0.38874731       0.94360291       0.37500000 </v>
   <v>       0.21977436       0.44512155       0.37500000 </v>
   <v>       0.22168142       0.61165191       0.37500000 </v>
   <v>       0.56690462       0.45011897       0.37500000 </v>
   <v>       0.72233166       0.94466331       0.37500000 </v>
   <v>       0.88973042       0.44458602       0.37500000 </v>
   <v>       0.05555347       0.61110694       0.87500000 </v>
   <v>       0.22222295       0.11111654       0.87500000 </v>
   <v>       0.72221679       0.61111039       0.87500000 </v>
   <v>       0.55555829       0.11111126       0.87500000 </v>
   <v>       0.88888816       0.11111075       0.87500000 </v>
   <v>       0.10888702       0.05363429       0.37500000 </v>
   <v>       0.61662821       0.56151023       0.37500000 </v>
   <v>       0.44474727       0.05363429       0.37500000 </v>
   <v>       0.94505350       0.55569452       0.37500000 </v>
   <v>       0.77777778       0.05555556       0.37500000 </v>
   <v>       0.11111111       0.72222222       0.87500000 </v>
   <v>       0.44445789       0.72225917       0.87500000 </v>
   <v>       0.27773656       0.22218886       0.87500000 </v>
   <v>       0.77780129       0.72225917       0.87500000 </v>
   <v>       0.61113701       0.22219632       0.87500000 </v>
   <v>       0.94391959       0.22220602       0.87450068 </v>
   <v>       0.27763881       0.72269232       0.37500000 </v>
   <v>       0.10939752       0.22136543       0.37500000 </v>
   <v>       0.44488202       0.21670513       0.37500000 </v>
   <v>       0.61196791       0.72393582       0.37500000 </v>
   <v>       0.94505350       0.72269232       0.37500000 </v>
   <v>       0.77798832       0.22181380       0.37500000 </v>
   <v>       0.11109976       0.88887925       0.87500000 </v>
   <v>       0.44445802       0.88889568       0.87500000 </v>
   <v>       0.27773656       0.38888103       0.87500000 </v>
   <v>       0.61114447       0.38888103       0.87500000 </v>
   <v>       0.77778711       0.88891442       0.87500000 </v>
   <v>       0.94443766       0.38887531       0.87500000 </v>
   <v>       0.10888702       0.38858606       0.37500000 </v>
   <v>       0.27763881       0.88827983       0.37500000 </v>
   <v>       0.61151953       0.88950785       0.37500000 </v>
   <v>       0.94428960       0.88904373       0.37500000 </v>
   <v>       0.77969904       0.38858606       0.37500000 </v>
   <v>       0.27776270       0.55557063       0.87500000 </v>
   <v>       0.11107416       0.05553205       0.87500000 </v>
   <v>       0.61114447       0.55559678       0.87500000 </v>
   <v>       0.44445789       0.05553205       0.87500000 </v>
   <v>       0.94445408       0.55555385       0.87500000 </v>
   <v>       0.11064101       0.55569452       0.37500000 </v>
   <v>       0.77777778       0.05555556       0.87500000 </v>
   <v>       0.27665444       0.05330889       0.37500000 </v>
   <v>       0.44488202       0.56151023       0.37500000 </v>
   <v>       0.78002445       0.55667889       0.37500000 </v>
   <v>       0.61151953       0.05534502       0.37500000 </v>
   <v>       0.44445231       0.55559678       0.87500000 </v>
   <v>       0.94382548       0.05534502       0.37500000 </v>
   <v>       0.27777949       0.72223357       0.87500000 </v>
   <v>       0.11105932       0.22219632       0.87500000 </v>
   <v>       0.44445231       0.22218886       0.87500000 </v>
   <v>       0.61113701       0.72227402       0.87500000 </v>
   <v>       0.94445408       0.72223357       0.87500000 </v>
   <v>       0.77778711       0.22220602       0.87500000 </v>
   <v>       0.11111111       0.72222222       0.37500000 </v>
   <v>       0.44474727       0.72444631       0.37500000 </v>
   <v>       0.27182310       0.21670513       0.37500000 </v>
   <v>       0.77969904       0.72444631       0.37500000 </v>
   <v>       0.61196791       0.22136543       0.37500000 </v>
   <v>       0.94382548       0.22181380       0.37500000 </v>
   <v>       0.11107416       0.38887545       0.87500000 </v>
   <v>       0.27777949       0.88887925       0.87500000 </v>
   <v>       0.61112731       0.88891442       0.87500000 </v>
   <v>       0.44444444       0.38888889       0.87500000 </v>
   <v>       0.94443766       0.88889568       0.87500000 </v>
   <v>       0.11064101       0.88827983       0.37500000 </v>
   <v>       0.77780129       0.38887545       0.87500000 </v>
   <v>       0.44475413       0.88904373       0.37500000 </v>
   <v>       0.27182310       0.38845131       0.37500000 </v>
   <v>       0.27665444       0.55667889       0.37500000 </v>
   <v>       0.61662821       0.38845131       0.37500000 </v>
   <v>       0.77798832       0.88950785       0.37500000 </v>
   <v>       0.94428960       0.38857921       0.37500000 </v>
   <v>       0.11109976       0.55555385       0.87500000 </v>
   <v>       0.27776270       0.05552540       0.87500000 </v>
   <v>       0.77780793       0.55557063       0.87500000 </v>
   <v>       0.61112731       0.05554622       0.87500000 </v>
   <v>       0.94441891       0.05554622       0.87500000 </v>
   <v>       0.05546928       0.11103632       0.12487403 </v>
   <v>       0.55563492       0.61126984       0.12476730 </v>
   <v>       0.38882801       0.11092619       0.12483104 </v>
   <v>       0.88900701       0.61117017       0.12488859 </v>
   <v>       0.72223458       0.11109875       0.12491481 </v>
   <v>       0.05557215       0.77776118       0.62509033 </v>
   <v>       0.38885004       0.77781495       0.62510653 </v>
   <v>       0.22206349       0.27769841       0.62523270 </v>
   <v>       0.72229702       0.77786405       0.62512597 </v>
   <v>       0.55563492       0.27769841       0.62523270 </v>
   <v>       0.88889259       0.27778519       0.62508998 </v>
   <v>       0.22218903       0.77776118       0.12490967 </v>
   <v>       0.05546928       0.27776630       0.12487403 </v>
   <v>       0.38878395       0.27756790       0.12459556 </v>
   <v>       0.55556704       0.77786405       0.12487403 </v>
   <v>       0.88896491       0.77781495       0.12489347 </v>
   <v>       0.72229702       0.27776630       0.12487403 </v>
   <v>       0.05551838       0.94436842       0.62510653 </v>
   <v>       0.38885004       0.94436842       0.62510653 </v>
   <v>       0.22209818       0.44450532       0.62516896 </v>
   <v>       0.55576543       0.44454938       0.62540444 </v>
   <v>       0.72223458       0.94446917       0.62508519 </v>
   <v>       0.88896491       0.44448330       0.62510653 </v>
   <v>       0.05551838       0.44448330       0.12489347 </v>
   <v>       0.22216316       0.94432633       0.12488859 </v>
   <v>       0.55554814       0.94444074       0.12491002 </v>
   <v>       0.38878395       0.44454938       0.12459556 </v>
   <v>       0.88889259       0.94444074       0.12491002 </v>
   <v>       0.72240714       0.44450532       0.12483104 </v>
   <v>       0.22216316       0.61117017       0.62511141 </v>
   <v>       0.05546928       0.11103632       0.62512597 </v>
   <v>       0.55563492       0.61126984       0.62523270 </v>
   <v>       0.38882801       0.11092619       0.62516896 </v>
   <v>       0.88900701       0.61117017       0.62511141 </v>
   <v>       0.05557215       0.61114430       0.12490967 </v>
   <v>       0.72223458       0.11109875       0.62508519 </v>
   <v>       0.22209818       0.11092619       0.12483104 </v>
   <v>       0.38882801       0.61123515       0.12483104 </v>
   <v>       0.72240714       0.61123515       0.12483104 </v>
   <v>       0.55556704       0.11103632       0.12487403 </v>
   <v>       0.38882801       0.61123515       0.62516896 </v>
   <v>       0.88886417       0.11109875       0.12491481 </v>
   <v>       0.22218903       0.77776118       0.62509033 </v>
   <v>       0.05546928       0.27776630       0.62512597 </v>
   <v>       0.38878395       0.27756790       0.62540444 </v>
   <v>       0.55556704       0.77786405       0.62512597 </v>
   <v>       0.88896491       0.77781495       0.62510653 </v>
   <v>       0.72229702       0.27776630       0.62512597 </v>
   <v>       0.05557215       0.77776118       0.12490967 </v>
   <v>       0.38885004       0.77781495       0.12489347 </v>
   <v>       0.22206349       0.27769841       0.12476730 </v>
   <v>       0.72229702       0.77786405       0.12487403 </v>
   <v>       0.55563492       0.27769841       0.12476730 </v>
   <v>       0.88889259       0.27778519       0.12491002 </v>
   <v>       0.05551838       0.44448330       0.62510653 </v>
   <v>       0.22216316       0.94432633       0.62511141 </v>
   <v>       0.55554814       0.94444074       0.62508998 </v>
   <v>       0.38878395       0.44454938       0.62540444 </v>
   <v>       0.88889259       0.94444074       0.62508998 </v>
   <v>       0.05551838       0.94436842       0.12489347 </v>
   <v>       0.72240714       0.44450532       0.62516896 </v>
   <v>       0.38885004       0.94436842       0.12489347 </v>
   <v>       0.22209818       0.44450532       0.12483104 </v>
   <v>       0.22216316       0.61117017       0.12488859 </v>
   <v>       0.55576543       0.44454938       0.12459556 </v>
   <v>       0.72223458       0.94446917       0.12491481 </v>
   <v>       0.88896491       0.44448330       0.12489347 </v>
   <v>       0.05557215       0.61114430       0.62509033 </v>
   <v>       0.22209818       0.11092619       0.62516896 </v>
   <v>       0.72240714       0.61123515       0.62516896 </v>
   <v>       0.55556704       0.11103632       0.62512597 </v>
   <v>       0.88886417       0.11109875       0.62508519 </v>
  </varray>
 </structure>
 <calculation>
  <scstep>
   <time name="dav">    8.27    8.27</time>
   <time name="total">    8.49    8.49</time>
   <energy>
    <i name="alphaZ">   2866.36594071 </i>
    <i name="ewald"> -35860.83455842 </i>
    <i name="hartreedc"> -13235.40621228 </i>
    <i name="XCdc">   3913.00026954 </i>
    <i name="pawpsdc">  35870.55371313 </i>
    <i name="pawaedc"> -35911.58316637 </i>
    <i name="eentropy">     -0.04279624 </i>
    <i name="bandstr">     62.64206404 </i>
    <i name="atom">  48446.24376545 </i>
    <i name="e_fr_energy">   6150.93901956 </i>
    <i name="e_wo_entrp">   6150.98181580 </i>
    <i name="e_0_energy">   6150.96041768 </i>
   </energy>
  </scstep>
  <scstep>
   <time name="dav">    9.68    9.68</time>
   <time name="total">    9.69    9.69</time>
   <energy>
    <i name="e_fr_energy">  -2175.98478742 </i>
    <i name="e_wo_entrp">  -2175.96849321 </i>
    <i name="e_0_energy">  -2175.97664032 </i>
   </energy>
  </scstep>
  <scstep>
   <time name="dav">    9.20    9.20</time>
   <time name="total">    9.22    9.21</time>
   <energy>
    <i name="e_fr_energy">  -2778.35818679 </i>
    <i name="e_wo_entrp">  -2778.34591898 </i>
    <i name="e_0_energy">  -2778.35205288 </i>
   </energy>
  </scstep>
  <scstep>
   <time name="dav">    9.19    9.19</time>
   <time name="total">    9.20    9.20</time>
   <energy>
    <i name="e_fr_energy">  -2792.06936091 </i>
    <i name="e_wo_entrp">  -2792.05884679 </i>
    <i name="e_0_energy">  -2792.06410385 </i>
   </energy>
  </scstep>
  <scstep>
   <time name="dav">    9.16    9.16</time>
   <time name="total">    9.42    9.42</time>
   <energy>
    <i name="e_fr_energy">  -2792.43944791 </i>
    <i name="e_wo_entrp">  -2792.42900548 </i>
    <i name="e_0_energy">  -2792.43422669 </i>
   </energy>
  </scstep>
  <scstep>
   <time name="diag">    0.64    0.64</time>
   <time name="diis">    5.01    5.01</time>
   <time name="orth">    0.27    0.27</time>
   <time name="total">    6.37    6.37</time>
   <energy>
    <i name="e_fr_energy">  -2547.78480495 </i>
    <i name="e_wo_entrp">  -2547.78480495 </i>
    <i name="e_0_energy">  -2547.78480495 </i>
   </energy>
  </scstep>
  <scstep>
   <time name="diag">    0.63    0.63</time>
   <time name="diis">    5.21    5.20</time>
   <time name="orth">    0.27    0.27</time>
   <time name="total">    6.56    6.55</time>
   <energy>
    <i name="e_fr_energy">  -2533.08054547 </i>
    <i name="e_wo_entrp">  -2533.08054547 </i>
    <i name="e_0_energy">  -2533.08054547 </i>
   </energy>
  </scstep>
  <scstep>
   <time name="diag">    0.68    0.67</time>
   <time name="diis">    5.24    5.23</time>
   <time name="orth">    0.27    0.27</time>
   <time name="total">    6.63    6.63</time>
   <energy>
    <i name="e_fr_energy">  -2530.01735661 </i>
    <i name="e_wo_entrp">  -2530.01735661 </i>
    <i name="e_0_energy">  -2530.01735661 </i>
   </energy>
  </scstep>
  <scstep>
   <time name="diag">    0.64    0.64</time>
   <time name="diis">    5.37    5.37</time>
   <time name="orth">    0.27    0.27</time>
   <time name="total">    6.72    6.72</time>
   <energy>
    <i name="e_fr_energy">  -2526.13021895 </i>
    <i name="e_wo_entrp">  -2526.13021895 </i>
    <i name="e_0_energy">  -2526.13021895 </i>
   </energy>
  </scstep>
  <scstep>
   <time name="diag">    0.65    0.65</time>
   <time name="diis">    5.56    5.55</time>
   <time name="orth">    0.27    0.27</time>
   <time name="total">    6.94    6.94</time>
   <energy>
    <i name="e_fr_energy">  -2526.20269845 </i>
    <i name="e_wo_entrp">  -2526.20269845 </i>
    <i name="e_0_energy">  -2526.20269845 </i>
   </energy>
  </scstep>
  <scstep>
   <time name="diag">    0.63    0.63</time>
   <time name="diis">    5.57    5.56</time>
   <time name="orth">    0.27    0.27</time>
   <time name="total">    6.95    6.94</time>
   <energy>
    <i name="e_fr_energy">  -2526.22437913 </i>
    <i name="e_wo_entrp">  -2526.22437913 </i>
    <i name="e_0_energy">  -2526.22437913 </i>
   </energy>
  </scstep>
  <scstep>
   <time name="diag">    0.64    0.64</time>
   <time name="diis">    5.59    5.58</time>
   <time name="orth">    0.27    0.27</time>
   <time name="total">    6.95    6.94</time>
   <energy>
    <i name="e_fr_energy">  -2526.19706481 </i>
    <i name="e_wo_entrp">  -2526.19706481 </i>
    <i name="e_0_energy">  -2526.19706481 </i>
   </energy>
  </scstep>
  <scstep>
   <time name="diag">    0.63    0.63</time>
   <time name="diis">    5.72    5.71</time>
   <time name="orth">    0.28    0.28</time>
   <time name="total">    7.10    7.09</time>
   <energy>
    <i name="e_fr_energy">  -2526.19597269 </i>
    <i name="e_wo_entrp">  -2526.19597269 </i>
    <i name="e_0_energy">  -2526.19597269 </i>
   </energy>
  </scstep>
  <scstep>
   <time name="diag">    0.64    0.64</time>
   <time name="diis">    5.89    5.89</time>
   <time name="orth">    0.27    0.27</time>
   <time name="total">    7.25    7.24</time>
   <energy>
    <i name="e_fr_energy">  -2526.19625040 </i>
    <i name="e_wo_entrp">  -2526.19625040 </i>
    <i name="e_0_energy">  -2526.19625040 </i>
   </energy>
  </scstep>
  <scstep>
   <time name="diag">    0.63    0.63</time>
   <time name="diis">    5.94    5.94</time>
   <time name="orth">    0.27    0.27</time>
   <time name="total">    7.31    7.31</time>
   <energy>
    <i name="e_fr_energy">  -2526.19633651 </i>
    <i name="e_wo_entrp">  -2526.19633651 </i>
    <i name="e_0_energy">  -2526.19633651 </i>
   </energy>
  </scstep>
  <scstep>
   <time name="diag">    0.65    0.65</time>
   <time name="diis">    5.88    5.87</time>
   <time name="orth">    0.27    0.27</time>
   <time name="total">    7.25    7.25</time>
   <energy>
    <i name="e_fr_energy">  -2526.19630674 </i>
    <i name="e_wo_entrp">  -2526.19630674 </i>
    <i name="e_0_energy">  -2526.19630674 </i>
   </energy>
  </scstep>
  <scstep>
   <time name="diag">    0.63    0.63</time>
   <time name="diis">    5.80    5.80</time>
   <time name="orth">    0.27    0.27</time>
   <time name="total">    7.16    7.15</time>
   <energy>
    <i name="e_fr_energy">  -2526.19629848 </i>
    <i name="e_wo_entrp">  -2526.19629848 </i>
    <i name="e_0_energy">  -2526.19629848 </i>
   </energy>
  </scstep>
  <scstep>
   <time name="diag">    0.63    0.63</time>
   <time name="diis">    5.57    5.57</time>
   <time name="orth">    0.28    0.28</time>
   <time name="total">    6.92    6.92</time>
   <energy>
    <i name="e_fr_energy">  -2526.19629884 </i>
    <i name="e_wo_entrp">  -2526.19629884 </i>
    <i name="e_0_energy">  -2526.19629884 </i>
   </energy>
  </scstep>
  <scstep>
   <time name="diag">    0.63    0.63</time>
   <time name="diis">    4.48    4.47</time>
   <time name="orth">    0.28    0.28</time>
   <time name="total">    5.60    5.60</time>
   <energy>
    <i name="alphaZ">   2866.36594071 </i>
    <i name="ewald"> -35860.83455842 </i>
    <i name="hartreedc"> -16414.54007505 </i>
    <i name="XCdc">   4103.41353512 </i>
    <i name="pawpsdc"> 140224.89548783 </i>
    <i name="pawaedc">-140325.47399346 </i>
    <i name="eentropy">     -0.00000000 </i>
    <i name="bandstr">  -5566.26640067 </i>
    <i name="atom">  48446.24376545 </i>
    <i name="e_fr_energy">  -2526.19629849 </i>
    <i name="e_wo_entrp">  -2526.19629849 </i>
    <i name="e_0_energy">  -2526.19629849 </i>
   </energy>
  </scstep>
  <structure>
   <crystal>
    <varray name="basis" >
     <v>      14.93631415       0.00000000       0.00000000 </v>
     <v>      -7.46815707      12.93522749      -0.00000000 </v>
     <v>       0.00000000       0.00000000      13.34127628 </v>
    </varray>
    <i name="volume">   2577.59623255 </i>
    <varray name="rec_basis" >
     <v>       0.06695092       0.03865413      -0.00000000 </v>
     <v>       0.00000000       0.07730827      -0.00000000 </v>
     <v>       0.00000000       0.00000000       0.07495535 </v>
    </varray>
   </crystal>
   <varray name="positions" >
    <v>       0.44444444       0.38888889       0.37500000 </v>
    <v>       0.11110578       0.05553988       0.12514209 </v>
    <v>       0.61111893       0.55556454       0.12533815 </v>
    <v>       0.44443410       0.05553988       0.12514209 </v>
    <v>       0.94445577       0.55556472       0.12511237 </v>
    <v>       0.77777778       0.05555556       0.12508750 </v>
    <v>       0.11111111       0.72222222       0.62490204 </v>
    <v>       0.44443410       0.72222755       0.62485791 </v>
    <v>       0.27776879       0.22221440       0.62466185 </v>
    <v>       0.77779345       0.72222755       0.62485791 </v>
    <v>       0.61111409       0.22221925       0.62484996 </v>
    <v>       0.94444599       0.22222938       0.62490241 </v>
    <v>       0.27776861       0.72222439       0.12511237 </v>
    <v>       0.11110516       0.22221925       0.12515004 </v>
    <v>       0.44444561       0.22221440       0.12533815 </v>
    <v>       0.61111409       0.72222817       0.12515004 </v>
    <v>       0.94445577       0.72222439       0.12511237 </v>
    <v>       0.77778339       0.22222938       0.12509759 </v>
    <v>       0.11110895       0.88887756       0.62488763 </v>
    <v>       0.44443273       0.88888303       0.62489877 </v>
    <v>       0.27776879       0.38888773       0.62466185 </v>
    <v>       0.61111893       0.38888773       0.62466185 </v>
    <v>       0.77778339       0.88888734       0.62490241 </v>
    <v>       0.94445030       0.38890061       0.62489877 </v>
    <v>       0.11110578       0.38889924       0.12514209 </v>
    <v>       0.27776861       0.88887756       0.12511237 </v>
    <v>       0.61110395       0.88888734       0.12509759 </v>
    <v>       0.44444444       0.38888889       0.12572567 </v>
    <v>       0.94445030       0.88888303       0.12510123 </v>
    <v>       0.77779345       0.38889924       0.12514209 </v>
    <v>       0.27776995       0.55556338       0.62481384 </v>
    <v>       0.11110578       0.05553988       0.62485791 </v>
    <v>       0.61111893       0.55556454       0.62466185 </v>
    <v>       0.44443410       0.05553988       0.62485791 </v>
    <v>       0.94445577       0.55556472       0.62488763 </v>
    <v>       0.11110895       0.55556472       0.12511237 </v>
    <v>       0.77777778       0.05555556       0.62491250 </v>
    <v>       0.27776995       0.05553990       0.12518616 </v>
    <v>       0.44444561       0.55556454       0.12533815 </v>
    <v>       0.77779343       0.55556338       0.12518616 </v>
    <v>       0.61110395       0.05554994       0.12509759 </v>
    <v>       0.44444561       0.55556454       0.62466185 </v>
    <v>       0.94444599       0.05554994       0.12509759 </v>
    <v>       0.27776861       0.72222439       0.62488763 </v>
    <v>       0.11110516       0.22221925       0.62484996 </v>
    <v>       0.44444561       0.22221440       0.62466185 </v>
    <v>       0.61111409       0.72222817       0.62484996 </v>
    <v>       0.94445577       0.72222439       0.62488763 </v>
    <v>       0.77778339       0.22222938       0.62490241 </v>
    <v>       0.11111111       0.72222222       0.12509796 </v>
    <v>       0.44443410       0.72222755       0.12514209 </v>
    <v>       0.27776879       0.22221440       0.12533815 </v>
    <v>       0.77779345       0.72222755       0.12514209 </v>
    <v>       0.61111409       0.22221925       0.12515004 </v>
    <v>       0.94444599       0.22222938       0.12509759 </v>
    <v>       0.11110578       0.38889924       0.62485791 </v>
    <v>       0.27776861       0.88887756       0.62488763 </v>
    <v>       0.61110395       0.88888734       0.62490241 </v>
    <v>       0.44444444       0.38888889       0.62427433 </v>
    <v>       0.94445030       0.88888303       0.62489877 </v>
    <v>       0.11110895       0.88887756       0.12511237 </v>
    <v>       0.77779345       0.38889924       0.62485791 </v>
    <v>       0.44443273       0.88888303       0.12510123 </v>
    <v>       0.27776879       0.38888773       0.12533815 </v>
    <v>       0.27776995       0.55556338       0.12518616 </v>
    <v>       0.61111893       0.38888773       0.12533815 </v>
    <v>       0.77778339       0.88888734       0.12509759 </v>
    <v>       0.94445030       0.38890061       0.12510123 </v>
    <v>       0.11110895       0.55556472       0.62488763 </v>
    <v>       0.27776995       0.05553990       0.62481384 </v>
    <v>       0.77779343       0.55556338       0.62481384 </v>
    <v>       0.61110395       0.05554994       0.62490241 </v>
    <v>       0.94444599       0.05554994       0.62490241 </v>
    <v>       0.05492459       0.11067225       0.37500000 </v>
    <v>       0.55597948       0.61195895       0.37500000 </v>
    <v>       0.38821178       0.10798614       0.37500000 </v>
    <v>       0.88997050       0.61165191       0.37500000 </v>
    <v>       0.72233166       0.11100168       0.37500000 </v>
    <v>       0.05555347       0.77777986       0.87500000 </v>
    <v>       0.38889499       0.77778040       0.87500000 </v>
    <v>       0.22222211       0.27777772       0.87500000 </v>
    <v>       0.72222208       0.77778036       0.87500000 </v>
    <v>       0.55555561       0.27777772       0.87500000 </v>
    <v>       0.88888780       0.27777560       0.87500000 </v>
    <v>       0.22203010       0.77768172       0.37500000 </v>
    <v>       0.05492459       0.27758567       0.37500000 </v>
    <v>       0.38321436       0.26642872       0.37500000 </v>
    <v>       0.55574766       0.77840874       0.37500000 </v>
    <v>       0.88973042       0.77847773       0.37500000 </v>
    <v>       0.72266108       0.27758567       0.37500000 </v>
    <v>       0.05555294       0.94444793       0.87500000 </v>
    <v>       0.38889499       0.94444793       0.87500000 </v>
    <v>       0.22222295       0.44443974       0.87500000 </v>
    <v>       0.55555250       0.44444291       0.87500000 </v>
    <v>       0.72222259       0.94444517       0.87500000 </v>
    <v>       0.88888540       0.44443834       0.87500000 </v>
    <v>       0.05485561       0.44458602       0.37500000 </v>
    <v>       0.22168142       0.94336284       0.37500000 </v>
    <v>       0.55571596       0.94452465       0.37500000 </v>
    <v>       0.38321436       0.45011897       0.37500000 </v>
    <v>       0.88880868       0.94452465       0.37500000 </v>
    <v>       0.72534720       0.44512155       0.37500000 </v>
    <v>       0.22222502       0.61110832       0.87500000 </v>
    <v>       0.05555297       0.11111126       0.87500000 </v>
    <v>       0.55555561       0.61111123       0.87500000 </v>
    <v>       0.38889360       0.11111654       0.87500000 </v>
    <v>       0.88888330       0.61110832       0.87500000 </v>
    <v>       0.05565162       0.61130323       0.37500000 </v>
    <v>       0.72222259       0.11111075       0.87500000 </v>
    <v>       0.21977436       0.10798614       0.37500000 </v>
    <v>       0.38821178       0.61355898       0.37500000 </v>
    <v>       0.72534720       0.61355898       0.37500000 </v>
    <v>       0.55574766       0.11067225       0.37500000 </v>
    <v>       0.38889360       0.61111039       0.87500000 </v>
    <v>       0.88867002       0.11100168       0.37500000 </v>
    <v>       0.22222639       0.77777986       0.87500000 </v>
    <v>       0.05555297       0.27777505       0.87500000 </v>
    <v>       0.38889042       0.27778084       0.87500000 </v>
    <v>       0.55555829       0.77778036       0.87500000 </v>
    <v>       0.88888540       0.77778040       0.87500000 </v>
    <v>       0.72222208       0.27777505       0.87500000 </v>
    <v>       0.05565162       0.77768172       0.37500000 </v>
    <v>       0.38874731       0.77847773       0.37500000 </v>
    <v>       0.22137438       0.27735386       0.37500000 </v>
    <v>       0.72266108       0.77840874       0.37500000 </v>
    <v>       0.55597948       0.27735386       0.37500000 </v>
    <v>       0.88880868       0.27761737       0.37500000 </v>
    <v>       0.05555294       0.44443834       0.87500000 </v>
    <v>       0.22222502       0.94445003       0.87500000 </v>
    <v>       0.55555773       0.94444553       0.87500000 </v>
    <v>       0.38889042       0.44444291       0.87500000 </v>
    <v>       0.88888780       0.94444553       0.87500000 </v>
    <v>       0.05485561       0.94360291       0.37500000 </v>
    <v>       0.72221679       0.44443974       0.87500000 </v>
    <v>       0.38874731       0.94360291       0.37500000 </v>
    <v>       0.21977436       0.44512155       0.37500000 </v>
    <v>       0.22168142       0.61165191       0.37500000 </v>
    <v>       0.56690462       0.45011897       0.37500000 </v>
    <v>       0.72233166       0.94466331       0.37500000 </v>
    <v>       0.88973042       0.44458602       0.37500000 </v>
    <v>       0.05555347       0.61110694       0.87500000 </v>
    <v>       0.22222295       0.11111654       0.87500000 </v>
    <v>       0.72221679       0.61111039       0.87500000 </v>
    <v>       0.55555829       0.11111126       0.87500000 </v>
    <v>       0.88888816       0.11111075       0.87500000 </v>
    <v>       0.10888702       0.05363429       0.37500000 </v>
    <v>       0.61662821       0.56151023       0.37500000 </v>
    <v>       0.44474727       0.05363429       0.37500000 </v>
    <v>       0.94505350       0.55569452       0.37500000 </v>
    <v>       0.77777778       0.05555556       0.37500000 </v>
    <v>       0.11111111       0.72222222       0.87500000 </v>
    <v>       0.44445789       0.72225917       0.87500000 </v>
    <v>       0.27773656       0.22218886       0.87500000 </v>
    <v>       0.77780129       0.72225917       0.87500000 </v>
    <v>       0.61113701       0.22219632       0.87500000 </v>
    <v>       0.94391959       0.22220602       0.87450068 </v>
    <v>       0.27763881       0.72269232       0.37500000 </v>
    <v>       0.10939752       0.22136543       0.37500000 </v>
    <v>       0.44488202       0.21670513       0.37500000 </v>
    <v>       0.61196791       0.72393582       0.37500000 </v>
    <v>       0.94505350       0.72269232       0.37500000 </v>
    <v>       0.77798832       0.22181380       0.37500000 </v>
    <v>       0.11109976       0.88887925       0.87500000 </v>
    <v>       0.44445802       0.88889568       0.87500000 </v>
    <v>       0.27773656       0.38888103       0.87500000 </v>
    <v>       0.61114447       0.38888103       0.87500000 </v>
    <v>       0.77778711       0.88891442       0.87500000 </v>
    <v>       0.94443766       0.38887531       0.87500000 </v>
    <v>       0.10888702       0.38858606       0.37500000 </v>
    <v>       0.27763881       0.88827983       0.37500000 </v>
    <v>       0.61151953       0.88950785       0.37500000 </v>
    <v>       0.94428960       0.88904373       0.37500000 </v>
    <v>       0.77969904       0.38858606       0.37500000 </v>
    <v>       0.27776270       0.55557063       0.87500000 </v>
    <v>       0.11107416       0.05553205       0.87500000 </v>
    <v>       0.61114447       0.55559678       0.87500000 </v>
    <v>       0.44445789       0.05553205       0.87500000 </v>
    <v>       0.94445408       0.55555385       0.87500000 </v>
    <v>       0.11064101       0.55569452       0.37500000 </v>
    <v>       0.77777778       0.05555556       0.87500000 </v>
    <v>       0.27665444       0.05330889       0.37500000 </v>
    <v>       0.44488202       0.56151023       0.37500000 </v>
    <v>       0.78002445       0.55667889       0.37500000 </v>
    <v>       0.61151953       0.05534502       0.37500000 </v>
    <v>       0.44445231       0.55559678       0.87500000 </v>
    <v>       0.94382548       0.05534502       0.37500000 </v>
    <v>       0.27777949       0.72223357       0.87500000 </v>
    <v>       0.11105932       0.22219632       0.87500000 </v>
    <v>       0.44445231       0.22218886       0.87500000 </v>
    <v>       0.61113701       0.72227402       0.87500000 </v>
    <v>       0.94445408       0.72223357       0.87500000 </v>
    <v>       0.77778711       0.22220602       0.87500000 </v>
    <v>       0.11111111       0.72222222       0.37500000 </v>
    <v>       0.44474727       0.72444631       0.37500000 </v>
    <v>       0.27182310       0.21670513       0.37500000 </v>
    <v>       0.77969904       0.72444631       0.37500000 </v>
    <v>       0.61196791       0.22136543       0.37500000 </v>
    <v>       0.94382548       0.22181380       0.37500000 </v>
    <v>       0.11107416       0.38887545       0.87500000 </v>
    <v>       0.27777949       0.88887925       0.87500000 </v>
    <v>       0.61112731       0.88891442       0.87500000 </v>
    <v>       0.44444444       0.38888889       0.87500000 </v>
    <v>       0.94443766       0.88889568       0.87500000 </v>
    <v>       0.11064101       0.88827983       0.37500000 </v>
    <v>       0.77780129       0.38887545       0.87500000 </v>
    <v>       0.44475413       0.88904373       0.37500000 </v>
    <v>       0.27182310       0.38845131       0.37500000 </v>
    <v>       0.27665444       0.55667889       0.37500000 </v>
    <v>       0.61662821       0.38845131       0.37500000 </v>
    <v>       0.77798832       0.88950785       0.37500000 </v>
    <v>       0.94428960       0.38857921       0.37500000 </v>
    <v>       0.11109976       0.55555385       0.87500000 </v>
    <v>       0.27776270       0.05552540       0.87500000 </v>
    <v>       0.77780793       0.55557063       0.87500000 </v>
    <v>       0.61112731       0.05554622       0.87500000 </v>
    <v>       0.94441891       0.05554622       0.87500000 </v>
    <v>       0.05546928       0.11103632       0.12487403 </v>
    <v>       0.55563492       0.61126984       0.12476730 </v>
    <v>       0.38882801       0.11092619       0.12483104 </v>
    <v>       0.88900701       0.61117017       0.12488859 </v>
    <v>       0.72223458       0.11109875       0.12491481 </v>
    <v>       0.05557215       0.77776118       0.62509033 </v>
    <v>       0.38885004       0.77781495       0.62510653 </v>
    <v>       0.22206349       0.27769841       0.62523270 </v>
    <v>       0.72229702       0.77786405       0.62512597 </v>
    <v>       0.55563492       0.27769841       0.62523270 </v>
    <v>       0.88889259       0.27778519       0.62508998 </v>
    <v>       0.22218903       0.77776118       0.12490967 </v>
    <v>       0.05546928       0.27776630       0.12487403 </v>
    <v>       0.38878395       0.27756790       0.12459556 </v>
    <v>       0.55556704       0.77786405       0.12487403 </v>
    <v>       0.88896491       0.77781495       0.12489347 </v>
    <v>       0.72229702       0.27776630       0.12487403 </v>
    <v>       0.05551838       0.94436842       0.62510653 </v>
    <v>       0.38885004       0.94436842       0.62510653 </v>
    <v>       0.22209818       0.44450532       0.62516896 </v>
    <v>       0.55576543       0.44454938       0.62540444 </v>
    <v>       0.72223458       0.94446917       0.62508519 </v>
    <v>       0.88896491       0.44448330       0.62510653 </v>
    <v>       0.05551838       0.44448330       0.12489347 </v>
    <v>       0.22216316       0.94432633       0.12488859 </v>
    <v>       0.55554814       0.94444074       0.12491002 </v>
    <v>       0.38878395       0.44454938       0.12459556 </v>
    <v>       0.88889259       0.94444074       0.12491002 </v>
    <v>       0.72240714       0.44450532       0.12483104 </v>
    <v>       0.22216316       0.61117017       0.62511141 </v>
    <v>       0.05546928       0.11103632       0.62512597 </v>
    <v>       0.55563492       0.61126984       0.62523270 </v>
    <v>       0.38882801       0.11092619       0.62516896 </v>
    <v>       0.88900701       0.61117017       0.62511141 </v>
    <v>       0.05557215       0.61114430       0.12490967 </v>
    <v>       0.72223458       0.11109875       0.62508519 </v>
    <v>       0.22209818       0.11092619       0.12483104 </v>
    <v>       0.38882801       0.61123515       0.12483104 </v>
    <v>       0.72240714       0.61123515       0.12483104 </v>
    <v>       0.55556704       0.11103632       0.12487403 </v>
    <v>       0.38882801       0.61123515       0.62516896 </v>
    <v>       0.88886417       0.11109875       0.12491481 </v>
    <v>       0.22218903       0.77776118       0.62509033 </v>
    <v>       0.05546928       0.27776630       0.62512597 </v>
    <v>       0.38878395       0.27756790       0.62540444 </v>
    <v>       0.55556704       0.77786405       0.62512597 </v>
    <v>       0.88896491       0.77781495       0.62510653 </v>
    <v>       0.72229702       0.27776630       0.62512597 </v>
    <v>       0.05557215       0.77776118       0.12490967 </v>
    <v>       0.38885004       0.77781495       0.12489347 </v>
    <v>       0.22206349       0.27769841       0.12476730 </v>
    <v>       0.72229702       0.77786405       0.12487403 </v>
    <v>       0.55563492       0.27769841       0.12476730 </v>
    <v>       0.88889259       0.27778519       0.12491002 </v>
    <v>       0.05551838       0.44448330       0.62510653 </v>
    <v>       0.22216316       0.94432633       0.62511141 </v>
    <v>       0.55554814       0.94444074       0.62508998 </v>
    <v>       0.38878395       0.44454938       0.62540444 </v>
    <v>       0.88889259       0.94444074       0.62508998 </v>
    <v>       0.05551838       0.94436842       0.12489347 </v>
    <v>       0.72240714       0.44450532       0.62516896 </v>
    <v>       0.38885004       0.94436842       0.12489347 </v>
    <v>       0.22209818       0.44450532       0.12483104 </v>
    <v>       0.22216316       0.61117017       0.12488859 </v>
    <v>       0.55576543       0.44454938       0.12459556 </v>
    <v>       0.72223458       0.94446917       0.12491481 </v>
    <v>       0.88896491       0.44448330       0.12489347 </v>
    <v>       0.05557215       0.61114430       0.62509033 </v>
    <v>       0.22209818       0.11092619       0.62516896 </v>
    <v>       0.72240714       0.61123515       0.62516896 </v>
    <v>       0.55556704       0.11103632       0.62512597 </v>
    <v>       0.88886417       0.11109875       0.62508519 </v>
   </varray>
  </structure>
  <varray name="forces" >
   <v>      -0.00029275      -0.00004270       0.00009989 </v>
   <v>      -0.00128524      -0.00522633       0.00009329 </v>
   <v>       0.00429717       0.00735422      -0.00326785 </v>
   <v>       0.00223006      -0.00438009      -0.00026265 </v>
   <v>       0.00158990       0.00196728       0.00045430 </v>
   <v>      -0.00127809      -0.00028714      -0.00020042 </v>
   <v>      -0.00015545      -0.00032170      -0.00123175 </v>
   <v>      -0.00301379       0.00427757       0.00014361 </v>
   <v>      -0.00400102      -0.00719221       0.00300852 </v>
   <v>       0.00306630       0.00378107       0.00020463 </v>
   <v>       0.00879967      -0.00436037       0.00281804 </v>
   <v>      -0.00427524      -0.00215717       0.00228616 </v>
   <v>      -0.00308743       0.00089243       0.00070822 </v>
   <v>      -0.00705279      -0.00488822      -0.00112768 </v>
   <v>       0.00509069      -0.00704544      -0.00326498 </v>
   <v>       0.00004910       0.00918549      -0.00253960 </v>
   <v>       0.00293794       0.00015562       0.00063219 </v>
   <v>       0.00117541      -0.00183987      -0.00179361 </v>
   <v>       0.00103274      -0.00308301      -0.00071445 </v>
   <v>      -0.00037826       0.00009297      -0.00012529 </v>
   <v>      -0.00827556      -0.00003315       0.00278554 </v>
   <v>       0.00903448      -0.00039226       0.00337592 </v>
   <v>      -0.00117045       0.00328420       0.00053422 </v>
   <v>      -0.00069871      -0.00069954       0.00100575 </v>
   <v>      -0.00553787       0.00206851       0.00097675 </v>
   <v>      -0.00083807      -0.00278990       0.00067375 </v>
   <v>       0.00055824       0.00310877      -0.00057832 </v>
   <v>       0.00070946       0.00015381       0.00718095 </v>
   <v>       0.00058185      -0.00094186       0.00020108 </v>
   <v>       0.00489431       0.00048495      -0.00066894 </v>
   <v>      -0.00623729       0.00373921      -0.00035460 </v>
   <v>      -0.00193234      -0.00485876      -0.00006612 </v>
   <v>       0.00430091       0.00735861       0.00326940 </v>
   <v>       0.00240479      -0.00429904       0.00026332 </v>
   <v>       0.00185118       0.00148919      -0.00045058 </v>
   <v>      -0.00261994       0.00265741       0.00068605 </v>
   <v>      -0.00034253       0.00118609       0.00038841 </v>
   <v>       0.00057249      -0.00700754       0.00021079 </v>
   <v>      -0.00357968       0.00776440      -0.00313918 </v>
   <v>       0.00609031       0.00310839       0.00000929 </v>
   <v>       0.00283747      -0.00037806      -0.00079710 </v>
   <v>      -0.00372869       0.00766984       0.00313885 </v>
   <v>      -0.00327590      -0.00186953      -0.00018098 </v>
   <v>      -0.00310337       0.00069881      -0.00070910 </v>
   <v>      -0.00879881      -0.00481851       0.00130826 </v>
   <v>       0.00509384      -0.00705310       0.00326451 </v>
   <v>       0.00006069       0.00936633       0.00253918 </v>
   <v>       0.00294194       0.00015561      -0.00063115 </v>
   <v>       0.00292078      -0.00177011       0.00198375 </v>
   <v>      -0.00017107      -0.00012707       0.00122963 </v>
   <v>      -0.00300728       0.00427530      -0.00014206 </v>
   <v>      -0.00345877      -0.00719769      -0.00300825 </v>
   <v>       0.00307937       0.00360274      -0.00020426 </v>
   <v>       0.00825174      -0.00436772      -0.00281557 </v>
   <v>      -0.00424787      -0.00214952       0.00118255 </v>
   <v>      -0.00635226       0.00052164      -0.00079543 </v>
   <v>      -0.00083825      -0.00279104      -0.00067308 </v>
   <v>       0.00083776       0.00357369       0.00058032 </v>
   <v>       0.00054988       0.00007817      -0.00715497 </v>
   <v>       0.00030230      -0.00048140      -0.00019857 </v>
   <v>       0.00119076      -0.00318907       0.00071302 </v>
   <v>       0.00550039       0.00013272       0.00065303 </v>
   <v>      -0.00053726      -0.00001586       0.00012521 </v>
   <v>      -0.00766845       0.00031415      -0.00279972 </v>
   <v>      -0.00597188       0.00421617       0.00035785 </v>
   <v>       0.00886792      -0.00031449      -0.00337470 </v>
   <v>      -0.00116770       0.00258811      -0.00055088 </v>
   <v>      -0.00150087       0.00084830      -0.00081809 </v>
   <v>      -0.00262165       0.00190930      -0.00066010 </v>
   <v>       0.00039871      -0.00692575      -0.00021122 </v>
   <v>       0.00623928       0.00300686      -0.00000983 </v>
   <v>       0.00348718      -0.00000551       0.00082235 </v>
   <v>      -0.00421671      -0.00040695       0.00036444 </v>
   <v>      -0.00147106      -0.01220456       0.00014963 </v>
   <v>       0.00015709       0.02532869       0.00005189 </v>
   <v>      -0.04180026      -0.04731106       0.00005134 </v>
   <v>       0.01687471       0.00960032       0.00005654 </v>
   <v>       0.00132407      -0.00070802       0.00015175 </v>
   <v>       0.00164312      -0.00203478      -0.00003958 </v>
   <v>      -0.00195945       0.00092710      -0.00003943 </v>
   <v>       0.00461526       0.00046535       0.00189575 </v>
   <v>       0.00069244       0.00199264      -0.00019813 </v>
   <v>       0.00559051      -0.00164981      -0.00015823 </v>
   <v>      -0.15015621       0.05234185      -0.03123455 </v>
   <v>      -0.00140145      -0.00089120       0.00004832 </v>
   <v>      -0.01138735       0.00476477       0.00028846 </v>
   <v>       0.00021298      -0.31776486      -0.00001529 </v>
   <v>      -0.00967033       0.00735228       0.00005602 </v>
   <v>       0.02307753      -0.00705762       0.00005804 </v>
   <v>       0.01112338       0.00485228       0.00010880 </v>
   <v>       0.00173664      -0.00413086      -0.00006353 </v>
   <v>      -0.00028039      -0.00103217      -0.00004769 </v>
   <v>       0.00091769       0.01058839       0.00188897 </v>
   <v>       0.00414961       0.00114715      -0.00002130 </v>
   <v>      -0.00377804       0.00033938       0.00187205 </v>
   <v>       0.00531020      -0.00721575       0.00186755 </v>
   <v>      -0.00582717       0.02331351       0.00015196 </v>
   <v>       0.00009274      -0.01953436       0.00004567 </v>
   <v>      -0.00489652      -0.00267080       0.00007004 </v>
   <v>      -0.27480206       0.15884885      -0.00001224 </v>
   <v>       0.00484987      -0.00294853       0.00010956 </v>
   <v>       0.02012392       0.05996103       0.00006005 </v>
   <v>      -0.00420327       0.00284441      -0.00006367 </v>
   <v>       0.00081032      -0.01149446      -0.00142372 </v>
   <v>       0.00110762       0.00373759      -0.00002269 </v>
   <v>       0.00237386      -0.00381009      -0.00003964 </v>
   <v>       0.00320640      -0.00069366      -0.00015975 </v>
   <v>      -0.00005219       0.00156170       0.00007005 </v>
   <v>       0.00338282       0.00937454      -0.00143586 </v>
   <v>       0.04201103      -0.04723333       0.00006157 </v>
   <v>      -0.06143609      -0.01250805       0.00005527 </v>
   <v>       0.06188625      -0.01274669       0.00005532 </v>
   <v>       0.00147049      -0.01192155       0.00007066 </v>
   <v>      -0.00237597       0.00431594      -0.00015877 </v>
   <v>      -0.00169584      -0.00085488       0.00029017 </v>
   <v>      -0.00184615      -0.00092571      -0.00004779 </v>
   <v>      -0.14650306      -0.04965174      -0.03242015 </v>
   <v>       0.00284238      -0.00230181      -0.00015910 </v>
   <v>      -0.00056962       0.00280947      -0.00015879 </v>
   <v>       0.00195332      -0.00099646      -0.00015933 </v>
   <v>       0.00932898      -0.00270020       0.00186453 </v>
   <v>       0.00149877      -0.00099183       0.00004900 </v>
   <v>      -0.02294599      -0.00675452       0.00004854 </v>
   <v>      -0.02181154      -0.01266309       0.00011099 </v>
   <v>       0.00978856       0.00723062       0.00006067 </v>
   <v>       0.02205698      -0.01259004       0.00005766 </v>
   <v>      -0.00029936       0.00567493       0.00029151 </v>
   <v>      -0.01601221       0.00180162      -0.00143036 </v>
   <v>       0.00087536      -0.00355227      -0.00004737 </v>
   <v>       0.00109583       0.00271007      -0.00006338 </v>
   <v>       0.00096482       0.00274362      -0.00019692 </v>
   <v>      -0.00425283       0.00117723       0.00188077 </v>
   <v>       0.01754944      -0.01666351       0.00006760 </v>
   <v>       0.00647426      -0.00006007      -0.00019670 </v>
   <v>      -0.01742319      -0.01648895       0.00004824 </v>
   <v>      -0.01987942       0.05963261       0.00011192 </v>
   <v>      -0.01678605       0.00968975       0.00007041 </v>
   <v>       0.27535351       0.15888988      -0.00002567 </v>
   <v>      -0.00007935       0.00175114       0.00010989 </v>
   <v>       0.00547623       0.02335894       0.00010956 </v>
   <v>      -0.00172071       0.00035471      -0.00006351 </v>
   <v>       0.00238561      -0.00530670      -0.00006319 </v>
   <v>       0.00420273       0.00162323      -0.00002349 </v>
   <v>       0.00427594       0.00005058      -0.00006241 </v>
   <v>      -0.06021529      -0.00006867      -0.03183313 </v>
   <v>      -0.01416607       0.02919123      -0.00009175 </v>
   <v>      -0.06839525      -0.00332186      -0.00005391 </v>
   <v>       0.01379423       0.02906059      -0.00005346 </v>
   <v>      -0.00785846      -0.00479236      -0.00007835 </v>
   <v>       0.00023016      -0.00003768      -0.00018161 </v>
   <v>      -0.00011126       0.00113053       0.00004724 </v>
   <v>       0.00145150      -0.00424782       0.00000523 </v>
   <v>      -0.00335024       0.00420721       0.00043827 </v>
   <v>      -0.00147273      -0.00237222       0.00004704 </v>
   <v>      -0.00744512       0.00009646       0.00043201 </v>
   <v>       0.39914377      -0.00420996       0.09027728 </v>
   <v>       0.00822918      -0.00437251      -0.00005444 </v>
   <v>       0.03066573       0.01766155      -0.00018517 </v>
   <v>       0.03078850       0.06071855      -0.00006089 </v>
   <v>      -0.00002432      -0.03533945      -0.00005473 </v>
   <v>      -0.00832649      -0.00410636      -0.00005296 </v>
   <v>      -0.00690617       0.00202992      -0.00018316 </v>
   <v>      -0.00071725       0.00293935       0.00004690 </v>
   <v>      -0.00075307      -0.00078976       0.00004708 </v>
   <v>      -0.00155580      -0.00285840      -0.00005666 </v>
   <v>      -0.00471372      -0.00031535       0.00004589 </v>
   <v>      -0.00049880      -0.00174798      -0.00005532 </v>
   <v>       0.00774972       0.03107586      -0.00004439 </v>
   <v>       0.01839868      -0.02674173      -0.00018548 </v>
   <v>       0.00022172       0.00935387      -0.00004742 </v>
   <v>       0.00176833      -0.00715265      -0.00007714 </v>
   <v>      -0.01230572       0.00727690      -0.00007749 </v>
   <v>      -0.01826585      -0.02657606      -0.00009407 </v>
   <v>       0.00430729      -0.00665986       0.00043801 </v>
   <v>      -0.00226939       0.00506946      -0.00005478 </v>
   <v>      -0.00264616      -0.00187487       0.00004460 </v>
   <v>      -0.00403007       0.00184982       0.00004677 </v>
   <v>      -0.00052358       0.00418698       0.00043492 </v>
   <v>       0.00799261      -0.00498583      -0.00009327 </v>
   <v>       0.00788443      -0.01741427       0.00001805 </v>
   <v>      -0.00028797       0.02822413      -0.00005626 </v>
   <v>       0.06822458      -0.00344025      -0.00006236 </v>
   <v>      -0.02450539      -0.01389581      -0.00005581 </v>
   <v>      -0.00534590       0.00495420      -0.00009182 </v>
   <v>       0.00074916      -0.00342175       0.00004616 </v>
   <v>       0.00546331       0.00513950      -0.00018174 </v>
   <v>       0.00152579      -0.00223349       0.00004664 </v>
   <v>      -0.03089284       0.00881835      -0.00015498 </v>
   <v>      -0.00321958       0.00240414       0.00000366 </v>
   <v>      -0.00010219      -0.00416603       0.00004641 </v>
   <v>      -0.00155467       0.00029704       0.00000459 </v>
   <v>      -0.03638428      -0.00650746       0.00004170 </v>
   <v>      -0.00004556       0.00012743      -0.00005442 </v>
   <v>       0.03211593      -0.00252720      -0.00005270 </v>
   <v>      -0.03149685       0.06081534      -0.00008774 </v>
   <v>      -0.03221282      -0.00223391      -0.00005396 </v>
   <v>      -0.03087319       0.01766615      -0.00007872 </v>
   <v>       0.00737777       0.00203013      -0.00042764 </v>
   <v>       0.01099353      -0.03086392      -0.00007955 </v>
   <v>      -0.00120029       0.00202849       0.00004613 </v>
   <v>       0.00197366      -0.00312995       0.00043504 </v>
   <v>      -0.00223421      -0.00010656       0.00004361 </v>
   <v>       0.00114959       0.00148662       0.00043928 </v>
   <v>      -0.00053753       0.00947633      -0.00005399 </v>
   <v>      -0.00719735       0.00268076      -0.00005303 </v>
   <v>       0.01219971       0.00704523      -0.00005400 </v>
   <v>       0.03696212      -0.05766479      -0.00010453 </v>
   <v>       0.02441714      -0.01424855      -0.00008016 </v>
   <v>      -0.03729228      -0.05723773      -0.00006274 </v>
   <v>      -0.00162931      -0.00701884      -0.00009213 </v>
   <v>       0.00021619      -0.01413365      -0.00018290 </v>
   <v>       0.00197415      -0.00080329      -0.00005566 </v>
   <v>      -0.00224426       0.00427170       0.00004631 </v>
   <v>      -0.00389729      -0.00014377       0.00004621 </v>
   <v>      -0.00527445      -0.00093142      -0.00005604 </v>
   <v>       0.00890759       0.01889934      -0.00014381 </v>
   <v>       0.00237471       0.00818402      -0.00120767 </v>
   <v>      -0.00043965      -0.01009469       0.00682301 </v>
   <v>      -0.00267132       0.01244830       0.00141049 </v>
   <v>      -0.00665349      -0.00351525      -0.00093991 </v>
   <v>      -0.00047346      -0.00023029      -0.00099814 </v>
   <v>      -0.00210722       0.00158600       0.00208893 </v>
   <v>       0.00517753      -0.00251346       0.00168847 </v>
   <v>       0.00825883       0.00510559      -0.00623537 </v>
   <v>      -0.00454442      -0.00593379       0.00041612 </v>
   <v>      -0.00945698       0.00505106      -0.00698806 </v>
   <v>      -0.00031875      -0.00081169      -0.00171915 </v>
   <v>       0.00247836       0.00120555      -0.00210500 </v>
   <v>       0.00684819      -0.00192855      -0.00380630 </v>
   <v>      -0.00086159      -0.00553531       0.01328525 </v>
   <v>       0.00437314      -0.00597748      -0.00043245 </v>
   <v>      -0.00508802      -0.00164939      -0.00165661 </v>
   <v>      -0.00749422      -0.00119524       0.00020870 </v>
   <v>      -0.00056562       0.00589300       0.00178699 </v>
   <v>       0.00053804       0.00516647       0.00163554 </v>
   <v>       0.01245356      -0.00471984      -0.00078080 </v>
   <v>       0.00395087       0.00271196      -0.01339654 </v>
   <v>       0.00023787      -0.00253956       0.00151457 </v>
   <v>      -0.00483381      -0.00242753       0.00112937 </v>
   <v>       0.00667271      -0.00396375      -0.00182823 </v>
   <v>      -0.00014818       0.00790390      -0.00111140 </v>
   <v>       0.00160296       0.00033864      -0.00157389 </v>
   <v>      -0.00553017       0.00222887       0.01320781 </v>
   <v>      -0.00124546       0.00191427      -0.00164720 </v>
   <v>      -0.01242592      -0.00415301       0.00161140 </v>
   <v>       0.00740493      -0.00397694       0.00117260 </v>
   <v>       0.00347200       0.00756344       0.00089385 </v>
   <v>      -0.00036419      -0.01014159      -0.00681876 </v>
   <v>      -0.00267183       0.01248749      -0.00140647 </v>
   <v>      -0.00689286      -0.00340727       0.00093837 </v>
   <v>       0.00074045      -0.00245785      -0.00200916 </v>
   <v>      -0.00157731      -0.00086687       0.00067507 </v>
   <v>       0.00154977       0.01282917       0.00120829 </v>
   <v>       0.00950691      -0.00861356       0.00127333 </v>
   <v>      -0.01010386      -0.00794765       0.00145534 </v>
   <v>      -0.00298597       0.00631094      -0.00020737 </v>
   <v>       0.00974965      -0.00850642      -0.00127219 </v>
   <v>       0.00250488       0.00301185      -0.00250712 </v>
   <v>       0.00247828       0.00128081       0.00210814 </v>
   <v>       0.01094168       0.00042666       0.00175951 </v>
   <v>      -0.00065095      -0.00536540      -0.01327738 </v>
   <v>       0.00440254      -0.00623832       0.00043031 </v>
   <v>      -0.00511551      -0.00190707       0.00165470 </v>
   <v>      -0.00851297      -0.00060659      -0.00012378 </v>
   <v>      -0.00207715       0.00160117      -0.00208860 </v>
   <v>       0.00514554      -0.00249655      -0.00168682 </v>
   <v>       0.00724962       0.00451844       0.00632298 </v>
   <v>      -0.00454265      -0.00553016      -0.00041742 </v>
   <v>      -0.00923954       0.00489588       0.00698659 </v>
   <v>       0.00374624      -0.00316238      -0.00036384 </v>
   <v>       0.00668166      -0.00269646       0.00151082 </v>
   <v>      -0.00008428       0.00786830       0.00111510 </v>
   <v>       0.00140952       0.00004070       0.00158033 </v>
   <v>      -0.00516709       0.00242046      -0.01319717 </v>
   <v>      -0.00124750       0.00075507       0.00173153 </v>
   <v>      -0.00075826       0.00618558      -0.00177913 </v>
   <v>      -0.01278106      -0.00395133      -0.00160923 </v>
   <v>       0.00060181       0.00520217      -0.00163176 </v>
   <v>       0.01143629      -0.00530026       0.00087009 </v>
   <v>       0.00724307      -0.00429477      -0.00116411 </v>
   <v>       0.00396816       0.00263360       0.01340863 </v>
   <v>       0.00023466      -0.00136643      -0.00143062 </v>
   <v>      -0.00382124      -0.00301111      -0.00104456 </v>
   <v>       0.00058110      -0.00213981       0.00201670 </v>
   <v>       0.00190408       0.01281634      -0.00119797 </v>
   <v>      -0.01018406      -0.00799220      -0.00144923 </v>
   <v>      -0.00334240       0.00629477       0.00021594 </v>
   <v>       0.00251448      -0.00168622       0.00043944 </v>
  </varray>
  <varray name="stress" >
   <v>      96.93420954      -0.12254963      -0.00167574 </v>
   <v>      -0.12254963      96.86690290      -0.00000837 </v>
   <v>      -0.00167574      -0.00000839      -3.47079176 </v>
  </varray>
  <energy>
   <i name="e_fr_energy">  -2554.40109652 </i>
   <i name="e_wo_entrp">  -2554.40109652 </i>
   <i name="e_0_energy">  -2554.40109652 </i>
  </energy>
  <time name="totalsc">  171.67  171.59</time>
  <eigenvalues>
   <array>
    <dimension dim="1">band</dimension>
    <dimension dim="2">kpoint</dimension>
    <dimension dim="3">spin</dimension>
    <field>eigene</field>
    <field>occ</field>
    <set>
     <set comment="spin 1">
      <set comment="kpoint 1">
       <r>  -17.2937    1.0000 </r>
       <r>  -15.7200    1.0000 </r>
       <r>  -15.7199    1.0000 </r>
       <r>  -15.5764    1.0000 </r>
       <r>  -15.3638    1.0000 </r>
       <r>  -15.3444    1.0000 </r>
       <r>  -15.1593    1.0000 </r>
       <r>  -15.1592    1.0000 </r>
       <r>  -15.1528    1.0000 </r>
       <r>  -15.0729    1.0000 </r>
       <r>  -14.8869    1.0000 </r>
       <r>  -14.8758    1.0000 </r>
       <r>  -14.8755    1.0000 </r>
       <r>  -14.8462    1.0000 </r>
       <r>  -14.8191    1.0000 </r>
       <r>  -14.8189    1.0000 </r>
       <r>  -14.8186    1.0000 </r>
       <r>  -14.8171    1.0000 </r>
       <r>  -14.8014    1.0000 </r>
       <r>  -14.7877    1.0000 </r>
       <r>  -14.7875    1.0000 </r>
       <r>  -14.7749    1.0000 </r>
       <r>  -14.7405    1.0000 </r>
       <r>  -14.7403    1.0000 </r>
       <r>  -14.6486    1.0000 </r>
       <r>  -14.6265    1.0000 </r>
       <r>  -14.6244    1.0000 </r>
       <r>  -14.6155    1.0000 </r>
       <r>  -14.6133    1.0000 </r>
       <r>  -14.6071    1.0000 </r>
       <r>  -14.5582    1.0000 </r>
       <r>  -14.2539    1.0000 </r>
       <r>  -14.2538    1.0000 </r>
       <r>  -14.2428    1.0000 </r>
       <r>  -13.9205    1.0000 </r>
       <r>  -13.9203    1.0000 </r>
       <r>  -13.8666    1.0000 </r>
       <r>  -13.8309    1.0000 </r>
       <r>  -13.8297    1.0000 </r>
       <r>  -13.8293    1.0000 </r>
       <r>  -13.8235    1.0000 </r>
       <r>  -13.8134    1.0000 </r>
       <r>  -13.8124    1.0000 </r>
       <r>  -13.8117    1.0000 </r>
       <r>  -13.8066    1.0000 </r>
       <r>  -13.8064    1.0000 </r>
       <r>  -13.8014    1.0000 </r>
       <r>  -13.8012    1.0000 </r>
       <r>  -13.7994    1.0000 </r>
       <r>  -13.7627    1.0000 </r>
       <r>  -13.7567    1.0000 </r>
       <r>  -13.7566    1.0000 </r>
       <r>  -13.6389    1.0000 </r>
       <r>  -13.6372    1.0000 </r>
       <r>  -13.6347    1.0000 </r>
       <r>  -13.6342    1.0000 </r>
       <r>  -13.6327    1.0000 </r>
       <r>  -13.6295    1.0000 </r>
       <r>  -13.3993    1.0000 </r>
       <r>  -13.3985    1.0000 </r>
       <r>  -13.3887    1.0000 </r>
       <r>  -13.3824    1.0000 </r>
       <r>  -13.3822    1.0000 </r>
       <r>  -13.3816    1.0000 </r>
       <r>  -13.3683    1.0000 </r>
       <r>  -13.3634    1.0000 </r>
       <r>  -13.3633    1.0000 </r>
       <r>  -13.3630    1.0000 </r>
       <r>  -13.3628    1.0000 </r>
       <r>  -13.3606    1.0000 </r>
       <r>  -13.2778    1.0000 </r>
       <r>  -13.2773    1.0000 </r>
       <r>  -13.2064    1.0000 </r>
       <r>  -13.2026    1.0000 </r>
       <r>  -13.2018    1.0000 </r>
       <r>  -13.2011    1.0000 </r>
       <r>  -13.2002    1.0000 </r>
       <r>  -13.1968    1.0000 </r>
       <r>  -12.8944    1.0000 </r>
       <r>  -12.8583    1.0000 </r>
       <r>  -12.8582    1.0000 </r>
       <r>  -12.7736    1.0000 </r>
       <r>  -12.6759    1.0000 </r>
       <r>  -12.5898    1.0000 </r>
       <r>  -12.5897    1.0000 </r>
       <r>  -12.5888    1.0000 </r>
       <r>  -12.5333    1.0000 </r>
       <r>  -12.5332    1.0000 </r>
       <r>  -12.4973    1.0000 </r>
       <r>  -12.4973    1.0000 </r>
       <r>  -12.4681    1.0000 </r>
       <r>  -12.3457    1.0000 </r>
       <r>  -12.3412    1.0000 </r>
       <r>  -12.3266    1.0000 </r>
       <r>  -12.3202    1.0000 </r>
       <r>  -12.3160    1.0000 </r>
       <r>  -12.3157    1.0000 </r>
       <r>  -12.3088    1.0000 </r>
       <r>  -12.3087    1.0000 </r>
       <r>  -12.3077    1.0000 </r>
       <r>  -12.3073    1.0000 </r>
       <r>  -12.2995    1.0000 </r>
       <r>  -12.2992    1.0000 </r>
       <r>  -12.2849    1.0000 </r>
       <r>  -12.2846    1.0000 </r>
       <r>  -12.2824    1.0000 </r>
       <r>  -12.2819    1.0000 </r>
       <r>  -12.2752    1.0000 </r>
       <r>  -12.2750    1.0000 </r>
       <r>  -12.2730    1.0000 </r>
       <r>  -12.2729    1.0000 </r>
       <r>  -12.2728    1.0000 </r>
       <r>  -12.2712    1.0000 </r>
       <r>  -12.2624    1.0000 </r>
       <r>  -12.2612    1.0000 </r>
       <r>  -12.1916    1.0000 </r>
       <r>  -12.1906    1.0000 </r>
       <r>  -12.1904    1.0000 </r>
       <r>  -12.1862    1.0000 </r>
       <r>  -12.1852    1.0000 </r>
       <r>  -12.1851    1.0000 </r>
       <r>  -12.1605    1.0000 </r>
       <r>  -12.1577    1.0000 </r>
       <r>  -12.1541    1.0000 </r>
       <r>  -12.1529    1.0000 </r>
       <r>  -12.1510    1.0000 </r>
       <r>  -12.1504    1.0000 </r>
       <r>  -12.1486    1.0000 </r>
       <r>  -12.1434    1.0000 </r>
       <r>  -12.1426    1.0000 </r>
       <r>  -12.1408    1.0000 </r>
       <r>  -12.1397    1.0000 </r>
       <r>  -12.1335    1.0000 </r>
       <r>  -12.0647    1.0000 </r>
       <r>  -12.0617    1.0000 </r>
       <r>  -12.0582    1.0000 </r>
       <r>  -11.9615    1.0000 </r>
       <r>  -11.9615    1.0000 </r>
       <r>  -11.5949    1.0000 </r>
       <r>  -11.5943    1.0000 </r>
       <r>  -11.5939    1.0000 </r>
       <r>  -11.5934    1.0000 </r>
       <r>  -11.4706    1.0000 </r>
       <r>  -11.4668    1.0000 </r>
       <r>   -8.3731    1.0000 </r>
       <r>   -7.3289    1.0000 </r>
       <r>   -7.3288    1.0000 </r>
       <r>   -6.6087    1.0000 </r>
       <r>   -6.6086    1.0000 </r>
       <r>   -6.5430    1.0000 </r>
       <r>   -6.5254    1.0000 </r>
       <r>   -6.5254    1.0000 </r>
       <r>   -6.5238    1.0000 </r>
       <r>   -6.5215    1.0000 </r>
       <r>   -6.5215    1.0000 </r>
       <r>   -6.5105    1.0000 </r>
       <r>   -6.4867    1.0000 </r>
       <r>   -6.3917    1.0000 </r>
       <r>   -6.3898    1.0000 </r>
       <r>   -6.3879    1.0000 </r>
       <r>   -6.3162    1.0000 </r>
       <r>   -6.3162    1.0000 </r>
       <r>   -6.0962    1.0000 </r>
       <r>   -6.0962    1.0000 </r>
       <r>   -6.0294    1.0000 </r>
       <r>   -6.0293    1.0000 </r>
       <r>   -6.0064    1.0000 </r>
       <r>   -5.9874    1.0000 </r>
       <r>   -5.9069    1.0000 </r>
       <r>   -5.9069    1.0000 </r>
       <r>   -5.7148    1.0000 </r>
       <r>   -5.7147    1.0000 </r>
       <r>   -5.7130    1.0000 </r>
       <r>   -5.7128    1.0000 </r>
       <r>   -5.7058    1.0000 </r>
       <r>   -5.7058    1.0000 </r>
       <r>   -5.7039    1.0000 </r>
       <r>   -5.7039    1.0000 </r>
       <r>   -5.6911    1.0000 </r>
       <r>   -5.6902    1.0000 </r>
       <r>   -5.6866    1.0000 </r>
       <r>   -5.6856    1.0000 </r>
       <r>   -5.6824    1.0000 </r>
       <r>   -5.6808    1.0000 </r>
       <r>   -5.6808    1.0000 </r>
       <r>   -5.6793    1.0000 </r>
       <r>   -5.6693    1.0000 </r>
       <r>   -5.6693    1.0000 </r>
       <r>   -5.6682    1.0000 </r>
       <r>   -5.6680    1.0000 </r>
       <r>   -5.6673    1.0000 </r>
       <r>   -5.6672    1.0000 </r>
       <r>   -5.6663    1.0000 </r>
       <r>   -5.6662    1.0000 </r>
       <r>   -5.5756    1.0000 </r>
       <r>   -5.5748    1.0000 </r>
       <r>   -5.5618    1.0000 </r>
       <r>   -5.5618    1.0000 </r>
       <r>   -5.5613    1.0000 </r>
       <r>   -5.5588    1.0000 </r>
       <r>   -5.5576    1.0000 </r>
       <r>   -5.5572    1.0000 </r>
       <r>   -5.5548    1.0000 </r>
       <r>   -5.5525    1.0000 </r>
       <r>   -5.5509    1.0000 </r>
       <r>   -5.5502    1.0000 </r>
       <r>   -5.5489    1.0000 </r>
       <r>   -5.5477    1.0000 </r>
       <r>   -5.5460    1.0000 </r>
       <r>   -5.5422    1.0000 </r>
       <r>   -5.4183    1.0000 </r>
       <r>   -5.4171    1.0000 </r>
       <r>   -5.3695    1.0000 </r>
       <r>   -5.2477    1.0000 </r>
       <r>   -5.1470    1.0000 </r>
       <r>   -5.1470    1.0000 </r>
       <r>   -4.9933    1.0000 </r>
       <r>   -4.9233    1.0000 </r>
       <r>   -4.9233    1.0000 </r>
       <r>   -4.8738    1.0000 </r>
       <r>   -4.7492    1.0000 </r>
       <r>   -4.7492    1.0000 </r>
       <r>   -4.7426    1.0000 </r>
       <r>   -4.7426    1.0000 </r>
       <r>   -4.6191    1.0000 </r>
       <r>   -4.6191    1.0000 </r>
       <r>   -4.4776    1.0000 </r>
       <r>   -4.4769    1.0000 </r>
       <r>   -4.4769    1.0000 </r>
       <r>   -4.4746    1.0000 </r>
       <r>   -4.4745    1.0000 </r>
       <r>   -4.4737    1.0000 </r>
       <r>   -4.4734    1.0000 </r>
       <r>   -4.4734    1.0000 </r>
       <r>   -4.4732    1.0000 </r>
       <r>   -4.4716    1.0000 </r>
       <r>   -4.4715    1.0000 </r>
       <r>   -4.4712    1.0000 </r>
       <r>   -4.3424    1.0000 </r>
       <r>   -4.3410    1.0000 </r>
       <r>   -4.3388    1.0000 </r>
       <r>   -4.3388    1.0000 </r>
       <r>   -4.3369    1.0000 </r>
       <r>   -4.3363    1.0000 </r>
       <r>   -4.3352    1.0000 </r>
       <r>   -4.0489    1.0000 </r>
       <r>   -3.9418    1.0000 </r>
       <r>   -3.9418    1.0000 </r>
       <r>   -3.6911    1.0000 </r>
       <r>   -3.6297    1.0000 </r>
       <r>   -3.6297    1.0000 </r>
       <r>   -3.6142    1.0000 </r>
       <r>   -3.5983    1.0000 </r>
       <r>   -3.5189    1.0000 </r>
       <r>   -3.5188    1.0000 </r>
       <r>   -3.3590    1.0000 </r>
       <r>   -3.3411    1.0000 </r>
       <r>   -3.3409    1.0000 </r>
       <r>   -3.3200    1.0000 </r>
       <r>   -3.3200    1.0000 </r>
       <r>   -3.3058    1.0000 </r>
       <r>   -3.3057    1.0000 </r>
       <r>   -3.2206    1.0000 </r>
       <r>   -3.1824    1.0000 </r>
       <r>   -3.1735    1.0000 </r>
       <r>   -3.1734    1.0000 </r>
       <r>   -3.1718    1.0000 </r>
       <r>   -3.1711    1.0000 </r>
       <r>   -3.1337    1.0000 </r>
       <r>   -3.1024    1.0000 </r>
       <r>   -3.1024    1.0000 </r>
       <r>   -3.1013    1.0000 </r>
       <r>   -3.1012    1.0000 </r>
       <r>   -3.1010    1.0000 </r>
       <r>   -3.1010    1.0000 </r>
       <r>   -3.0925    1.0000 </r>
       <r>   -3.0924    1.0000 </r>
       <r>   -3.0913    1.0000 </r>
       <r>   -3.0911    1.0000 </r>
       <r>   -3.0911    1.0000 </r>
       <r>   -3.0910    1.0000 </r>
       <r>   -3.0520    1.0000 </r>
       <r>   -2.9733    1.0000 </r>
       <r>   -2.9706    1.0000 </r>
       <r>   -2.9688    1.0000 </r>
       <r>   -2.9683    1.0000 </r>
       <r>   -2.9666    1.0000 </r>
       <r>   -2.9645    1.0000 </r>
       <r>   -2.9628    1.0000 </r>
       <r>   -2.9245    1.0000 </r>
       <r>   -2.9243    1.0000 </r>
       <r>   -2.9237    1.0000 </r>
       <r>   -2.9237    1.0000 </r>
       <r>   -2.9166    1.0000 </r>
       <r>   -2.9166    1.0000 </r>
       <r>   -2.9156    1.0000 </r>
       <r>   -2.9155    1.0000 </r>
       <r>   -2.9068    1.0000 </r>
       <r>   -2.9055    1.0000 </r>
       <r>   -2.9000    1.0000 </r>
       <r>   -2.8991    1.0000 </r>
       <r>   -2.8913    1.0000 </r>
       <r>   -2.8904    1.0000 </r>
       <r>   -2.8898    1.0000 </r>
       <r>   -2.8890    1.0000 </r>
       <r>   -2.8799    1.0000 </r>
       <r>   -2.8798    1.0000 </r>
       <r>   -2.8786    1.0000 </r>
       <r>   -2.8784    1.0000 </r>
       <r>   -2.8775    1.0000 </r>
       <r>   -2.8773    1.0000 </r>
       <r>   -2.8764    1.0000 </r>
       <r>   -2.8763    1.0000 </r>
       <r>   -2.7742    1.0000 </r>
       <r>   -2.7716    1.0000 </r>
       <r>   -2.7709    1.0000 </r>
       <r>   -2.7700    1.0000 </r>
       <r>   -2.7676    1.0000 </r>
       <r>   -2.7665    1.0000 </r>
       <r>   -2.7645    1.0000 </r>
       <r>   -2.7617    1.0000 </r>
       <r>   -2.7603    1.0000 </r>
       <r>   -2.7596    1.0000 </r>
       <r>   -2.7590    1.0000 </r>
       <r>   -2.7556    1.0000 </r>
       <r>   -2.6300    1.0000 </r>
       <r>   -2.4839    1.0000 </r>
       <r>   -2.4829    1.0000 </r>
       <r>   -2.3150    1.0000 </r>
       <r>   -2.3108    1.0000 </r>
       <r>   -2.3088    1.0000 </r>
       <r>   -2.2825    1.0000 </r>
       <r>   -2.2823    1.0000 </r>
       <r>   -2.2687    1.0000 </r>
       <r>   -2.2329    1.0000 </r>
       <r>   -2.2326    1.0000 </r>
       <r>   -2.2227    1.0000 </r>
       <r>   -2.2222    1.0000 </r>
       <r>   -2.2171    1.0000 </r>
       <r>   -2.2110    1.0000 </r>
       <r>   -2.0979    1.0000 </r>
       <r>   -2.0903    1.0000 </r>
       <r>   -2.0902    1.0000 </r>
       <r>   -1.9558    1.0000 </r>
       <r>   -1.9487    1.0000 </r>
       <r>   -1.9487    1.0000 </r>
       <r>   -1.9428    1.0000 </r>
       <r>   -1.9428    1.0000 </r>
       <r>   -1.8992    1.0000 </r>
       <r>   -1.8464    1.0000 </r>
       <r>   -1.7847    1.0000 </r>
       <r>   -1.7841    1.0000 </r>
       <r>   -1.7824    1.0000 </r>
       <r>   -1.7135    1.0000 </r>
       <r>   -1.7135    1.0000 </r>
       <r>   -1.7134    1.0000 </r>
       <r>   -1.7111    1.0000 </r>
       <r>   -1.7111    1.0000 </r>
       <r>   -1.7110    1.0000 </r>
       <r>   -1.5826    1.0000 </r>
       <r>   -1.5807    1.0000 </r>
       <r>   -1.5789    1.0000 </r>
       <r>   -1.5481    1.0000 </r>
       <r>   -1.5454    1.0000 </r>
       <r>   -1.5454    1.0000 </r>
       <r>   -1.5228    1.0000 </r>
       <r>   -1.5228    1.0000 </r>
       <r>   -1.5016    1.0000 </r>
       <r>   -1.5015    1.0000 </r>
       <r>   -1.5006    1.0000 </r>
       <r>   -1.4998    1.0000 </r>
       <r>   -1.4997    1.0000 </r>
       <r>   -1.4985    1.0000 </r>
       <r>   -1.4967    1.0000 </r>
       <r>   -1.4966    1.0000 </r>
       <r>   -1.4966    1.0000 </r>
       <r>   -1.4922    1.0000 </r>
       <r>   -1.4921    1.0000 </r>
       <r>   -1.4917    1.0000 </r>
       <r>   -1.4865    1.0000 </r>
       <r>   -1.4865    1.0000 </r>
       <r>   -1.4779    1.0000 </r>
       <r>   -1.3718    1.0000 </r>
       <r>   -1.3690    1.0000 </r>
       <r>   -1.3679    1.0000 </r>
       <r>   -1.3666    1.0000 </r>
       <r>   -1.3656    1.0000 </r>
       <r>   -1.3629    1.0000 </r>
       <r>   -1.3575    1.0000 </r>
       <r>   -1.3567    1.0000 </r>
       <r>   -1.3555    1.0000 </r>
       <r>   -1.2581    1.0000 </r>
       <r>   -1.2410    1.0000 </r>
       <r>   -1.2409    1.0000 </r>
       <r>   -1.1924    1.0000 </r>
       <r>   -1.1833    1.0000 </r>
       <r>   -1.1820    1.0000 </r>
       <r>   -1.1546    1.0000 </r>
       <r>   -1.1530    1.0000 </r>
       <r>   -1.1514    1.0000 </r>
       <r>   -1.1508    1.0000 </r>
       <r>   -1.1507    1.0000 </r>
       <r>   -1.1495    1.0000 </r>
       <r>   -1.1494    1.0000 </r>
       <r>   -1.1492    1.0000 </r>
       <r>   -1.1486    1.0000 </r>
       <r>   -1.1484    1.0000 </r>
       <r>   -1.1484    1.0000 </r>
       <r>   -1.1472    1.0000 </r>
       <r>   -1.1472    1.0000 </r>
       <r>   -1.1463    1.0000 </r>
       <r>   -1.1365    1.0000 </r>
       <r>   -1.1291    1.0000 </r>
       <r>   -1.1184    1.0000 </r>
       <r>   -1.1173    1.0000 </r>
       <r>   -1.1058    1.0000 </r>
       <r>   -1.0246    1.0000 </r>
       <r>   -1.0211    1.0000 </r>
       <r>   -1.0193    1.0000 </r>
       <r>   -1.0191    1.0000 </r>
       <r>   -1.0175    1.0000 </r>
       <r>   -1.0139    1.0000 </r>
       <r>   -0.9658    1.0000 </r>
       <r>   -0.9652    1.0000 </r>
       <r>   -0.9607    1.0000 </r>
       <r>   -0.9491    1.0000 </r>
       <r>   -0.9368    1.0000 </r>
       <r>   -0.9349    1.0000 </r>
       <r>   -0.8727    1.0000 </r>
       <r>   -0.8690    1.0000 </r>
       <r>   -0.8688    1.0000 </r>
       <r>   -0.8636    1.0000 </r>
       <r>   -0.8520    1.0000 </r>
       <r>   -0.8519    1.0000 </r>
       <r>   -0.8504    1.0000 </r>
       <r>   -0.8503    1.0000 </r>
       <r>   -0.8499    1.0000 </r>
       <r>   -0.8497    1.0000 </r>
       <r>   -0.8481    1.0000 </r>
       <r>   -0.8439    1.0000 </r>
       <r>   -0.8437    1.0000 </r>
       <r>   -0.8423    1.0000 </r>
       <r>   -0.8418    1.0000 </r>
       <r>   -0.8334    1.0000 </r>
       <r>   -0.8332    1.0000 </r>
       <r>   -0.8253    1.0000 </r>
       <r>   -0.7268    1.0000 </r>
       <r>   -0.7248    1.0000 </r>
       <r>   -0.7229    1.0000 </r>
       <r>   -0.7209    1.0000 </r>
       <r>   -0.7184    1.0000 </r>
       <r>   -0.7129    1.0000 </r>
       <r>   -0.4777    1.0000 </r>
       <r>   -0.4756    1.0000 </r>
       <r>   -0.4159    1.0000 </r>
       <r>   -0.3475    1.0000 </r>
       <r>   -0.3462    1.0000 </r>
       <r>   -0.3385    1.0000 </r>
       <r>   -0.3349    1.0000 </r>
       <r>   -0.2611    1.0000 </r>
       <r>   -0.2595    1.0000 </r>
       <r>   -0.2595    1.0000 </r>
       <r>   -0.2473    1.0000 </r>
       <r>   -0.2471    1.0000 </r>
       <r>   -0.2441    1.0000 </r>
       <r>   -0.2439    1.0000 </r>
       <r>   -0.2415    1.0000 </r>
       <r>   -0.0889    1.0000 </r>
       <r>   -0.0889    1.0000 </r>
       <r>   -0.0392    1.0000 </r>
       <r>    0.0122    1.0000 </r>
       <r>    0.0129    1.0000 </r>
       <r>    0.0542    1.0000 </r>
       <r>    0.0841    1.0000 </r>
       <r>    0.0855    1.0000 </r>
       <r>    0.0875    1.0000 </r>
       <r>    0.1955    1.0000 </r>
       <r>    0.1961    1.0000 </r>
       <r>    0.2140    1.0000 </r>
       <r>    0.2154    1.0000 </r>
       <r>    0.2175    1.0000 </r>
       <r>    0.2177    1.0000 </r>
       <r>    0.2191    1.0000 </r>
       <r>    0.2193    1.0000 </r>
       <r>    0.2369    1.0000 </r>
       <r>    0.2369    1.0000 </r>
       <r>    0.2384    1.0000 </r>
       <r>    0.2385    1.0000 </r>
       <r>    0.2453    1.0000 </r>
       <r>    0.2469    1.0000 </r>
       <r>    0.3498    1.0000 </r>
       <r>    0.3535    1.0000 </r>
       <r>    0.3553    1.0000 </r>
       <r>    0.3603    1.0000 </r>
       <r>    0.3620    1.0000 </r>
       <r>    0.3649    1.0000 </r>
       <r>    0.3670    1.0000 </r>
       <r>    0.5175    1.0000 </r>
       <r>    0.5616    1.0000 </r>
       <r>    0.5621    1.0000 </r>
       <r>    0.6106    1.0000 </r>
       <r>    0.6111    1.0000 </r>
       <r>    0.6164    1.0000 </r>
       <r>    0.6193    1.0000 </r>
       <r>    0.6333    1.0000 </r>
       <r>    0.6348    1.0000 </r>
       <r>    0.6412    1.0000 </r>
       <r>    0.6418    1.0000 </r>
       <r>    0.6683    1.0000 </r>
       <r>    0.6792    1.0000 </r>
       <r>    0.6824    1.0000 </r>
       <r>    0.6827    1.0000 </r>
       <r>    0.7435    1.0000 </r>
       <r>    0.7436    1.0000 </r>
       <r>    0.8617    1.0000 </r>
       <r>    0.8620    1.0000 </r>
       <r>    0.8694    1.0000 </r>
       <r>    1.0552    1.0000 </r>
       <r>    1.0554    1.0000 </r>
       <r>    1.1336    1.0000 </r>
       <r>    1.1336    1.0000 </r>
       <r>    1.1345    1.0000 </r>
       <r>    1.1345    1.0000 </r>
       <r>    1.1363    1.0000 </r>
       <r>    1.1661    1.0000 </r>
       <r>    1.1942    1.0000 </r>
       <r>    1.1945    1.0000 </r>
       <r>    1.2305    1.0000 </r>
       <r>    1.2431    1.0000 </r>
       <r>    1.2447    1.0000 </r>
       <r>    1.2581    1.0000 </r>
       <r>    1.2595    1.0000 </r>
       <r>    1.2640    1.0000 </r>
       <r>    1.2760    1.0000 </r>
       <r>    1.2763    1.0000 </r>
       <r>    1.2832    1.0000 </r>
       <r>    1.2835    1.0000 </r>
       <r>    1.2835    1.0000 </r>
       <r>    1.2837    1.0000 </r>
       <r>    1.3022    1.0000 </r>
       <r>    1.3025    1.0000 </r>
       <r>    1.3230    1.0000 </r>
       <r>    1.3234    1.0000 </r>
       <r>    1.3339    1.0000 </r>
       <r>    1.3339    1.0000 </r>
       <r>    1.3404    1.0000 </r>
       <r>    1.3430    1.0000 </r>
       <r>    1.4059    1.0000 </r>
       <r>    1.4065    1.0000 </r>
       <r>    1.4081    1.0000 </r>
       <r>    1.4840    1.0000 </r>
       <r>    1.4864    1.0000 </r>
       <r>    1.4864    1.0000 </r>
       <r>    1.8118    1.0000 </r>
       <r>    1.8123    1.0000 </r>
       <r>    1.8428    1.0000 </r>
       <r>    1.8724    1.0000 </r>
       <r>    1.8978    1.0000 </r>
       <r>    1.8986    1.0000 </r>
       <r>    1.9049    1.0000 </r>
       <r>    1.9058    1.0000 </r>
       <r>    1.9275    1.0000 </r>
       <r>    1.9323    1.0000 </r>
       <r>    1.9330    1.0000 </r>
       <r>    1.9376    1.0000 </r>
       <r>    1.9618    1.0000 </r>
       <r>    1.9634    1.0000 </r>
       <r>    1.9652    1.0000 </r>
       <r>    2.0554    1.0000 </r>
       <r>    2.0555    1.0000 </r>
       <r>    2.3304    1.0000 </r>
       <r>    2.3383    1.0000 </r>
       <r>    2.4110    1.0000 </r>
       <r>    2.4143    1.0000 </r>
       <r>    2.5027    1.0000 </r>
       <r>    2.5047    1.0000 </r>
       <r>    4.6653    1.0000 </r>
       <r>    5.8785    0.0000 </r>
       <r>    6.4871    0.0000 </r>
       <r>    6.4871    0.0000 </r>
       <r>    6.6764    0.0000 </r>
       <r>    6.7122    0.0000 </r>
       <r>    7.0089    0.0000 </r>
       <r>    7.0341    0.0000 </r>
       <r>    7.0352    0.0000 </r>
       <r>    7.0860    0.0000 </r>
       <r>    7.0861    0.0000 </r>
       <r>    7.1684    0.0000 </r>
       <r>    7.1684    0.0000 </r>
       <r>    7.1752    0.0000 </r>
       <r>    7.2464    0.0000 </r>
       <r>    7.2850    0.0000 </r>
       <r>    7.2850    0.0000 </r>
       <r>    7.3027    0.0000 </r>
       <r>    7.3529    0.0000 </r>
       <r>    7.3572    0.0000 </r>
       <r>    7.3574    0.0000 </r>
       <r>    7.3941    0.0000 </r>
       <r>    7.4339    0.0000 </r>
       <r>    7.4340    0.0000 </r>
       <r>    7.5403    0.0000 </r>
       <r>    7.5404    0.0000 </r>
       <r>    7.5889    0.0000 </r>
       <r>    7.5910    0.0000 </r>
       <r>    7.5911    0.0000 </r>
       <r>    7.6061    0.0000 </r>
       <r>    7.6837    0.0000 </r>
       <r>    7.7750    0.0000 </r>
       <r>    7.8098    0.0000 </r>
       <r>    7.8103    0.0000 </r>
       <r>    7.8288    0.0000 </r>
       <r>    7.8472    0.0000 </r>
       <r>    7.8473    0.0000 </r>
       <r>    7.8551    0.0000 </r>
       <r>    7.8562    0.0000 </r>
       <r>    7.8725    0.0000 </r>
       <r>    7.8829    0.0000 </r>
       <r>    7.8835    0.0000 </r>
       <r>    7.8855    0.0000 </r>
       <r>    7.8883    0.0000 </r>
       <r>    7.8884    0.0000 </r>
       <r>    7.9048    0.0000 </r>
       <r>    7.9060    0.0000 </r>
       <r>    7.9084    0.0000 </r>
       <r>    7.9141    0.0000 </r>
       <r>    7.9143    0.0000 </r>
       <r>    7.9144    0.0000 </r>
       <r>    7.9222    0.0000 </r>
       <r>    7.9268    0.0000 </r>
       <r>    7.9328    0.0000 </r>
       <r>    7.9329    0.0000 </r>
       <r>    8.0383    0.0000 </r>
       <r>    8.0418    0.0000 </r>
       <r>    8.0423    0.0000 </r>
       <r>    8.3779    0.0000 </r>
       <r>    8.4271    0.0000 </r>
       <r>    8.4275    0.0000 </r>
       <r>    8.4315    0.0000 </r>
       <r>    8.4318    0.0000 </r>
       <r>    8.4336    0.0000 </r>
       <r>    8.4623    0.0000 </r>
       <r>    8.4634    0.0000 </r>
       <r>    8.4792    0.0000 </r>
       <r>    8.4805    0.0000 </r>
       <r>    8.4985    0.0000 </r>
       <r>    8.5008    0.0000 </r>
       <r>    8.5026    0.0000 </r>
       <r>    8.5043    0.0000 </r>
       <r>    8.5366    0.0000 </r>
       <r>    8.5372    0.0000 </r>
       <r>    8.5662    0.0000 </r>
       <r>    8.6763    0.0000 </r>
       <r>    8.8638    0.0000 </r>
       <r>    9.1435    0.0000 </r>
       <r>    9.1435    0.0000 </r>
       <r>    9.1892    0.0000 </r>
       <r>    9.1892    0.0000 </r>
       <r>    9.2207    0.0000 </r>
       <r>    9.2356    0.0000 </r>
       <r>    9.2364    0.0000 </r>
       <r>    9.5074    0.0000 </r>
       <r>    9.5254    0.0000 </r>
       <r>    9.5256    0.0000 </r>
       <r>    9.5275    0.0000 </r>
       <r>    9.5300    0.0000 </r>
       <r>    9.5307    0.0000 </r>
       <r>    9.5327    0.0000 </r>
       <r>    9.5366    0.0000 </r>
       <r>    9.5382    0.0000 </r>
       <r>    9.5406    0.0000 </r>
       <r>    9.5980    0.0000 </r>
       <r>    9.5992    0.0000 </r>
       <r>    9.8698    0.0000 </r>
       <r>    9.9627    0.0000 </r>
       <r>   10.0314    0.0000 </r>
       <r>   10.1169    0.0000 </r>
       <r>   10.1199    0.0000 </r>
       <r>   10.1275    0.0000 </r>
       <r>   10.1279    0.0000 </r>
       <r>   10.1384    0.0000 </r>
       <r>   10.1423    0.0000 </r>
       <r>   10.1541    0.0000 </r>
       <r>   10.1568    0.0000 </r>
       <r>   10.1578    0.0000 </r>
       <r>   10.1689    0.0000 </r>
       <r>   10.2277    0.0000 </r>
       <r>   10.2416    0.0000 </r>
       <r>   10.2877    0.0000 </r>
       <r>   10.2890    0.0000 </r>
       <r>   10.3207    0.0000 </r>
       <r>   10.3216    0.0000 </r>
       <r>   10.3623    0.0000 </r>
       <r>   10.4406    0.0000 </r>
       <r>   10.4421    0.0000 </r>
       <r>   10.4431    0.0000 </r>
       <r>   10.4624    0.0000 </r>
       <r>   10.4630    0.0000 </r>
       <r>   10.4677    0.0000 </r>
       <r>   10.4829    0.0000 </r>
       <r>   10.5078    0.0000 </r>
       <r>   10.5178    0.0000 </r>
       <r>   10.5186    0.0000 </r>
       <r>   10.5217    0.0000 </r>
       <r>   10.5242    0.0000 </r>
       <r>   10.5719    0.0000 </r>
       <r>   10.5731    0.0000 </r>
       <r>   10.5741    0.0000 </r>
       <r>   10.5766    0.0000 </r>
       <r>   10.5772    0.0000 </r>
       <r>   10.5904    0.0000 </r>
       <r>   10.6023    0.0000 </r>
       <r>   10.6043    0.0000 </r>
       <r>   10.6485    0.0000 </r>
       <r>   10.7352    0.0000 </r>
       <r>   10.8303    0.0000 </r>
       <r>   10.8524    0.0000 </r>
       <r>   10.8729    0.0000 </r>
       <r>   10.8789    0.0000 </r>
       <r>   10.8832    0.0000 </r>
       <r>   10.8864    0.0000 </r>
       <r>   10.9032    0.0000 </r>
       <r>   10.9263    0.0000 </r>
       <r>   10.9429    0.0000 </r>
       <r>   10.9529    0.0000 </r>
       <r>   10.9571    0.0000 </r>
       <r>   10.9641    0.0000 </r>
       <r>   12.1217    0.0000 </r>
       <r>   12.3917    0.0000 </r>
      </set>
      <set comment="kpoint 2">
       <r>  -17.2935    1.0000 </r>
       <r>  -15.7754    1.0000 </r>
       <r>  -15.7301    1.0000 </r>
       <r>  -15.4204    1.0000 </r>
       <r>  -15.3138    1.0000 </r>
       <r>  -15.2493    1.0000 </r>
       <r>  -15.2284    1.0000 </r>
       <r>  -15.1966    1.0000 </r>
       <r>  -15.1885    1.0000 </r>
       <r>  -15.1018    1.0000 </r>
       <r>  -15.0677    1.0000 </r>
       <r>  -15.0256    1.0000 </r>
       <r>  -15.0079    1.0000 </r>
       <r>  -14.9553    1.0000 </r>
       <r>  -14.9471    1.0000 </r>
       <r>  -14.9376    1.0000 </r>
       <r>  -14.9358    1.0000 </r>
       <r>  -14.8565    1.0000 </r>
       <r>  -14.7531    1.0000 </r>
       <r>  -14.7527    1.0000 </r>
       <r>  -14.6207    1.0000 </r>
       <r>  -14.5700    1.0000 </r>
       <r>  -14.5557    1.0000 </r>
       <r>  -14.4583    1.0000 </r>
       <r>  -14.4454    1.0000 </r>
       <r>  -14.4429    1.0000 </r>
       <r>  -14.4300    1.0000 </r>
       <r>  -14.4248    1.0000 </r>
       <r>  -14.4201    1.0000 </r>
       <r>  -14.4161    1.0000 </r>
       <r>  -14.4146    1.0000 </r>
       <r>  -14.3550    1.0000 </r>
       <r>  -14.2478    1.0000 </r>
       <r>  -14.2413    1.0000 </r>
       <r>  -14.2402    1.0000 </r>
       <r>  -14.2385    1.0000 </r>
       <r>  -14.2014    1.0000 </r>
       <r>  -14.1916    1.0000 </r>
       <r>  -14.1676    1.0000 </r>
       <r>  -14.1664    1.0000 </r>
       <r>  -14.1215    1.0000 </r>
       <r>  -14.0363    1.0000 </r>
       <r>  -13.9967    1.0000 </r>
       <r>  -13.9948    1.0000 </r>
       <r>  -13.9467    1.0000 </r>
       <r>  -13.7938    1.0000 </r>
       <r>  -13.7360    1.0000 </r>
       <r>  -13.7124    1.0000 </r>
       <r>  -13.7091    1.0000 </r>
       <r>  -13.7066    1.0000 </r>
       <r>  -13.6970    1.0000 </r>
       <r>  -13.6945    1.0000 </r>
       <r>  -13.6741    1.0000 </r>
       <r>  -13.6737    1.0000 </r>
       <r>  -13.6080    1.0000 </r>
       <r>  -13.5307    1.0000 </r>
       <r>  -13.5304    1.0000 </r>
       <r>  -13.5177    1.0000 </r>
       <r>  -13.5141    1.0000 </r>
       <r>  -13.5055    1.0000 </r>
       <r>  -13.3598    1.0000 </r>
       <r>  -13.3380    1.0000 </r>
       <r>  -13.2556    1.0000 </r>
       <r>  -13.2235    1.0000 </r>
       <r>  -13.1146    1.0000 </r>
       <r>  -13.0596    1.0000 </r>
       <r>  -13.0538    1.0000 </r>
       <r>  -13.0510    1.0000 </r>
       <r>  -13.0430    1.0000 </r>
       <r>  -13.0397    1.0000 </r>
       <r>  -13.0374    1.0000 </r>
       <r>  -13.0347    1.0000 </r>
       <r>  -13.0332    1.0000 </r>
       <r>  -12.9771    1.0000 </r>
       <r>  -12.9315    1.0000 </r>
       <r>  -12.8890    1.0000 </r>
       <r>  -12.8846    1.0000 </r>
       <r>  -12.8820    1.0000 </r>
       <r>  -12.8814    1.0000 </r>
       <r>  -12.8755    1.0000 </r>
       <r>  -12.8736    1.0000 </r>
       <r>  -12.8717    1.0000 </r>
       <r>  -12.8715    1.0000 </r>
       <r>  -12.8693    1.0000 </r>
       <r>  -12.8672    1.0000 </r>
       <r>  -12.8634    1.0000 </r>
       <r>  -12.8629    1.0000 </r>
       <r>  -12.8608    1.0000 </r>
       <r>  -12.7176    1.0000 </r>
       <r>  -12.7155    1.0000 </r>
       <r>  -12.7136    1.0000 </r>
       <r>  -12.7110    1.0000 </r>
       <r>  -12.6823    1.0000 </r>
       <r>  -12.6100    1.0000 </r>
       <r>  -12.5913    1.0000 </r>
       <r>  -12.5840    1.0000 </r>
       <r>  -12.5695    1.0000 </r>
       <r>  -12.5550    1.0000 </r>
       <r>  -12.5334    1.0000 </r>
       <r>  -12.4988    1.0000 </r>
       <r>  -12.4378    1.0000 </r>
       <r>  -12.4314    1.0000 </r>
       <r>  -12.4233    1.0000 </r>
       <r>  -12.4210    1.0000 </r>
       <r>  -12.3361    1.0000 </r>
       <r>  -12.3321    1.0000 </r>
       <r>  -12.3282    1.0000 </r>
       <r>  -12.3233    1.0000 </r>
       <r>  -12.2439    1.0000 </r>
       <r>  -12.2423    1.0000 </r>
       <r>  -12.2392    1.0000 </r>
       <r>  -12.2363    1.0000 </r>
       <r>  -12.2170    1.0000 </r>
       <r>  -12.2150    1.0000 </r>
       <r>  -12.2103    1.0000 </r>
       <r>  -12.2082    1.0000 </r>
       <r>  -12.1778    1.0000 </r>
       <r>  -12.1759    1.0000 </r>
       <r>  -12.1702    1.0000 </r>
       <r>  -12.1696    1.0000 </r>
       <r>  -12.0964    1.0000 </r>
       <r>  -12.0961    1.0000 </r>
       <r>  -12.0915    1.0000 </r>
       <r>  -12.0884    1.0000 </r>
       <r>  -12.0850    1.0000 </r>
       <r>  -12.0827    1.0000 </r>
       <r>  -11.9501    1.0000 </r>
       <r>  -11.9479    1.0000 </r>
       <r>  -11.9468    1.0000 </r>
       <r>  -11.9445    1.0000 </r>
       <r>  -11.8160    1.0000 </r>
       <r>  -11.8148    1.0000 </r>
       <r>  -11.8066    1.0000 </r>
       <r>  -11.8061    1.0000 </r>
       <r>  -11.8058    1.0000 </r>
       <r>  -11.8050    1.0000 </r>
       <r>  -11.7843    1.0000 </r>
       <r>  -11.7840    1.0000 </r>
       <r>  -11.7805    1.0000 </r>
       <r>  -11.7803    1.0000 </r>
       <r>  -11.6687    1.0000 </r>
       <r>  -11.6682    1.0000 </r>
       <r>  -11.6645    1.0000 </r>
       <r>  -11.6580    1.0000 </r>
       <r>   -8.3630    1.0000 </r>
       <r>   -7.2839    1.0000 </r>
       <r>   -7.2706    1.0000 </r>
       <r>   -6.7936    1.0000 </r>
       <r>   -6.7047    1.0000 </r>
       <r>   -6.6828    1.0000 </r>
       <r>   -6.4379    1.0000 </r>
       <r>   -6.4062    1.0000 </r>
       <r>   -6.3220    1.0000 </r>
       <r>   -6.3075    1.0000 </r>
       <r>   -6.3053    1.0000 </r>
       <r>   -6.3046    1.0000 </r>
       <r>   -6.3004    1.0000 </r>
       <r>   -6.2874    1.0000 </r>
       <r>   -6.2735    1.0000 </r>
       <r>   -6.2726    1.0000 </r>
       <r>   -6.2710    1.0000 </r>
       <r>   -6.2709    1.0000 </r>
       <r>   -6.2163    1.0000 </r>
       <r>   -6.2141    1.0000 </r>
       <r>   -6.2130    1.0000 </r>
       <r>   -6.2044    1.0000 </r>
       <r>   -6.1984    1.0000 </r>
       <r>   -6.1959    1.0000 </r>
       <r>   -6.1585    1.0000 </r>
       <r>   -6.1582    1.0000 </r>
       <r>   -6.1522    1.0000 </r>
       <r>   -6.1470    1.0000 </r>
       <r>   -6.0719    1.0000 </r>
       <r>   -6.0707    1.0000 </r>
       <r>   -5.9328    1.0000 </r>
       <r>   -5.9307    1.0000 </r>
       <r>   -5.9078    1.0000 </r>
       <r>   -5.9067    1.0000 </r>
       <r>   -5.8438    1.0000 </r>
       <r>   -5.7893    1.0000 </r>
       <r>   -5.7812    1.0000 </r>
       <r>   -5.7741    1.0000 </r>
       <r>   -5.7676    1.0000 </r>
       <r>   -5.7646    1.0000 </r>
       <r>   -5.7635    1.0000 </r>
       <r>   -5.7634    1.0000 </r>
       <r>   -5.7625    1.0000 </r>
       <r>   -5.7572    1.0000 </r>
       <r>   -5.7525    1.0000 </r>
       <r>   -5.7519    1.0000 </r>
       <r>   -5.7433    1.0000 </r>
       <r>   -5.6847    1.0000 </r>
       <r>   -5.6546    1.0000 </r>
       <r>   -5.6420    1.0000 </r>
       <r>   -5.6235    1.0000 </r>
       <r>   -5.6229    1.0000 </r>
       <r>   -5.6205    1.0000 </r>
       <r>   -5.6185    1.0000 </r>
       <r>   -5.2273    1.0000 </r>
       <r>   -5.2259    1.0000 </r>
       <r>   -5.2242    1.0000 </r>
       <r>   -5.2230    1.0000 </r>
       <r>   -5.2218    1.0000 </r>
       <r>   -5.2213    1.0000 </r>
       <r>   -5.2210    1.0000 </r>
       <r>   -5.2204    1.0000 </r>
       <r>   -5.2193    1.0000 </r>
       <r>   -5.2186    1.0000 </r>
       <r>   -5.2177    1.0000 </r>
       <r>   -5.2176    1.0000 </r>
       <r>   -5.1151    1.0000 </r>
       <r>   -5.1103    1.0000 </r>
       <r>   -5.0951    1.0000 </r>
       <r>   -5.0908    1.0000 </r>
       <r>   -5.0889    1.0000 </r>
       <r>   -5.0875    1.0000 </r>
       <r>   -5.0862    1.0000 </r>
       <r>   -5.0843    1.0000 </r>
       <r>   -5.0260    1.0000 </r>
       <r>   -4.9210    1.0000 </r>
       <r>   -4.8318    1.0000 </r>
       <r>   -4.6116    1.0000 </r>
       <r>   -4.5542    1.0000 </r>
       <r>   -4.5413    1.0000 </r>
       <r>   -4.4758    1.0000 </r>
       <r>   -4.4733    1.0000 </r>
       <r>   -4.4718    1.0000 </r>
       <r>   -4.4713    1.0000 </r>
       <r>   -4.4708    1.0000 </r>
       <r>   -4.4693    1.0000 </r>
       <r>   -4.4679    1.0000 </r>
       <r>   -4.4677    1.0000 </r>
       <r>   -4.3433    1.0000 </r>
       <r>   -4.3414    1.0000 </r>
       <r>   -4.3400    1.0000 </r>
       <r>   -4.3373    1.0000 </r>
       <r>   -4.3172    1.0000 </r>
       <r>   -4.3163    1.0000 </r>
       <r>   -4.2018    1.0000 </r>
       <r>   -4.0977    1.0000 </r>
       <r>   -4.0875    1.0000 </r>
       <r>   -4.0872    1.0000 </r>
       <r>   -4.0848    1.0000 </r>
       <r>   -4.0839    1.0000 </r>
       <r>   -4.0743    1.0000 </r>
       <r>   -4.0740    1.0000 </r>
       <r>   -4.0720    1.0000 </r>
       <r>   -4.0710    1.0000 </r>
       <r>   -4.0288    1.0000 </r>
       <r>   -3.9505    1.0000 </r>
       <r>   -3.9497    1.0000 </r>
       <r>   -3.9468    1.0000 </r>
       <r>   -3.9457    1.0000 </r>
       <r>   -3.9093    1.0000 </r>
       <r>   -3.8654    1.0000 </r>
       <r>   -3.7856    1.0000 </r>
       <r>   -3.7512    1.0000 </r>
       <r>   -3.6234    1.0000 </r>
       <r>   -3.6215    1.0000 </r>
       <r>   -3.6154    1.0000 </r>
       <r>   -3.6139    1.0000 </r>
       <r>   -3.6037    1.0000 </r>
       <r>   -3.6030    1.0000 </r>
       <r>   -3.5986    1.0000 </r>
       <r>   -3.5980    1.0000 </r>
       <r>   -3.5158    1.0000 </r>
       <r>   -3.4796    1.0000 </r>
       <r>   -3.4785    1.0000 </r>
       <r>   -3.4774    1.0000 </r>
       <r>   -3.4770    1.0000 </r>
       <r>   -3.4745    1.0000 </r>
       <r>   -3.4689    1.0000 </r>
       <r>   -3.4683    1.0000 </r>
       <r>   -3.4654    1.0000 </r>
       <r>   -3.4645    1.0000 </r>
       <r>   -3.4504    1.0000 </r>
       <r>   -3.3495    1.0000 </r>
       <r>   -3.3387    1.0000 </r>
       <r>   -3.3365    1.0000 </r>
       <r>   -3.1560    1.0000 </r>
       <r>   -3.1300    1.0000 </r>
       <r>   -3.0973    1.0000 </r>
       <r>   -3.0761    1.0000 </r>
       <r>   -3.0741    1.0000 </r>
       <r>   -3.0700    1.0000 </r>
       <r>   -3.0691    1.0000 </r>
       <r>   -2.9929    1.0000 </r>
       <r>   -2.9392    1.0000 </r>
       <r>   -2.9381    1.0000 </r>
       <r>   -2.9330    1.0000 </r>
       <r>   -2.8558    1.0000 </r>
       <r>   -2.8102    1.0000 </r>
       <r>   -2.7793    1.0000 </r>
       <r>   -2.7706    1.0000 </r>
       <r>   -2.7697    1.0000 </r>
       <r>   -2.7566    1.0000 </r>
       <r>   -2.7538    1.0000 </r>
       <r>   -2.7356    1.0000 </r>
       <r>   -2.7263    1.0000 </r>
       <r>   -2.6832    1.0000 </r>
       <r>   -2.6793    1.0000 </r>
       <r>   -2.6688    1.0000 </r>
       <r>   -2.6673    1.0000 </r>
       <r>   -2.6673    1.0000 </r>
       <r>   -2.5445    1.0000 </r>
       <r>   -2.5415    1.0000 </r>
       <r>   -2.5231    1.0000 </r>
       <r>   -2.5227    1.0000 </r>
       <r>   -2.5123    1.0000 </r>
       <r>   -2.4608    1.0000 </r>
       <r>   -2.4251    1.0000 </r>
       <r>   -2.4158    1.0000 </r>
       <r>   -2.3849    1.0000 </r>
       <r>   -2.3763    1.0000 </r>
       <r>   -2.3744    1.0000 </r>
       <r>   -2.3742    1.0000 </r>
       <r>   -2.3734    1.0000 </r>
       <r>   -2.3721    1.0000 </r>
       <r>   -2.3707    1.0000 </r>
       <r>   -2.3698    1.0000 </r>
       <r>   -2.3688    1.0000 </r>
       <r>   -2.3602    1.0000 </r>
       <r>   -2.3586    1.0000 </r>
       <r>   -2.3555    1.0000 </r>
       <r>   -2.3291    1.0000 </r>
       <r>   -2.2676    1.0000 </r>
       <r>   -2.2453    1.0000 </r>
       <r>   -2.2414    1.0000 </r>
       <r>   -2.2397    1.0000 </r>
       <r>   -2.2384    1.0000 </r>
       <r>   -2.2117    1.0000 </r>
       <r>   -2.1750    1.0000 </r>
       <r>   -2.1451    1.0000 </r>
       <r>   -2.1297    1.0000 </r>
       <r>   -2.0890    1.0000 </r>
       <r>   -2.0885    1.0000 </r>
       <r>   -2.0883    1.0000 </r>
       <r>   -2.0876    1.0000 </r>
       <r>   -2.0553    1.0000 </r>
       <r>   -2.0550    1.0000 </r>
       <r>   -2.0541    1.0000 </r>
       <r>   -2.0536    1.0000 </r>
       <r>   -2.0401    1.0000 </r>
       <r>   -2.0326    1.0000 </r>
       <r>   -2.0105    1.0000 </r>
       <r>   -2.0099    1.0000 </r>
       <r>   -1.9826    1.0000 </r>
       <r>   -1.9430    1.0000 </r>
       <r>   -1.9426    1.0000 </r>
       <r>   -1.9343    1.0000 </r>
       <r>   -1.9300    1.0000 </r>
       <r>   -1.8967    1.0000 </r>
       <r>   -1.8697    1.0000 </r>
       <r>   -1.8678    1.0000 </r>
       <r>   -1.8669    1.0000 </r>
       <r>   -1.8654    1.0000 </r>
       <r>   -1.8574    1.0000 </r>
       <r>   -1.8550    1.0000 </r>
       <r>   -1.8231    1.0000 </r>
       <r>   -1.8217    1.0000 </r>
       <r>   -1.8166    1.0000 </r>
       <r>   -1.8142    1.0000 </r>
       <r>   -1.7856    1.0000 </r>
       <r>   -1.7773    1.0000 </r>
       <r>   -1.7771    1.0000 </r>
       <r>   -1.7760    1.0000 </r>
       <r>   -1.7759    1.0000 </r>
       <r>   -1.7755    1.0000 </r>
       <r>   -1.7754    1.0000 </r>
       <r>   -1.7744    1.0000 </r>
       <r>   -1.7740    1.0000 </r>
       <r>   -1.7166    1.0000 </r>
       <r>   -1.7087    1.0000 </r>
       <r>   -1.7081    1.0000 </r>
       <r>   -1.6962    1.0000 </r>
       <r>   -1.6608    1.0000 </r>
       <r>   -1.6504    1.0000 </r>
       <r>   -1.6465    1.0000 </r>
       <r>   -1.6454    1.0000 </r>
       <r>   -1.6447    1.0000 </r>
       <r>   -1.6418    1.0000 </r>
       <r>   -1.6348    1.0000 </r>
       <r>   -1.6171    1.0000 </r>
       <r>   -1.6129    1.0000 </r>
       <r>   -1.6045    1.0000 </r>
       <r>   -1.6035    1.0000 </r>
       <r>   -1.5830    1.0000 </r>
       <r>   -1.5807    1.0000 </r>
       <r>   -1.5804    1.0000 </r>
       <r>   -1.5667    1.0000 </r>
       <r>   -1.5660    1.0000 </r>
       <r>   -1.5586    1.0000 </r>
       <r>   -1.5539    1.0000 </r>
       <r>   -1.5512    1.0000 </r>
       <r>   -1.4912    1.0000 </r>
       <r>   -1.4567    1.0000 </r>
       <r>   -1.4408    1.0000 </r>
       <r>   -1.4339    1.0000 </r>
       <r>   -1.3508    1.0000 </r>
       <r>   -1.3479    1.0000 </r>
       <r>   -1.3392    1.0000 </r>
       <r>   -1.3382    1.0000 </r>
       <r>   -1.2294    1.0000 </r>
       <r>   -1.2292    1.0000 </r>
       <r>   -1.2260    1.0000 </r>
       <r>   -1.2259    1.0000 </r>
       <r>   -1.2121    1.0000 </r>
       <r>   -1.2119    1.0000 </r>
       <r>   -1.2100    1.0000 </r>
       <r>   -1.2082    1.0000 </r>
       <r>   -1.1910    1.0000 </r>
       <r>   -1.0923    1.0000 </r>
       <r>   -1.0921    1.0000 </r>
       <r>   -1.0864    1.0000 </r>
       <r>   -1.0807    1.0000 </r>
       <r>   -1.0521    1.0000 </r>
       <r>   -1.0264    1.0000 </r>
       <r>   -1.0140    1.0000 </r>
       <r>   -0.9785    1.0000 </r>
       <r>   -0.9323    1.0000 </r>
       <r>   -0.8687    1.0000 </r>
       <r>   -0.8464    1.0000 </r>
       <r>   -0.7824    1.0000 </r>
       <r>   -0.7785    1.0000 </r>
       <r>   -0.7575    1.0000 </r>
       <r>   -0.7242    1.0000 </r>
       <r>   -0.7171    1.0000 </r>
       <r>   -0.7134    1.0000 </r>
       <r>   -0.7114    1.0000 </r>
       <r>   -0.7101    1.0000 </r>
       <r>   -0.6782    1.0000 </r>
       <r>   -0.6769    1.0000 </r>
       <r>   -0.6751    1.0000 </r>
       <r>   -0.6744    1.0000 </r>
       <r>   -0.6618    1.0000 </r>
       <r>   -0.6577    1.0000 </r>
       <r>   -0.6570    1.0000 </r>
       <r>   -0.6261    1.0000 </r>
       <r>   -0.5179    1.0000 </r>
       <r>   -0.5169    1.0000 </r>
       <r>   -0.5159    1.0000 </r>
       <r>   -0.5148    1.0000 </r>
       <r>   -0.4621    1.0000 </r>
       <r>   -0.4585    1.0000 </r>
       <r>   -0.4578    1.0000 </r>
       <r>   -0.4572    1.0000 </r>
       <r>   -0.4543    1.0000 </r>
       <r>   -0.4537    1.0000 </r>
       <r>   -0.4530    1.0000 </r>
       <r>   -0.4498    1.0000 </r>
       <r>   -0.4401    1.0000 </r>
       <r>   -0.4130    1.0000 </r>
       <r>   -0.3878    1.0000 </r>
       <r>   -0.3838    1.0000 </r>
       <r>   -0.3820    1.0000 </r>
       <r>   -0.3717    1.0000 </r>
       <r>   -0.3571    1.0000 </r>
       <r>   -0.3552    1.0000 </r>
       <r>   -0.3539    1.0000 </r>
       <r>   -0.3466    1.0000 </r>
       <r>   -0.3433    1.0000 </r>
       <r>   -0.3427    1.0000 </r>
       <r>   -0.3292    1.0000 </r>
       <r>   -0.3270    1.0000 </r>
       <r>   -0.3259    1.0000 </r>
       <r>   -0.3225    1.0000 </r>
       <r>   -0.2801    1.0000 </r>
       <r>   -0.2284    1.0000 </r>
       <r>   -0.2252    1.0000 </r>
       <r>   -0.1254    1.0000 </r>
       <r>   -0.0465    1.0000 </r>
       <r>    0.0043    1.0000 </r>
       <r>    0.0430    1.0000 </r>
       <r>    0.1174    1.0000 </r>
       <r>    0.1516    1.0000 </r>
       <r>    0.1552    1.0000 </r>
       <r>    0.1671    1.0000 </r>
       <r>    0.1864    1.0000 </r>
       <r>    0.1999    1.0000 </r>
       <r>    0.2125    1.0000 </r>
       <r>    0.2128    1.0000 </r>
       <r>    0.2182    1.0000 </r>
       <r>    0.2203    1.0000 </r>
       <r>    0.2369    1.0000 </r>
       <r>    0.2416    1.0000 </r>
       <r>    0.2864    1.0000 </r>
       <r>    0.3097    1.0000 </r>
       <r>    0.3156    1.0000 </r>
       <r>    0.3435    1.0000 </r>
       <r>    0.3449    1.0000 </r>
       <r>    0.3489    1.0000 </r>
       <r>    0.3503    1.0000 </r>
       <r>    0.3653    1.0000 </r>
       <r>    0.3751    1.0000 </r>
       <r>    0.3943    1.0000 </r>
       <r>    0.4527    1.0000 </r>
       <r>    0.4581    1.0000 </r>
       <r>    0.4599    1.0000 </r>
       <r>    0.4626    1.0000 </r>
       <r>    0.4644    1.0000 </r>
       <r>    0.4649    1.0000 </r>
       <r>    0.4766    1.0000 </r>
       <r>    0.4807    1.0000 </r>
       <r>    0.5554    1.0000 </r>
       <r>    0.5598    1.0000 </r>
       <r>    0.5655    1.0000 </r>
       <r>    0.5852    1.0000 </r>
       <r>    0.5897    1.0000 </r>
       <r>    0.6850    1.0000 </r>
       <r>    0.6933    1.0000 </r>
       <r>    0.7014    1.0000 </r>
       <r>    0.7072    1.0000 </r>
       <r>    0.7239    1.0000 </r>
       <r>    0.8062    1.0000 </r>
       <r>    0.8096    1.0000 </r>
       <r>    0.8381    1.0000 </r>
       <r>    0.8553    1.0000 </r>
       <r>    0.8563    1.0000 </r>
       <r>    0.8803    1.0000 </r>
       <r>    0.8839    1.0000 </r>
       <r>    0.8853    1.0000 </r>
       <r>    0.9157    1.0000 </r>
       <r>    0.9912    1.0000 </r>
       <r>    0.9918    1.0000 </r>
       <r>    0.9946    1.0000 </r>
       <r>    0.9980    1.0000 </r>
       <r>    1.0212    1.0000 </r>
       <r>    1.0325    1.0000 </r>
       <r>    1.0821    1.0000 </r>
       <r>    1.0979    1.0000 </r>
       <r>    1.2061    1.0000 </r>
       <r>    1.2070    1.0000 </r>
       <r>    1.2151    1.0000 </r>
       <r>    1.2321    1.0000 </r>
       <r>    1.2454    1.0000 </r>
       <r>    1.2458    1.0000 </r>
       <r>    1.2544    1.0000 </r>
       <r>    1.2598    1.0000 </r>
       <r>    1.3158    1.0000 </r>
       <r>    1.3165    1.0000 </r>
       <r>    1.3635    1.0000 </r>
       <r>    1.3683    1.0000 </r>
       <r>    1.4009    1.0000 </r>
       <r>    1.4049    1.0000 </r>
       <r>    1.4403    1.0000 </r>
       <r>    1.4407    1.0000 </r>
       <r>    1.4980    1.0000 </r>
       <r>    1.5011    1.0000 </r>
       <r>    1.5374    1.0000 </r>
       <r>    1.5777    1.0000 </r>
       <r>    1.5876    1.0000 </r>
       <r>    1.5893    1.0000 </r>
       <r>    1.7638    1.0000 </r>
       <r>    1.7686    1.0000 </r>
       <r>    1.8461    1.0000 </r>
       <r>    1.8558    1.0000 </r>
       <r>    1.8604    1.0000 </r>
       <r>    1.8606    1.0000 </r>
       <r>    1.9179    1.0000 </r>
       <r>    1.9254    1.0000 </r>
       <r>    1.9514    1.0000 </r>
       <r>    1.9610    1.0000 </r>
       <r>    1.9795    1.0000 </r>
       <r>    1.9801    1.0000 </r>
       <r>    2.0233    1.0000 </r>
       <r>    2.0246    1.0000 </r>
       <r>    2.0629    1.0000 </r>
       <r>    2.0687    1.0000 </r>
       <r>    2.0964    1.0000 </r>
       <r>    2.0969    1.0000 </r>
       <r>    2.2236    1.0000 </r>
       <r>    2.2303    1.0000 </r>
       <r>    2.3991    1.0000 </r>
       <r>    2.4013    1.0000 </r>
       <r>    2.4032    1.0000 </r>
       <r>    2.4047    1.0000 </r>
       <r>    4.6621    1.0000 </r>
       <r>    5.8857    0.0000 </r>
       <r>    6.6169    0.0000 </r>
       <r>    6.6377    0.0000 </r>
       <r>    6.6380    0.0000 </r>
       <r>    6.8794    0.0000 </r>
       <r>    6.9264    0.0000 </r>
       <r>    6.9920    0.0000 </r>
       <r>    7.0030    0.0000 </r>
       <r>    7.0782    0.0000 </r>
       <r>    7.0879    0.0000 </r>
       <r>    7.1522    0.0000 </r>
       <r>    7.2119    0.0000 </r>
       <r>    7.2122    0.0000 </r>
       <r>    7.2284    0.0000 </r>
       <r>    7.2435    0.0000 </r>
       <r>    7.2824    0.0000 </r>
       <r>    7.2968    0.0000 </r>
       <r>    7.3058    0.0000 </r>
       <r>    7.3278    0.0000 </r>
       <r>    7.3330    0.0000 </r>
       <r>    7.3387    0.0000 </r>
       <r>    7.3426    0.0000 </r>
       <r>    7.3445    0.0000 </r>
       <r>    7.3609    0.0000 </r>
       <r>    7.3624    0.0000 </r>
       <r>    7.3824    0.0000 </r>
       <r>    7.3841    0.0000 </r>
       <r>    7.3918    0.0000 </r>
       <r>    7.3944    0.0000 </r>
       <r>    7.4293    0.0000 </r>
       <r>    7.4309    0.0000 </r>
       <r>    7.4584    0.0000 </r>
       <r>    7.6862    0.0000 </r>
       <r>    7.7384    0.0000 </r>
       <r>    7.7415    0.0000 </r>
       <r>    7.7460    0.0000 </r>
       <r>    7.7914    0.0000 </r>
       <r>    7.8211    0.0000 </r>
       <r>    7.8448    0.0000 </r>
       <r>    7.8743    0.0000 </r>
       <r>    7.8889    0.0000 </r>
       <r>    7.9099    0.0000 </r>
       <r>    7.9135    0.0000 </r>
       <r>    7.9194    0.0000 </r>
       <r>    7.9428    0.0000 </r>
       <r>    7.9656    0.0000 </r>
       <r>    8.0636    0.0000 </r>
       <r>    8.1120    0.0000 </r>
       <r>    8.1667    0.0000 </r>
       <r>    8.1687    0.0000 </r>
       <r>    8.1707    0.0000 </r>
       <r>    8.1849    0.0000 </r>
       <r>    8.2092    0.0000 </r>
       <r>    8.2213    0.0000 </r>
       <r>    8.2221    0.0000 </r>
       <r>    8.2331    0.0000 </r>
       <r>    8.2407    0.0000 </r>
       <r>    8.2548    0.0000 </r>
       <r>    8.2828    0.0000 </r>
       <r>    8.3931    0.0000 </r>
       <r>    8.5612    0.0000 </r>
       <r>    8.5793    0.0000 </r>
       <r>    8.5914    0.0000 </r>
       <r>    8.6325    0.0000 </r>
       <r>    8.6335    0.0000 </r>
       <r>    8.6450    0.0000 </r>
       <r>    8.6610    0.0000 </r>
       <r>    8.6695    0.0000 </r>
       <r>    8.6801    0.0000 </r>
       <r>    8.6877    0.0000 </r>
       <r>    8.6879    0.0000 </r>
       <r>    8.7311    0.0000 </r>
       <r>    8.8815    0.0000 </r>
       <r>    8.9559    0.0000 </r>
       <r>    8.9907    0.0000 </r>
       <r>    8.9979    0.0000 </r>
       <r>    9.0085    0.0000 </r>
       <r>    9.0558    0.0000 </r>
       <r>    9.1244    0.0000 </r>
       <r>    9.2094    0.0000 </r>
       <r>    9.2404    0.0000 </r>
       <r>    9.2644    0.0000 </r>
       <r>    9.2670    0.0000 </r>
       <r>    9.2681    0.0000 </r>
       <r>    9.2809    0.0000 </r>
       <r>    9.2960    0.0000 </r>
       <r>    9.2989    0.0000 </r>
       <r>    9.3033    0.0000 </r>
       <r>    9.3190    0.0000 </r>
       <r>    9.3249    0.0000 </r>
       <r>    9.3275    0.0000 </r>
       <r>    9.3290    0.0000 </r>
       <r>    9.3564    0.0000 </r>
       <r>    9.3985    0.0000 </r>
       <r>    9.4732    0.0000 </r>
       <r>    9.6113    0.0000 </r>
       <r>    9.6280    0.0000 </r>
       <r>    9.6819    0.0000 </r>
       <r>    9.6886    0.0000 </r>
       <r>    9.6909    0.0000 </r>
       <r>    9.7185    0.0000 </r>
       <r>    9.8768    0.0000 </r>
       <r>   10.0651    0.0000 </r>
       <r>   10.0886    0.0000 </r>
       <r>   10.0900    0.0000 </r>
       <r>   10.1019    0.0000 </r>
       <r>   10.1418    0.0000 </r>
       <r>   10.1707    0.0000 </r>
       <r>   10.1747    0.0000 </r>
       <r>   10.1899    0.0000 </r>
       <r>   10.1970    0.0000 </r>
       <r>   10.2270    0.0000 </r>
       <r>   10.2355    0.0000 </r>
       <r>   10.2826    0.0000 </r>
       <r>   10.3013    0.0000 </r>
       <r>   10.3034    0.0000 </r>
       <r>   10.3759    0.0000 </r>
       <r>   10.3803    0.0000 </r>
       <r>   10.3889    0.0000 </r>
       <r>   10.3935    0.0000 </r>
       <r>   10.4125    0.0000 </r>
       <r>   10.4365    0.0000 </r>
       <r>   10.4419    0.0000 </r>
       <r>   10.4659    0.0000 </r>
       <r>   10.5085    0.0000 </r>
       <r>   10.5272    0.0000 </r>
       <r>   10.6251    0.0000 </r>
       <r>   10.6687    0.0000 </r>
       <r>   10.7193    0.0000 </r>
       <r>   10.7201    0.0000 </r>
       <r>   10.7226    0.0000 </r>
       <r>   10.7308    0.0000 </r>
       <r>   10.7514    0.0000 </r>
       <r>   10.7577    0.0000 </r>
       <r>   10.7630    0.0000 </r>
       <r>   10.7824    0.0000 </r>
       <r>   10.7876    0.0000 </r>
       <r>   10.7922    0.0000 </r>
       <r>   10.8135    0.0000 </r>
       <r>   10.8144    0.0000 </r>
       <r>   11.2349    0.0000 </r>
       <r>   11.2599    0.0000 </r>
       <r>   11.5021    0.0000 </r>
       <r>   11.5840    0.0000 </r>
       <r>   11.6193    0.0000 </r>
       <r>   11.6644    0.0000 </r>
       <r>   11.7249    0.0000 </r>
       <r>   11.7419    0.0000 </r>
       <r>   11.7742    0.0000 </r>
       <r>   11.7984    0.0000 </r>
       <r>   11.8447    0.0000 </r>
      </set>
      <set comment="kpoint 3">
       <r>  -17.2935    1.0000 </r>
       <r>  -15.7753    1.0000 </r>
       <r>  -15.7302    1.0000 </r>
       <r>  -15.4204    1.0000 </r>
       <r>  -15.3138    1.0000 </r>
       <r>  -15.2492    1.0000 </r>
       <r>  -15.2284    1.0000 </r>
       <r>  -15.1965    1.0000 </r>
       <r>  -15.1884    1.0000 </r>
       <r>  -15.1019    1.0000 </r>
       <r>  -15.0675    1.0000 </r>
       <r>  -15.0259    1.0000 </r>
       <r>  -15.0076    1.0000 </r>
       <r>  -14.9561    1.0000 </r>
       <r>  -14.9464    1.0000 </r>
       <r>  -14.9378    1.0000 </r>
       <r>  -14.9357    1.0000 </r>
       <r>  -14.8565    1.0000 </r>
       <r>  -14.7552    1.0000 </r>
       <r>  -14.7506    1.0000 </r>
       <r>  -14.6207    1.0000 </r>
       <r>  -14.5701    1.0000 </r>
       <r>  -14.5557    1.0000 </r>
       <r>  -14.4591    1.0000 </r>
       <r>  -14.4457    1.0000 </r>
       <r>  -14.4424    1.0000 </r>
       <r>  -14.4290    1.0000 </r>
       <r>  -14.4249    1.0000 </r>
       <r>  -14.4203    1.0000 </r>
       <r>  -14.4159    1.0000 </r>
       <r>  -14.4145    1.0000 </r>
       <r>  -14.3554    1.0000 </r>
       <r>  -14.2474    1.0000 </r>
       <r>  -14.2447    1.0000 </r>
       <r>  -14.2388    1.0000 </r>
       <r>  -14.2369    1.0000 </r>
       <r>  -14.2014    1.0000 </r>
       <r>  -14.1916    1.0000 </r>
       <r>  -14.1676    1.0000 </r>
       <r>  -14.1664    1.0000 </r>
       <r>  -14.1216    1.0000 </r>
       <r>  -14.0362    1.0000 </r>
       <r>  -13.9970    1.0000 </r>
       <r>  -13.9947    1.0000 </r>
       <r>  -13.9468    1.0000 </r>
       <r>  -13.7938    1.0000 </r>
       <r>  -13.7365    1.0000 </r>
       <r>  -13.7118    1.0000 </r>
       <r>  -13.7091    1.0000 </r>
       <r>  -13.7066    1.0000 </r>
       <r>  -13.6970    1.0000 </r>
       <r>  -13.6945    1.0000 </r>
       <r>  -13.6741    1.0000 </r>
       <r>  -13.6737    1.0000 </r>
       <r>  -13.6081    1.0000 </r>
       <r>  -13.5332    1.0000 </r>
       <r>  -13.5284    1.0000 </r>
       <r>  -13.5157    1.0000 </r>
       <r>  -13.5153    1.0000 </r>
       <r>  -13.5054    1.0000 </r>
       <r>  -13.3598    1.0000 </r>
       <r>  -13.3379    1.0000 </r>
       <r>  -13.2557    1.0000 </r>
       <r>  -13.2235    1.0000 </r>
       <r>  -13.1147    1.0000 </r>
       <r>  -13.0599    1.0000 </r>
       <r>  -13.0531    1.0000 </r>
       <r>  -13.0506    1.0000 </r>
       <r>  -13.0431    1.0000 </r>
       <r>  -13.0403    1.0000 </r>
       <r>  -13.0375    1.0000 </r>
       <r>  -13.0346    1.0000 </r>
       <r>  -13.0331    1.0000 </r>
       <r>  -12.9770    1.0000 </r>
       <r>  -12.9318    1.0000 </r>
       <r>  -12.8896    1.0000 </r>
       <r>  -12.8843    1.0000 </r>
       <r>  -12.8826    1.0000 </r>
       <r>  -12.8796    1.0000 </r>
       <r>  -12.8770    1.0000 </r>
       <r>  -12.8735    1.0000 </r>
       <r>  -12.8721    1.0000 </r>
       <r>  -12.8708    1.0000 </r>
       <r>  -12.8694    1.0000 </r>
       <r>  -12.8673    1.0000 </r>
       <r>  -12.8633    1.0000 </r>
       <r>  -12.8628    1.0000 </r>
       <r>  -12.8609    1.0000 </r>
       <r>  -12.7190    1.0000 </r>
       <r>  -12.7142    1.0000 </r>
       <r>  -12.7138    1.0000 </r>
       <r>  -12.7105    1.0000 </r>
       <r>  -12.6825    1.0000 </r>
       <r>  -12.6099    1.0000 </r>
       <r>  -12.5916    1.0000 </r>
       <r>  -12.5841    1.0000 </r>
       <r>  -12.5693    1.0000 </r>
       <r>  -12.5549    1.0000 </r>
       <r>  -12.5335    1.0000 </r>
       <r>  -12.4987    1.0000 </r>
       <r>  -12.4378    1.0000 </r>
       <r>  -12.4318    1.0000 </r>
       <r>  -12.4245    1.0000 </r>
       <r>  -12.4200    1.0000 </r>
       <r>  -12.3360    1.0000 </r>
       <r>  -12.3323    1.0000 </r>
       <r>  -12.3282    1.0000 </r>
       <r>  -12.3234    1.0000 </r>
       <r>  -12.2440    1.0000 </r>
       <r>  -12.2419    1.0000 </r>
       <r>  -12.2392    1.0000 </r>
       <r>  -12.2363    1.0000 </r>
       <r>  -12.2168    1.0000 </r>
       <r>  -12.2155    1.0000 </r>
       <r>  -12.2102    1.0000 </r>
       <r>  -12.2081    1.0000 </r>
       <r>  -12.1769    1.0000 </r>
       <r>  -12.1765    1.0000 </r>
       <r>  -12.1701    1.0000 </r>
       <r>  -12.1698    1.0000 </r>
       <r>  -12.0961    1.0000 </r>
       <r>  -12.0953    1.0000 </r>
       <r>  -12.0896    1.0000 </r>
       <r>  -12.0873    1.0000 </r>
       <r>  -12.0865    1.0000 </r>
       <r>  -12.0847    1.0000 </r>
       <r>  -11.9503    1.0000 </r>
       <r>  -11.9480    1.0000 </r>
       <r>  -11.9466    1.0000 </r>
       <r>  -11.9444    1.0000 </r>
       <r>  -11.8175    1.0000 </r>
       <r>  -11.8134    1.0000 </r>
       <r>  -11.8073    1.0000 </r>
       <r>  -11.8061    1.0000 </r>
       <r>  -11.8060    1.0000 </r>
       <r>  -11.8048    1.0000 </r>
       <r>  -11.7841    1.0000 </r>
       <r>  -11.7839    1.0000 </r>
       <r>  -11.7805    1.0000 </r>
       <r>  -11.7802    1.0000 </r>
       <r>  -11.6719    1.0000 </r>
       <r>  -11.6656    1.0000 </r>
       <r>  -11.6616    1.0000 </r>
       <r>  -11.6602    1.0000 </r>
       <r>   -8.3630    1.0000 </r>
       <r>   -7.2839    1.0000 </r>
       <r>   -7.2706    1.0000 </r>
       <r>   -6.7936    1.0000 </r>
       <r>   -6.7046    1.0000 </r>
       <r>   -6.6828    1.0000 </r>
       <r>   -6.4379    1.0000 </r>
       <r>   -6.4062    1.0000 </r>
       <r>   -6.3220    1.0000 </r>
       <r>   -6.3076    1.0000 </r>
       <r>   -6.3053    1.0000 </r>
       <r>   -6.3047    1.0000 </r>
       <r>   -6.3004    1.0000 </r>
       <r>   -6.2874    1.0000 </r>
       <r>   -6.2733    1.0000 </r>
       <r>   -6.2724    1.0000 </r>
       <r>   -6.2711    1.0000 </r>
       <r>   -6.2708    1.0000 </r>
       <r>   -6.2162    1.0000 </r>
       <r>   -6.2142    1.0000 </r>
       <r>   -6.2131    1.0000 </r>
       <r>   -6.2043    1.0000 </r>
       <r>   -6.1982    1.0000 </r>
       <r>   -6.1959    1.0000 </r>
       <r>   -6.1591    1.0000 </r>
       <r>   -6.1582    1.0000 </r>
       <r>   -6.1492    1.0000 </r>
       <r>   -6.1487    1.0000 </r>
       <r>   -6.0742    1.0000 </r>
       <r>   -6.0690    1.0000 </r>
       <r>   -5.9329    1.0000 </r>
       <r>   -5.9307    1.0000 </r>
       <r>   -5.9076    1.0000 </r>
       <r>   -5.9069    1.0000 </r>
       <r>   -5.8438    1.0000 </r>
       <r>   -5.7896    1.0000 </r>
       <r>   -5.7819    1.0000 </r>
       <r>   -5.7741    1.0000 </r>
       <r>   -5.7677    1.0000 </r>
       <r>   -5.7646    1.0000 </r>
       <r>   -5.7635    1.0000 </r>
       <r>   -5.7633    1.0000 </r>
       <r>   -5.7624    1.0000 </r>
       <r>   -5.7571    1.0000 </r>
       <r>   -5.7525    1.0000 </r>
       <r>   -5.7519    1.0000 </r>
       <r>   -5.7434    1.0000 </r>
       <r>   -5.6847    1.0000 </r>
       <r>   -5.6546    1.0000 </r>
       <r>   -5.6421    1.0000 </r>
       <r>   -5.6240    1.0000 </r>
       <r>   -5.6220    1.0000 </r>
       <r>   -5.6209    1.0000 </r>
       <r>   -5.6180    1.0000 </r>
       <r>   -5.2273    1.0000 </r>
       <r>   -5.2258    1.0000 </r>
       <r>   -5.2243    1.0000 </r>
       <r>   -5.2231    1.0000 </r>
       <r>   -5.2217    1.0000 </r>
       <r>   -5.2212    1.0000 </r>
       <r>   -5.2209    1.0000 </r>
       <r>   -5.2203    1.0000 </r>
       <r>   -5.2193    1.0000 </r>
       <r>   -5.2187    1.0000 </r>
       <r>   -5.2178    1.0000 </r>
       <r>   -5.2176    1.0000 </r>
       <r>   -5.1150    1.0000 </r>
       <r>   -5.1104    1.0000 </r>
       <r>   -5.0926    1.0000 </r>
       <r>   -5.0908    1.0000 </r>
       <r>   -5.0889    1.0000 </r>
       <r>   -5.0883    1.0000 </r>
       <r>   -5.0863    1.0000 </r>
       <r>   -5.0842    1.0000 </r>
       <r>   -5.0260    1.0000 </r>
       <r>   -4.9210    1.0000 </r>
       <r>   -4.8318    1.0000 </r>
       <r>   -4.6117    1.0000 </r>
       <r>   -4.5543    1.0000 </r>
       <r>   -4.5412    1.0000 </r>
       <r>   -4.4758    1.0000 </r>
       <r>   -4.4734    1.0000 </r>
       <r>   -4.4720    1.0000 </r>
       <r>   -4.4712    1.0000 </r>
       <r>   -4.4707    1.0000 </r>
       <r>   -4.4694    1.0000 </r>
       <r>   -4.4678    1.0000 </r>
       <r>   -4.4675    1.0000 </r>
       <r>   -4.3447    1.0000 </r>
       <r>   -4.3422    1.0000 </r>
       <r>   -4.3396    1.0000 </r>
       <r>   -4.3373    1.0000 </r>
       <r>   -4.3172    1.0000 </r>
       <r>   -4.3163    1.0000 </r>
       <r>   -4.2018    1.0000 </r>
       <r>   -4.0977    1.0000 </r>
       <r>   -4.0875    1.0000 </r>
       <r>   -4.0873    1.0000 </r>
       <r>   -4.0848    1.0000 </r>
       <r>   -4.0840    1.0000 </r>
       <r>   -4.0742    1.0000 </r>
       <r>   -4.0740    1.0000 </r>
       <r>   -4.0720    1.0000 </r>
       <r>   -4.0710    1.0000 </r>
       <r>   -4.0288    1.0000 </r>
       <r>   -3.9506    1.0000 </r>
       <r>   -3.9501    1.0000 </r>
       <r>   -3.9469    1.0000 </r>
       <r>   -3.9458    1.0000 </r>
       <r>   -3.9093    1.0000 </r>
       <r>   -3.8654    1.0000 </r>
       <r>   -3.7857    1.0000 </r>
       <r>   -3.7511    1.0000 </r>
       <r>   -3.6234    1.0000 </r>
       <r>   -3.6215    1.0000 </r>
       <r>   -3.6154    1.0000 </r>
       <r>   -3.6139    1.0000 </r>
       <r>   -3.6037    1.0000 </r>
       <r>   -3.6030    1.0000 </r>
       <r>   -3.5985    1.0000 </r>
       <r>   -3.5980    1.0000 </r>
       <r>   -3.5160    1.0000 </r>
       <r>   -3.4810    1.0000 </r>
       <r>   -3.4790    1.0000 </r>
       <r>   -3.4779    1.0000 </r>
       <r>   -3.4747    1.0000 </r>
       <r>   -3.4723    1.0000 </r>
       <r>   -3.4689    1.0000 </r>
       <r>   -3.4683    1.0000 </r>
       <r>   -3.4654    1.0000 </r>
       <r>   -3.4646    1.0000 </r>
       <r>   -3.4501    1.0000 </r>
       <r>   -3.3495    1.0000 </r>
       <r>   -3.3383    1.0000 </r>
       <r>   -3.3382    1.0000 </r>
       <r>   -3.1560    1.0000 </r>
       <r>   -3.1305    1.0000 </r>
       <r>   -3.0973    1.0000 </r>
       <r>   -3.0762    1.0000 </r>
       <r>   -3.0741    1.0000 </r>
       <r>   -3.0699    1.0000 </r>
       <r>   -3.0689    1.0000 </r>
       <r>   -2.9929    1.0000 </r>
       <r>   -2.9396    1.0000 </r>
       <r>   -2.9362    1.0000 </r>
       <r>   -2.9326    1.0000 </r>
       <r>   -2.8558    1.0000 </r>
       <r>   -2.8102    1.0000 </r>
       <r>   -2.7785    1.0000 </r>
       <r>   -2.7706    1.0000 </r>
       <r>   -2.7697    1.0000 </r>
       <r>   -2.7565    1.0000 </r>
       <r>   -2.7537    1.0000 </r>
       <r>   -2.7359    1.0000 </r>
       <r>   -2.7262    1.0000 </r>
       <r>   -2.6832    1.0000 </r>
       <r>   -2.6794    1.0000 </r>
       <r>   -2.6688    1.0000 </r>
       <r>   -2.6674    1.0000 </r>
       <r>   -2.6671    1.0000 </r>
       <r>   -2.5441    1.0000 </r>
       <r>   -2.5439    1.0000 </r>
       <r>   -2.5246    1.0000 </r>
       <r>   -2.5217    1.0000 </r>
       <r>   -2.5122    1.0000 </r>
       <r>   -2.4608    1.0000 </r>
       <r>   -2.4253    1.0000 </r>
       <r>   -2.4156    1.0000 </r>
       <r>   -2.3849    1.0000 </r>
       <r>   -2.3763    1.0000 </r>
       <r>   -2.3743    1.0000 </r>
       <r>   -2.3743    1.0000 </r>
       <r>   -2.3734    1.0000 </r>
       <r>   -2.3723    1.0000 </r>
       <r>   -2.3707    1.0000 </r>
       <r>   -2.3697    1.0000 </r>
       <r>   -2.3687    1.0000 </r>
       <r>   -2.3602    1.0000 </r>
       <r>   -2.3586    1.0000 </r>
       <r>   -2.3554    1.0000 </r>
       <r>   -2.3293    1.0000 </r>
       <r>   -2.2676    1.0000 </r>
       <r>   -2.2435    1.0000 </r>
       <r>   -2.2411    1.0000 </r>
       <r>   -2.2398    1.0000 </r>
       <r>   -2.2374    1.0000 </r>
       <r>   -2.2117    1.0000 </r>
       <r>   -2.1750    1.0000 </r>
       <r>   -2.1452    1.0000 </r>
       <r>   -2.1298    1.0000 </r>
       <r>   -2.0892    1.0000 </r>
       <r>   -2.0887    1.0000 </r>
       <r>   -2.0882    1.0000 </r>
       <r>   -2.0876    1.0000 </r>
       <r>   -2.0551    1.0000 </r>
       <r>   -2.0548    1.0000 </r>
       <r>   -2.0542    1.0000 </r>
       <r>   -2.0537    1.0000 </r>
       <r>   -2.0419    1.0000 </r>
       <r>   -2.0314    1.0000 </r>
       <r>   -2.0105    1.0000 </r>
       <r>   -2.0098    1.0000 </r>
       <r>   -1.9822    1.0000 </r>
       <r>   -1.9443    1.0000 </r>
       <r>   -1.9418    1.0000 </r>
       <r>   -1.9336    1.0000 </r>
       <r>   -1.9323    1.0000 </r>
       <r>   -1.8966    1.0000 </r>
       <r>   -1.8695    1.0000 </r>
       <r>   -1.8679    1.0000 </r>
       <r>   -1.8669    1.0000 </r>
       <r>   -1.8656    1.0000 </r>
       <r>   -1.8574    1.0000 </r>
       <r>   -1.8552    1.0000 </r>
       <r>   -1.8239    1.0000 </r>
       <r>   -1.8195    1.0000 </r>
       <r>   -1.8173    1.0000 </r>
       <r>   -1.8147    1.0000 </r>
       <r>   -1.7855    1.0000 </r>
       <r>   -1.7775    1.0000 </r>
       <r>   -1.7772    1.0000 </r>
       <r>   -1.7759    1.0000 </r>
       <r>   -1.7759    1.0000 </r>
       <r>   -1.7756    1.0000 </r>
       <r>   -1.7754    1.0000 </r>
       <r>   -1.7743    1.0000 </r>
       <r>   -1.7739    1.0000 </r>
       <r>   -1.7167    1.0000 </r>
       <r>   -1.7086    1.0000 </r>
       <r>   -1.7078    1.0000 </r>
       <r>   -1.6956    1.0000 </r>
       <r>   -1.6601    1.0000 </r>
       <r>   -1.6505    1.0000 </r>
       <r>   -1.6488    1.0000 </r>
       <r>   -1.6462    1.0000 </r>
       <r>   -1.6439    1.0000 </r>
       <r>   -1.6416    1.0000 </r>
       <r>   -1.6348    1.0000 </r>
       <r>   -1.6153    1.0000 </r>
       <r>   -1.6136    1.0000 </r>
       <r>   -1.6056    1.0000 </r>
       <r>   -1.6032    1.0000 </r>
       <r>   -1.5831    1.0000 </r>
       <r>   -1.5807    1.0000 </r>
       <r>   -1.5801    1.0000 </r>
       <r>   -1.5667    1.0000 </r>
       <r>   -1.5662    1.0000 </r>
       <r>   -1.5586    1.0000 </r>
       <r>   -1.5537    1.0000 </r>
       <r>   -1.5512    1.0000 </r>
       <r>   -1.4918    1.0000 </r>
       <r>   -1.4567    1.0000 </r>
       <r>   -1.4409    1.0000 </r>
       <r>   -1.4315    1.0000 </r>
       <r>   -1.3509    1.0000 </r>
       <r>   -1.3479    1.0000 </r>
       <r>   -1.3406    1.0000 </r>
       <r>   -1.3371    1.0000 </r>
       <r>   -1.2296    1.0000 </r>
       <r>   -1.2293    1.0000 </r>
       <r>   -1.2261    1.0000 </r>
       <r>   -1.2258    1.0000 </r>
       <r>   -1.2120    1.0000 </r>
       <r>   -1.2118    1.0000 </r>
       <r>   -1.2100    1.0000 </r>
       <r>   -1.2082    1.0000 </r>
       <r>   -1.1910    1.0000 </r>
       <r>   -1.0944    1.0000 </r>
       <r>   -1.0888    1.0000 </r>
       <r>   -1.0870    1.0000 </r>
       <r>   -1.0846    1.0000 </r>
       <r>   -1.0521    1.0000 </r>
       <r>   -1.0263    1.0000 </r>
       <r>   -1.0140    1.0000 </r>
       <r>   -0.9793    1.0000 </r>
       <r>   -0.9335    1.0000 </r>
       <r>   -0.8687    1.0000 </r>
       <r>   -0.8464    1.0000 </r>
       <r>   -0.7802    1.0000 </r>
       <r>   -0.7785    1.0000 </r>
       <r>   -0.7577    1.0000 </r>
       <r>   -0.7244    1.0000 </r>
       <r>   -0.7172    1.0000 </r>
       <r>   -0.7133    1.0000 </r>
       <r>   -0.7113    1.0000 </r>
       <r>   -0.7101    1.0000 </r>
       <r>   -0.6777    1.0000 </r>
       <r>   -0.6766    1.0000 </r>
       <r>   -0.6750    1.0000 </r>
       <r>   -0.6743    1.0000 </r>
       <r>   -0.6633    1.0000 </r>
       <r>   -0.6577    1.0000 </r>
       <r>   -0.6558    1.0000 </r>
       <r>   -0.6260    1.0000 </r>
       <r>   -0.5179    1.0000 </r>
       <r>   -0.5167    1.0000 </r>
       <r>   -0.5159    1.0000 </r>
       <r>   -0.5147    1.0000 </r>
       <r>   -0.4621    1.0000 </r>
       <r>   -0.4585    1.0000 </r>
       <r>   -0.4578    1.0000 </r>
       <r>   -0.4572    1.0000 </r>
       <r>   -0.4543    1.0000 </r>
       <r>   -0.4538    1.0000 </r>
       <r>   -0.4530    1.0000 </r>
       <r>   -0.4498    1.0000 </r>
       <r>   -0.4400    1.0000 </r>
       <r>   -0.4148    1.0000 </r>
       <r>   -0.3844    1.0000 </r>
       <r>   -0.3837    1.0000 </r>
       <r>   -0.3834    1.0000 </r>
       <r>   -0.3709    1.0000 </r>
       <r>   -0.3572    1.0000 </r>
       <r>   -0.3550    1.0000 </r>
       <r>   -0.3538    1.0000 </r>
       <r>   -0.3466    1.0000 </r>
       <r>   -0.3426    1.0000 </r>
       <r>   -0.3426    1.0000 </r>
       <r>   -0.3305    1.0000 </r>
       <r>   -0.3272    1.0000 </r>
       <r>   -0.3255    1.0000 </r>
       <r>   -0.3217    1.0000 </r>
       <r>   -0.2801    1.0000 </r>
       <r>   -0.2272    1.0000 </r>
       <r>   -0.2230    1.0000 </r>
       <r>   -0.1258    1.0000 </r>
       <r>   -0.0464    1.0000 </r>
       <r>    0.0037    1.0000 </r>
       <r>    0.0424    1.0000 </r>
       <r>    0.1179    1.0000 </r>
       <r>    0.1536    1.0000 </r>
       <r>    0.1552    1.0000 </r>
       <r>    0.1671    1.0000 </r>
       <r>    0.1864    1.0000 </r>
       <r>    0.1998    1.0000 </r>
       <r>    0.2124    1.0000 </r>
       <r>    0.2125    1.0000 </r>
       <r>    0.2184    1.0000 </r>
       <r>    0.2204    1.0000 </r>
       <r>    0.2382    1.0000 </r>
       <r>    0.2413    1.0000 </r>
       <r>    0.2861    1.0000 </r>
       <r>    0.3062    1.0000 </r>
       <r>    0.3156    1.0000 </r>
       <r>    0.3434    1.0000 </r>
       <r>    0.3447    1.0000 </r>
       <r>    0.3491    1.0000 </r>
       <r>    0.3504    1.0000 </r>
       <r>    0.3650    1.0000 </r>
       <r>    0.3776    1.0000 </r>
       <r>    0.3943    1.0000 </r>
       <r>    0.4526    1.0000 </r>
       <r>    0.4580    1.0000 </r>
       <r>    0.4598    1.0000 </r>
       <r>    0.4628    1.0000 </r>
       <r>    0.4645    1.0000 </r>
       <r>    0.4650    1.0000 </r>
       <r>    0.4744    1.0000 </r>
       <r>    0.4795    1.0000 </r>
       <r>    0.5553    1.0000 </r>
       <r>    0.5597    1.0000 </r>
       <r>    0.5655    1.0000 </r>
       <r>    0.5853    1.0000 </r>
       <r>    0.5898    1.0000 </r>
       <r>    0.6849    1.0000 </r>
       <r>    0.6937    1.0000 </r>
       <r>    0.7010    1.0000 </r>
       <r>    0.7029    1.0000 </r>
       <r>    0.7236    1.0000 </r>
       <r>    0.8070    1.0000 </r>
       <r>    0.8091    1.0000 </r>
       <r>    0.8390    1.0000 </r>
       <r>    0.8552    1.0000 </r>
       <r>    0.8565    1.0000 </r>
       <r>    0.8802    1.0000 </r>
       <r>    0.8841    1.0000 </r>
       <r>    0.8852    1.0000 </r>
       <r>    0.9158    1.0000 </r>
       <r>    0.9919    1.0000 </r>
       <r>    0.9923    1.0000 </r>
       <r>    0.9939    1.0000 </r>
       <r>    1.0028    1.0000 </r>
       <r>    1.0205    1.0000 </r>
       <r>    1.0330    1.0000 </r>
       <r>    1.0822    1.0000 </r>
       <r>    1.0953    1.0000 </r>
       <r>    1.2058    1.0000 </r>
       <r>    1.2070    1.0000 </r>
       <r>    1.2154    1.0000 </r>
       <r>    1.2342    1.0000 </r>
       <r>    1.2448    1.0000 </r>
       <r>    1.2458    1.0000 </r>
       <r>    1.2543    1.0000 </r>
       <r>    1.2593    1.0000 </r>
       <r>    1.3155    1.0000 </r>
       <r>    1.3160    1.0000 </r>
       <r>    1.3656    1.0000 </r>
       <r>    1.3662    1.0000 </r>
       <r>    1.4008    1.0000 </r>
       <r>    1.4049    1.0000 </r>
       <r>    1.4404    1.0000 </r>
       <r>    1.4408    1.0000 </r>
       <r>    1.4981    1.0000 </r>
       <r>    1.5015    1.0000 </r>
       <r>    1.5370    1.0000 </r>
       <r>    1.5775    1.0000 </r>
       <r>    1.5886    1.0000 </r>
       <r>    1.5893    1.0000 </r>
       <r>    1.7635    1.0000 </r>
       <r>    1.7693    1.0000 </r>
       <r>    1.8460    1.0000 </r>
       <r>    1.8560    1.0000 </r>
       <r>    1.8597    1.0000 </r>
       <r>    1.8600    1.0000 </r>
       <r>    1.9186    1.0000 </r>
       <r>    1.9249    1.0000 </r>
       <r>    1.9533    1.0000 </r>
       <r>    1.9589    1.0000 </r>
       <r>    1.9790    1.0000 </r>
       <r>    1.9805    1.0000 </r>
       <r>    2.0238    1.0000 </r>
       <r>    2.0245    1.0000 </r>
       <r>    2.0628    1.0000 </r>
       <r>    2.0686    1.0000 </r>
       <r>    2.0965    1.0000 </r>
       <r>    2.0970    1.0000 </r>
       <r>    2.2227    1.0000 </r>
       <r>    2.2314    1.0000 </r>
       <r>    2.3988    1.0000 </r>
       <r>    2.4003    1.0000 </r>
       <r>    2.4028    1.0000 </r>
       <r>    2.4064    1.0000 </r>
       <r>    4.6621    1.0000 </r>
       <r>    5.8857    0.0000 </r>
       <r>    6.6170    0.0000 </r>
       <r>    6.6377    0.0000 </r>
       <r>    6.6378    0.0000 </r>
       <r>    6.8796    0.0000 </r>
       <r>    6.9263    0.0000 </r>
       <r>    6.9917    0.0000 </r>
       <r>    7.0033    0.0000 </r>
       <r>    7.0781    0.0000 </r>
       <r>    7.0879    0.0000 </r>
       <r>    7.1513    0.0000 </r>
       <r>    7.2118    0.0000 </r>
       <r>    7.2127    0.0000 </r>
       <r>    7.2286    0.0000 </r>
       <r>    7.2440    0.0000 </r>
       <r>    7.2823    0.0000 </r>
       <r>    7.2968    0.0000 </r>
       <r>    7.3058    0.0000 </r>
       <r>    7.3277    0.0000 </r>
       <r>    7.3332    0.0000 </r>
       <r>    7.3391    0.0000 </r>
       <r>    7.3434    0.0000 </r>
       <r>    7.3440    0.0000 </r>
       <r>    7.3600    0.0000 </r>
       <r>    7.3612    0.0000 </r>
       <r>    7.3836    0.0000 </r>
       <r>    7.3840    0.0000 </r>
       <r>    7.3917    0.0000 </r>
       <r>    7.3944    0.0000 </r>
       <r>    7.4294    0.0000 </r>
       <r>    7.4309    0.0000 </r>
       <r>    7.4583    0.0000 </r>
       <r>    7.6867    0.0000 </r>
       <r>    7.7389    0.0000 </r>
       <r>    7.7418    0.0000 </r>
       <r>    7.7458    0.0000 </r>
       <r>    7.7903    0.0000 </r>
       <r>    7.8215    0.0000 </r>
       <r>    7.8448    0.0000 </r>
       <r>    7.8744    0.0000 </r>
       <r>    7.8890    0.0000 </r>
       <r>    7.9072    0.0000 </r>
       <r>    7.9139    0.0000 </r>
       <r>    7.9193    0.0000 </r>
       <r>    7.9428    0.0000 </r>
       <r>    7.9657    0.0000 </r>
       <r>    8.0637    0.0000 </r>
       <r>    8.1121    0.0000 </r>
       <r>    8.1666    0.0000 </r>
       <r>    8.1704    0.0000 </r>
       <r>    8.1708    0.0000 </r>
       <r>    8.1854    0.0000 </r>
       <r>    8.2085    0.0000 </r>
       <r>    8.2208    0.0000 </r>
       <r>    8.2224    0.0000 </r>
       <r>    8.2331    0.0000 </r>
       <r>    8.2408    0.0000 </r>
       <r>    8.2548    0.0000 </r>
       <r>    8.2832    0.0000 </r>
       <r>    8.3927    0.0000 </r>
       <r>    8.5608    0.0000 </r>
       <r>    8.5803    0.0000 </r>
       <r>    8.5916    0.0000 </r>
       <r>    8.6324    0.0000 </r>
       <r>    8.6354    0.0000 </r>
       <r>    8.6446    0.0000 </r>
       <r>    8.6609    0.0000 </r>
       <r>    8.6693    0.0000 </r>
       <r>    8.6792    0.0000 </r>
       <r>    8.6879    0.0000 </r>
       <r>    8.6880    0.0000 </r>
       <r>    8.7305    0.0000 </r>
       <r>    8.8814    0.0000 </r>
       <r>    8.9558    0.0000 </r>
       <r>    8.9906    0.0000 </r>
       <r>    8.9979    0.0000 </r>
       <r>    9.0086    0.0000 </r>
       <r>    9.0563    0.0000 </r>
       <r>    9.1247    0.0000 </r>
       <r>    9.2092    0.0000 </r>
       <r>    9.2400    0.0000 </r>
       <r>    9.2646    0.0000 </r>
       <r>    9.2672    0.0000 </r>
       <r>    9.2680    0.0000 </r>
       <r>    9.2792    0.0000 </r>
       <r>    9.2953    0.0000 </r>
       <r>    9.2988    0.0000 </r>
       <r>    9.3035    0.0000 </r>
       <r>    9.3196    0.0000 </r>
       <r>    9.3254    0.0000 </r>
       <r>    9.3278    0.0000 </r>
       <r>    9.3293    0.0000 </r>
       <r>    9.3558    0.0000 </r>
       <r>    9.3985    0.0000 </r>
       <r>    9.4734    0.0000 </r>
       <r>    9.6114    0.0000 </r>
       <r>    9.6268    0.0000 </r>
       <r>    9.6811    0.0000 </r>
       <r>    9.6891    0.0000 </r>
       <r>    9.6912    0.0000 </r>
       <r>    9.7180    0.0000 </r>
       <r>    9.8767    0.0000 </r>
       <r>   10.0654    0.0000 </r>
       <r>   10.0887    0.0000 </r>
       <r>   10.0901    0.0000 </r>
       <r>   10.1018    0.0000 </r>
       <r>   10.1420    0.0000 </r>
       <r>   10.1709    0.0000 </r>
       <r>   10.1744    0.0000 </r>
       <r>   10.1894    0.0000 </r>
       <r>   10.1972    0.0000 </r>
       <r>   10.2268    0.0000 </r>
       <r>   10.2362    0.0000 </r>
       <r>   10.2822    0.0000 </r>
       <r>   10.3017    0.0000 </r>
       <r>   10.3031    0.0000 </r>
       <r>   10.3760    0.0000 </r>
       <r>   10.3803    0.0000 </r>
       <r>   10.3898    0.0000 </r>
       <r>   10.3929    0.0000 </r>
       <r>   10.4127    0.0000 </r>
       <r>   10.4366    0.0000 </r>
       <r>   10.4424    0.0000 </r>
       <r>   10.4649    0.0000 </r>
       <r>   10.5070    0.0000 </r>
       <r>   10.5273    0.0000 </r>
       <r>   10.6258    0.0000 </r>
       <r>   10.6683    0.0000 </r>
       <r>   10.7180    0.0000 </r>
       <r>   10.7202    0.0000 </r>
       <r>   10.7243    0.0000 </r>
       <r>   10.7313    0.0000 </r>
       <r>   10.7513    0.0000 </r>
       <r>   10.7577    0.0000 </r>
       <r>   10.7629    0.0000 </r>
       <r>   10.7838    0.0000 </r>
       <r>   10.7883    0.0000 </r>
       <r>   10.7930    0.0000 </r>
       <r>   10.8134    0.0000 </r>
       <r>   10.8153    0.0000 </r>
       <r>   11.2374    0.0000 </r>
       <r>   11.2596    0.0000 </r>
       <r>   11.4790    0.0000 </r>
       <r>   11.5637    0.0000 </r>
       <r>   11.6271    0.0000 </r>
       <r>   11.6753    0.0000 </r>
       <r>   11.7088    0.0000 </r>
       <r>   11.7408    0.0000 </r>
       <r>   11.7761    0.0000 </r>
       <r>   11.7937    0.0000 </r>
       <r>   11.8284    0.0000 </r>
      </set>
      <set comment="kpoint 4">
       <r>  -17.2935    1.0000 </r>
       <r>  -15.7754    1.0000 </r>
       <r>  -15.7302    1.0000 </r>
       <r>  -15.4202    1.0000 </r>
       <r>  -15.3140    1.0000 </r>
       <r>  -15.2488    1.0000 </r>
       <r>  -15.2283    1.0000 </r>
       <r>  -15.1971    1.0000 </r>
       <r>  -15.1886    1.0000 </r>
       <r>  -15.1017    1.0000 </r>
       <r>  -15.0676    1.0000 </r>
       <r>  -15.0249    1.0000 </r>
       <r>  -15.0087    1.0000 </r>
       <r>  -14.9558    1.0000 </r>
       <r>  -14.9467    1.0000 </r>
       <r>  -14.9376    1.0000 </r>
       <r>  -14.9357    1.0000 </r>
       <r>  -14.8565    1.0000 </r>
       <r>  -14.7542    1.0000 </r>
       <r>  -14.7515    1.0000 </r>
       <r>  -14.6207    1.0000 </r>
       <r>  -14.5700    1.0000 </r>
       <r>  -14.5557    1.0000 </r>
       <r>  -14.4589    1.0000 </r>
       <r>  -14.4456    1.0000 </r>
       <r>  -14.4422    1.0000 </r>
       <r>  -14.4298    1.0000 </r>
       <r>  -14.4249    1.0000 </r>
       <r>  -14.4202    1.0000 </r>
       <r>  -14.4161    1.0000 </r>
       <r>  -14.4145    1.0000 </r>
       <r>  -14.3552    1.0000 </r>
       <r>  -14.2479    1.0000 </r>
       <r>  -14.2423    1.0000 </r>
       <r>  -14.2406    1.0000 </r>
       <r>  -14.2368    1.0000 </r>
       <r>  -14.2014    1.0000 </r>
       <r>  -14.1919    1.0000 </r>
       <r>  -14.1676    1.0000 </r>
       <r>  -14.1664    1.0000 </r>
       <r>  -14.1216    1.0000 </r>
       <r>  -14.0362    1.0000 </r>
       <r>  -13.9968    1.0000 </r>
       <r>  -13.9949    1.0000 </r>
       <r>  -13.9468    1.0000 </r>
       <r>  -13.7938    1.0000 </r>
       <r>  -13.7355    1.0000 </r>
       <r>  -13.7119    1.0000 </r>
       <r>  -13.7089    1.0000 </r>
       <r>  -13.7065    1.0000 </r>
       <r>  -13.6971    1.0000 </r>
       <r>  -13.6954    1.0000 </r>
       <r>  -13.6743    1.0000 </r>
       <r>  -13.6739    1.0000 </r>
       <r>  -13.6079    1.0000 </r>
       <r>  -13.5298    1.0000 </r>
       <r>  -13.5294    1.0000 </r>
       <r>  -13.5182    1.0000 </r>
       <r>  -13.5148    1.0000 </r>
       <r>  -13.5055    1.0000 </r>
       <r>  -13.3598    1.0000 </r>
       <r>  -13.3379    1.0000 </r>
       <r>  -13.2556    1.0000 </r>
       <r>  -13.2235    1.0000 </r>
       <r>  -13.1147    1.0000 </r>
       <r>  -13.0598    1.0000 </r>
       <r>  -13.0538    1.0000 </r>
       <r>  -13.0504    1.0000 </r>
       <r>  -13.0431    1.0000 </r>
       <r>  -13.0401    1.0000 </r>
       <r>  -13.0375    1.0000 </r>
       <r>  -13.0347    1.0000 </r>
       <r>  -13.0331    1.0000 </r>
       <r>  -12.9770    1.0000 </r>
       <r>  -12.9315    1.0000 </r>
       <r>  -12.8892    1.0000 </r>
       <r>  -12.8850    1.0000 </r>
       <r>  -12.8823    1.0000 </r>
       <r>  -12.8796    1.0000 </r>
       <r>  -12.8768    1.0000 </r>
       <r>  -12.8741    1.0000 </r>
       <r>  -12.8729    1.0000 </r>
       <r>  -12.8702    1.0000 </r>
       <r>  -12.8694    1.0000 </r>
       <r>  -12.8673    1.0000 </r>
       <r>  -12.8633    1.0000 </r>
       <r>  -12.8629    1.0000 </r>
       <r>  -12.8609    1.0000 </r>
       <r>  -12.7178    1.0000 </r>
       <r>  -12.7150    1.0000 </r>
       <r>  -12.7139    1.0000 </r>
       <r>  -12.7105    1.0000 </r>
       <r>  -12.6824    1.0000 </r>
       <r>  -12.6098    1.0000 </r>
       <r>  -12.5916    1.0000 </r>
       <r>  -12.5839    1.0000 </r>
       <r>  -12.5693    1.0000 </r>
       <r>  -12.5551    1.0000 </r>
       <r>  -12.5336    1.0000 </r>
       <r>  -12.4988    1.0000 </r>
       <r>  -12.4378    1.0000 </r>
       <r>  -12.4311    1.0000 </r>
       <r>  -12.4259    1.0000 </r>
       <r>  -12.4197    1.0000 </r>
       <r>  -12.3359    1.0000 </r>
       <r>  -12.3320    1.0000 </r>
       <r>  -12.3281    1.0000 </r>
       <r>  -12.3233    1.0000 </r>
       <r>  -12.2435    1.0000 </r>
       <r>  -12.2423    1.0000 </r>
       <r>  -12.2390    1.0000 </r>
       <r>  -12.2363    1.0000 </r>
       <r>  -12.2171    1.0000 </r>
       <r>  -12.2159    1.0000 </r>
       <r>  -12.2103    1.0000 </r>
       <r>  -12.2085    1.0000 </r>
       <r>  -12.1774    1.0000 </r>
       <r>  -12.1752    1.0000 </r>
       <r>  -12.1701    1.0000 </r>
       <r>  -12.1695    1.0000 </r>
       <r>  -12.0951    1.0000 </r>
       <r>  -12.0938    1.0000 </r>
       <r>  -12.0921    1.0000 </r>
       <r>  -12.0887    1.0000 </r>
       <r>  -12.0858    1.0000 </r>
       <r>  -12.0838    1.0000 </r>
       <r>  -11.9503    1.0000 </r>
       <r>  -11.9480    1.0000 </r>
       <r>  -11.9467    1.0000 </r>
       <r>  -11.9444    1.0000 </r>
       <r>  -11.8169    1.0000 </r>
       <r>  -11.8141    1.0000 </r>
       <r>  -11.8070    1.0000 </r>
       <r>  -11.8062    1.0000 </r>
       <r>  -11.8059    1.0000 </r>
       <r>  -11.8048    1.0000 </r>
       <r>  -11.7843    1.0000 </r>
       <r>  -11.7840    1.0000 </r>
       <r>  -11.7806    1.0000 </r>
       <r>  -11.7804    1.0000 </r>
       <r>  -11.6679    1.0000 </r>
       <r>  -11.6676    1.0000 </r>
       <r>  -11.6651    1.0000 </r>
       <r>  -11.6586    1.0000 </r>
       <r>   -8.3630    1.0000 </r>
       <r>   -7.2838    1.0000 </r>
       <r>   -7.2707    1.0000 </r>
       <r>   -6.7936    1.0000 </r>
       <r>   -6.7046    1.0000 </r>
       <r>   -6.6829    1.0000 </r>
       <r>   -6.4379    1.0000 </r>
       <r>   -6.4062    1.0000 </r>
       <r>   -6.3220    1.0000 </r>
       <r>   -6.3074    1.0000 </r>
       <r>   -6.3052    1.0000 </r>
       <r>   -6.3045    1.0000 </r>
       <r>   -6.3003    1.0000 </r>
       <r>   -6.2873    1.0000 </r>
       <r>   -6.2736    1.0000 </r>
       <r>   -6.2727    1.0000 </r>
       <r>   -6.2712    1.0000 </r>
       <r>   -6.2709    1.0000 </r>
       <r>   -6.2162    1.0000 </r>
       <r>   -6.2142    1.0000 </r>
       <r>   -6.2131    1.0000 </r>
       <r>   -6.2044    1.0000 </r>
       <r>   -6.1983    1.0000 </r>
       <r>   -6.1959    1.0000 </r>
       <r>   -6.1579    1.0000 </r>
       <r>   -6.1577    1.0000 </r>
       <r>   -6.1520    1.0000 </r>
       <r>   -6.1471    1.0000 </r>
       <r>   -6.0736    1.0000 </r>
       <r>   -6.0703    1.0000 </r>
       <r>   -5.9327    1.0000 </r>
       <r>   -5.9305    1.0000 </r>
       <r>   -5.9079    1.0000 </r>
       <r>   -5.9070    1.0000 </r>
       <r>   -5.8439    1.0000 </r>
       <r>   -5.7886    1.0000 </r>
       <r>   -5.7836    1.0000 </r>
       <r>   -5.7742    1.0000 </r>
       <r>   -5.7675    1.0000 </r>
       <r>   -5.7646    1.0000 </r>
       <r>   -5.7634    1.0000 </r>
       <r>   -5.7632    1.0000 </r>
       <r>   -5.7624    1.0000 </r>
       <r>   -5.7573    1.0000 </r>
       <r>   -5.7525    1.0000 </r>
       <r>   -5.7520    1.0000 </r>
       <r>   -5.7434    1.0000 </r>
       <r>   -5.6847    1.0000 </r>
       <r>   -5.6546    1.0000 </r>
       <r>   -5.6421    1.0000 </r>
       <r>   -5.6235    1.0000 </r>
       <r>   -5.6221    1.0000 </r>
       <r>   -5.6207    1.0000 </r>
       <r>   -5.6182    1.0000 </r>
       <r>   -5.2273    1.0000 </r>
       <r>   -5.2258    1.0000 </r>
       <r>   -5.2242    1.0000 </r>
       <r>   -5.2231    1.0000 </r>
       <r>   -5.2218    1.0000 </r>
       <r>   -5.2213    1.0000 </r>
       <r>   -5.2209    1.0000 </r>
       <r>   -5.2204    1.0000 </r>
       <r>   -5.2193    1.0000 </r>
       <r>   -5.2186    1.0000 </r>
       <r>   -5.2177    1.0000 </r>
       <r>   -5.2176    1.0000 </r>
       <r>   -5.1151    1.0000 </r>
       <r>   -5.1103    1.0000 </r>
       <r>   -5.0934    1.0000 </r>
       <r>   -5.0912    1.0000 </r>
       <r>   -5.0882    1.0000 </r>
       <r>   -5.0873    1.0000 </r>
       <r>   -5.0867    1.0000 </r>
       <r>   -5.0827    1.0000 </r>
       <r>   -5.0260    1.0000 </r>
       <r>   -4.9210    1.0000 </r>
       <r>   -4.8318    1.0000 </r>
       <r>   -4.6117    1.0000 </r>
       <r>   -4.5543    1.0000 </r>
       <r>   -4.5412    1.0000 </r>
       <r>   -4.4758    1.0000 </r>
       <r>   -4.4734    1.0000 </r>
       <r>   -4.4720    1.0000 </r>
       <r>   -4.4713    1.0000 </r>
       <r>   -4.4707    1.0000 </r>
       <r>   -4.4694    1.0000 </r>
       <r>   -4.4679    1.0000 </r>
       <r>   -4.4675    1.0000 </r>
       <r>   -4.3449    1.0000 </r>
       <r>   -4.3422    1.0000 </r>
       <r>   -4.3405    1.0000 </r>
       <r>   -4.3383    1.0000 </r>
       <r>   -4.3172    1.0000 </r>
       <r>   -4.3163    1.0000 </r>
       <r>   -4.2018    1.0000 </r>
       <r>   -4.0977    1.0000 </r>
       <r>   -4.0875    1.0000 </r>
       <r>   -4.0872    1.0000 </r>
       <r>   -4.0848    1.0000 </r>
       <r>   -4.0839    1.0000 </r>
       <r>   -4.0743    1.0000 </r>
       <r>   -4.0741    1.0000 </r>
       <r>   -4.0721    1.0000 </r>
       <r>   -4.0710    1.0000 </r>
       <r>   -4.0288    1.0000 </r>
       <r>   -3.9501    1.0000 </r>
       <r>   -3.9500    1.0000 </r>
       <r>   -3.9475    1.0000 </r>
       <r>   -3.9463    1.0000 </r>
       <r>   -3.9092    1.0000 </r>
       <r>   -3.8654    1.0000 </r>
       <r>   -3.7856    1.0000 </r>
       <r>   -3.7514    1.0000 </r>
       <r>   -3.6232    1.0000 </r>
       <r>   -3.6213    1.0000 </r>
       <r>   -3.6153    1.0000 </r>
       <r>   -3.6138    1.0000 </r>
       <r>   -3.6039    1.0000 </r>
       <r>   -3.6032    1.0000 </r>
       <r>   -3.5986    1.0000 </r>
       <r>   -3.5980    1.0000 </r>
       <r>   -3.5153    1.0000 </r>
       <r>   -3.4800    1.0000 </r>
       <r>   -3.4795    1.0000 </r>
       <r>   -3.4782    1.0000 </r>
       <r>   -3.4740    1.0000 </r>
       <r>   -3.4714    1.0000 </r>
       <r>   -3.4689    1.0000 </r>
       <r>   -3.4683    1.0000 </r>
       <r>   -3.4654    1.0000 </r>
       <r>   -3.4645    1.0000 </r>
       <r>   -3.4503    1.0000 </r>
       <r>   -3.3495    1.0000 </r>
       <r>   -3.3399    1.0000 </r>
       <r>   -3.3378    1.0000 </r>
       <r>   -3.1560    1.0000 </r>
       <r>   -3.1308    1.0000 </r>
       <r>   -3.0972    1.0000 </r>
       <r>   -3.0761    1.0000 </r>
       <r>   -3.0741    1.0000 </r>
       <r>   -3.0699    1.0000 </r>
       <r>   -3.0689    1.0000 </r>
       <r>   -2.9930    1.0000 </r>
       <r>   -2.9382    1.0000 </r>
       <r>   -2.9361    1.0000 </r>
       <r>   -2.9330    1.0000 </r>
       <r>   -2.8558    1.0000 </r>
       <r>   -2.8101    1.0000 </r>
       <r>   -2.7789    1.0000 </r>
       <r>   -2.7705    1.0000 </r>
       <r>   -2.7697    1.0000 </r>
       <r>   -2.7566    1.0000 </r>
       <r>   -2.7539    1.0000 </r>
       <r>   -2.7362    1.0000 </r>
       <r>   -2.7262    1.0000 </r>
       <r>   -2.6832    1.0000 </r>
       <r>   -2.6794    1.0000 </r>
       <r>   -2.6689    1.0000 </r>
       <r>   -2.6674    1.0000 </r>
       <r>   -2.6671    1.0000 </r>
       <r>   -2.5464    1.0000 </r>
       <r>   -2.5434    1.0000 </r>
       <r>   -2.5226    1.0000 </r>
       <r>   -2.5223    1.0000 </r>
       <r>   -2.5123    1.0000 </r>
       <r>   -2.4608    1.0000 </r>
       <r>   -2.4251    1.0000 </r>
       <r>   -2.4157    1.0000 </r>
       <r>   -2.3850    1.0000 </r>
       <r>   -2.3763    1.0000 </r>
       <r>   -2.3743    1.0000 </r>
       <r>   -2.3742    1.0000 </r>
       <r>   -2.3733    1.0000 </r>
       <r>   -2.3722    1.0000 </r>
       <r>   -2.3707    1.0000 </r>
       <r>   -2.3697    1.0000 </r>
       <r>   -2.3687    1.0000 </r>
       <r>   -2.3602    1.0000 </r>
       <r>   -2.3584    1.0000 </r>
       <r>   -2.3555    1.0000 </r>
       <r>   -2.3293    1.0000 </r>
       <r>   -2.2676    1.0000 </r>
       <r>   -2.2427    1.0000 </r>
       <r>   -2.2410    1.0000 </r>
       <r>   -2.2397    1.0000 </r>
       <r>   -2.2354    1.0000 </r>
       <r>   -2.2117    1.0000 </r>
       <r>   -2.1750    1.0000 </r>
       <r>   -2.1451    1.0000 </r>
       <r>   -2.1297    1.0000 </r>
       <r>   -2.0890    1.0000 </r>
       <r>   -2.0885    1.0000 </r>
       <r>   -2.0882    1.0000 </r>
       <r>   -2.0876    1.0000 </r>
       <r>   -2.0553    1.0000 </r>
       <r>   -2.0552    1.0000 </r>
       <r>   -2.0543    1.0000 </r>
       <r>   -2.0537    1.0000 </r>
       <r>   -2.0420    1.0000 </r>
       <r>   -2.0321    1.0000 </r>
       <r>   -2.0104    1.0000 </r>
       <r>   -2.0099    1.0000 </r>
       <r>   -1.9821    1.0000 </r>
       <r>   -1.9422    1.0000 </r>
       <r>   -1.9419    1.0000 </r>
       <r>   -1.9371    1.0000 </r>
       <r>   -1.9328    1.0000 </r>
       <r>   -1.8966    1.0000 </r>
       <r>   -1.8696    1.0000 </r>
       <r>   -1.8679    1.0000 </r>
       <r>   -1.8669    1.0000 </r>
       <r>   -1.8654    1.0000 </r>
       <r>   -1.8574    1.0000 </r>
       <r>   -1.8552    1.0000 </r>
       <r>   -1.8227    1.0000 </r>
       <r>   -1.8208    1.0000 </r>
       <r>   -1.8178    1.0000 </r>
       <r>   -1.8142    1.0000 </r>
       <r>   -1.7858    1.0000 </r>
       <r>   -1.7774    1.0000 </r>
       <r>   -1.7771    1.0000 </r>
       <r>   -1.7759    1.0000 </r>
       <r>   -1.7758    1.0000 </r>
       <r>   -1.7755    1.0000 </r>
       <r>   -1.7755    1.0000 </r>
       <r>   -1.7743    1.0000 </r>
       <r>   -1.7739    1.0000 </r>
       <r>   -1.7165    1.0000 </r>
       <r>   -1.7086    1.0000 </r>
       <r>   -1.7076    1.0000 </r>
       <r>   -1.6955    1.0000 </r>
       <r>   -1.6607    1.0000 </r>
       <r>   -1.6505    1.0000 </r>
       <r>   -1.6486    1.0000 </r>
       <r>   -1.6456    1.0000 </r>
       <r>   -1.6445    1.0000 </r>
       <r>   -1.6433    1.0000 </r>
       <r>   -1.6353    1.0000 </r>
       <r>   -1.6159    1.0000 </r>
       <r>   -1.6137    1.0000 </r>
       <r>   -1.6052    1.0000 </r>
       <r>   -1.6031    1.0000 </r>
       <r>   -1.5828    1.0000 </r>
       <r>   -1.5805    1.0000 </r>
       <r>   -1.5802    1.0000 </r>
       <r>   -1.5669    1.0000 </r>
       <r>   -1.5665    1.0000 </r>
       <r>   -1.5587    1.0000 </r>
       <r>   -1.5539    1.0000 </r>
       <r>   -1.5514    1.0000 </r>
       <r>   -1.4908    1.0000 </r>
       <r>   -1.4565    1.0000 </r>
       <r>   -1.4399    1.0000 </r>
       <r>   -1.4303    1.0000 </r>
       <r>   -1.3508    1.0000 </r>
       <r>   -1.3479    1.0000 </r>
       <r>   -1.3393    1.0000 </r>
       <r>   -1.3377    1.0000 </r>
       <r>   -1.2295    1.0000 </r>
       <r>   -1.2293    1.0000 </r>
       <r>   -1.2259    1.0000 </r>
       <r>   -1.2259    1.0000 </r>
       <r>   -1.2121    1.0000 </r>
       <r>   -1.2118    1.0000 </r>
       <r>   -1.2101    1.0000 </r>
       <r>   -1.2083    1.0000 </r>
       <r>   -1.1909    1.0000 </r>
       <r>   -1.0928    1.0000 </r>
       <r>   -1.0898    1.0000 </r>
       <r>   -1.0888    1.0000 </r>
       <r>   -1.0864    1.0000 </r>
       <r>   -1.0521    1.0000 </r>
       <r>   -1.0267    1.0000 </r>
       <r>   -1.0140    1.0000 </r>
       <r>   -0.9777    1.0000 </r>
       <r>   -0.9332    1.0000 </r>
       <r>   -0.8686    1.0000 </r>
       <r>   -0.8464    1.0000 </r>
       <r>   -0.7820    1.0000 </r>
       <r>   -0.7785    1.0000 </r>
       <r>   -0.7582    1.0000 </r>
       <r>   -0.7241    1.0000 </r>
       <r>   -0.7170    1.0000 </r>
       <r>   -0.7134    1.0000 </r>
       <r>   -0.7112    1.0000 </r>
       <r>   -0.7101    1.0000 </r>
       <r>   -0.6783    1.0000 </r>
       <r>   -0.6770    1.0000 </r>
       <r>   -0.6752    1.0000 </r>
       <r>   -0.6746    1.0000 </r>
       <r>   -0.6629    1.0000 </r>
       <r>   -0.6577    1.0000 </r>
       <r>   -0.6567    1.0000 </r>
       <r>   -0.6256    1.0000 </r>
       <r>   -0.5178    1.0000 </r>
       <r>   -0.5168    1.0000 </r>
       <r>   -0.5159    1.0000 </r>
       <r>   -0.5147    1.0000 </r>
       <r>   -0.4620    1.0000 </r>
       <r>   -0.4585    1.0000 </r>
       <r>   -0.4577    1.0000 </r>
       <r>   -0.4572    1.0000 </r>
       <r>   -0.4542    1.0000 </r>
       <r>   -0.4537    1.0000 </r>
       <r>   -0.4530    1.0000 </r>
       <r>   -0.4498    1.0000 </r>
       <r>   -0.4399    1.0000 </r>
       <r>   -0.4130    1.0000 </r>
       <r>   -0.3849    1.0000 </r>
       <r>   -0.3837    1.0000 </r>
       <r>   -0.3799    1.0000 </r>
       <r>   -0.3714    1.0000 </r>
       <r>   -0.3572    1.0000 </r>
       <r>   -0.3547    1.0000 </r>
       <r>   -0.3539    1.0000 </r>
       <r>   -0.3467    1.0000 </r>
       <r>   -0.3432    1.0000 </r>
       <r>   -0.3427    1.0000 </r>
       <r>   -0.3298    1.0000 </r>
       <r>   -0.3265    1.0000 </r>
       <r>   -0.3253    1.0000 </r>
       <r>   -0.3232    1.0000 </r>
       <r>   -0.2802    1.0000 </r>
       <r>   -0.2256    1.0000 </r>
       <r>   -0.2213    1.0000 </r>
       <r>   -0.1261    1.0000 </r>
       <r>   -0.0465    1.0000 </r>
       <r>    0.0030    1.0000 </r>
       <r>    0.0428    1.0000 </r>
       <r>    0.1189    1.0000 </r>
       <r>    0.1522    1.0000 </r>
       <r>    0.1553    1.0000 </r>
       <r>    0.1676    1.0000 </r>
       <r>    0.1864    1.0000 </r>
       <r>    0.1998    1.0000 </r>
       <r>    0.2122    1.0000 </r>
       <r>    0.2125    1.0000 </r>
       <r>    0.2182    1.0000 </r>
       <r>    0.2204    1.0000 </r>
       <r>    0.2364    1.0000 </r>
       <r>    0.2409    1.0000 </r>
       <r>    0.2864    1.0000 </r>
       <r>    0.3099    1.0000 </r>
       <r>    0.3155    1.0000 </r>
       <r>    0.3434    1.0000 </r>
       <r>    0.3447    1.0000 </r>
       <r>    0.3489    1.0000 </r>
       <r>    0.3504    1.0000 </r>
       <r>    0.3664    1.0000 </r>
       <r>    0.3752    1.0000 </r>
       <r>    0.3944    1.0000 </r>
       <r>    0.4527    1.0000 </r>
       <r>    0.4580    1.0000 </r>
       <r>    0.4598    1.0000 </r>
       <r>    0.4624    1.0000 </r>
       <r>    0.4645    1.0000 </r>
       <r>    0.4650    1.0000 </r>
       <r>    0.4729    1.0000 </r>
       <r>    0.4776    1.0000 </r>
       <r>    0.5554    1.0000 </r>
       <r>    0.5598    1.0000 </r>
       <r>    0.5655    1.0000 </r>
       <r>    0.5851    1.0000 </r>
       <r>    0.5897    1.0000 </r>
       <r>    0.6849    1.0000 </r>
       <r>    0.6935    1.0000 </r>
       <r>    0.6993    1.0000 </r>
       <r>    0.7013    1.0000 </r>
       <r>    0.7235    1.0000 </r>
       <r>    0.8062    1.0000 </r>
       <r>    0.8088    1.0000 </r>
       <r>    0.8391    1.0000 </r>
       <r>    0.8555    1.0000 </r>
       <r>    0.8567    1.0000 </r>
       <r>    0.8804    1.0000 </r>
       <r>    0.8838    1.0000 </r>
       <r>    0.8850    1.0000 </r>
       <r>    0.9156    1.0000 </r>
       <r>    0.9909    1.0000 </r>
       <r>    0.9920    1.0000 </r>
       <r>    0.9940    1.0000 </r>
       <r>    1.0065    1.0000 </r>
       <r>    1.0204    1.0000 </r>
       <r>    1.0339    1.0000 </r>
       <r>    1.0824    1.0000 </r>
       <r>    1.0979    1.0000 </r>
       <r>    1.2063    1.0000 </r>
       <r>    1.2069    1.0000 </r>
       <r>    1.2157    1.0000 </r>
       <r>    1.2323    1.0000 </r>
       <r>    1.2454    1.0000 </r>
       <r>    1.2459    1.0000 </r>
       <r>    1.2544    1.0000 </r>
       <r>    1.2591    1.0000 </r>
       <r>    1.3157    1.0000 </r>
       <r>    1.3166    1.0000 </r>
       <r>    1.3631    1.0000 </r>
       <r>    1.3658    1.0000 </r>
       <r>    1.4008    1.0000 </r>
       <r>    1.4052    1.0000 </r>
       <r>    1.4403    1.0000 </r>
       <r>    1.4404    1.0000 </r>
       <r>    1.4980    1.0000 </r>
       <r>    1.5014    1.0000 </r>
       <r>    1.5374    1.0000 </r>
       <r>    1.5774    1.0000 </r>
       <r>    1.5890    1.0000 </r>
       <r>    1.5891    1.0000 </r>
       <r>    1.7635    1.0000 </r>
       <r>    1.7693    1.0000 </r>
       <r>    1.8460    1.0000 </r>
       <r>    1.8559    1.0000 </r>
       <r>    1.8604    1.0000 </r>
       <r>    1.8614    1.0000 </r>
       <r>    1.9208    1.0000 </r>
       <r>    1.9244    1.0000 </r>
       <r>    1.9514    1.0000 </r>
       <r>    1.9580    1.0000 </r>
       <r>    1.9796    1.0000 </r>
       <r>    1.9801    1.0000 </r>
       <r>    2.0236    1.0000 </r>
       <r>    2.0242    1.0000 </r>
       <r>    2.0631    1.0000 </r>
       <r>    2.0688    1.0000 </r>
       <r>    2.0963    1.0000 </r>
       <r>    2.0968    1.0000 </r>
       <r>    2.2230    1.0000 </r>
       <r>    2.2311    1.0000 </r>
       <r>    2.3982    1.0000 </r>
       <r>    2.3996    1.0000 </r>
       <r>    2.4052    1.0000 </r>
       <r>    2.4054    1.0000 </r>
       <r>    4.6621    1.0000 </r>
       <r>    5.8857    0.0000 </r>
       <r>    6.6170    0.0000 </r>
       <r>    6.6377    0.0000 </r>
       <r>    6.6378    0.0000 </r>
       <r>    6.8795    0.0000 </r>
       <r>    6.9262    0.0000 </r>
       <r>    6.9921    0.0000 </r>
       <r>    7.0031    0.0000 </r>
       <r>    7.0782    0.0000 </r>
       <r>    7.0879    0.0000 </r>
       <r>    7.1513    0.0000 </r>
       <r>    7.2117    0.0000 </r>
       <r>    7.2118    0.0000 </r>
       <r>    7.2285    0.0000 </r>
       <r>    7.2442    0.0000 </r>
       <r>    7.2825    0.0000 </r>
       <r>    7.2969    0.0000 </r>
       <r>    7.3061    0.0000 </r>
       <r>    7.3275    0.0000 </r>
       <r>    7.3330    0.0000 </r>
       <r>    7.3384    0.0000 </r>
       <r>    7.3433    0.0000 </r>
       <r>    7.3434    0.0000 </r>
       <r>    7.3603    0.0000 </r>
       <r>    7.3627    0.0000 </r>
       <r>    7.3830    0.0000 </r>
       <r>    7.3842    0.0000 </r>
       <r>    7.3921    0.0000 </r>
       <r>    7.3951    0.0000 </r>
       <r>    7.4291    0.0000 </r>
       <r>    7.4308    0.0000 </r>
       <r>    7.4580    0.0000 </r>
       <r>    7.6872    0.0000 </r>
       <r>    7.7390    0.0000 </r>
       <r>    7.7410    0.0000 </r>
       <r>    7.7459    0.0000 </r>
       <r>    7.7916    0.0000 </r>
       <r>    7.8210    0.0000 </r>
       <r>    7.8447    0.0000 </r>
       <r>    7.8740    0.0000 </r>
       <r>    7.8881    0.0000 </r>
       <r>    7.9061    0.0000 </r>
       <r>    7.9136    0.0000 </r>
       <r>    7.9195    0.0000 </r>
       <r>    7.9431    0.0000 </r>
       <r>    7.9656    0.0000 </r>
       <r>    8.0639    0.0000 </r>
       <r>    8.1127    0.0000 </r>
       <r>    8.1667    0.0000 </r>
       <r>    8.1697    0.0000 </r>
       <r>    8.1707    0.0000 </r>
       <r>    8.1868    0.0000 </r>
       <r>    8.2086    0.0000 </r>
       <r>    8.2214    0.0000 </r>
       <r>    8.2223    0.0000 </r>
       <r>    8.2333    0.0000 </r>
       <r>    8.2407    0.0000 </r>
       <r>    8.2549    0.0000 </r>
       <r>    8.2831    0.0000 </r>
       <r>    8.3927    0.0000 </r>
       <r>    8.5610    0.0000 </r>
       <r>    8.5802    0.0000 </r>
       <r>    8.5921    0.0000 </r>
       <r>    8.6329    0.0000 </r>
       <r>    8.6344    0.0000 </r>
       <r>    8.6457    0.0000 </r>
       <r>    8.6610    0.0000 </r>
       <r>    8.6694    0.0000 </r>
       <r>    8.6799    0.0000 </r>
       <r>    8.6878    0.0000 </r>
       <r>    8.6880    0.0000 </r>
       <r>    8.7292    0.0000 </r>
       <r>    8.8814    0.0000 </r>
       <r>    8.9559    0.0000 </r>
       <r>    8.9907    0.0000 </r>
       <r>    8.9978    0.0000 </r>
       <r>    9.0085    0.0000 </r>
       <r>    9.0560    0.0000 </r>
       <r>    9.1246    0.0000 </r>
       <r>    9.2093    0.0000 </r>
       <r>    9.2404    0.0000 </r>
       <r>    9.2647    0.0000 </r>
       <r>    9.2670    0.0000 </r>
       <r>    9.2680    0.0000 </r>
       <r>    9.2803    0.0000 </r>
       <r>    9.2947    0.0000 </r>
       <r>    9.2976    0.0000 </r>
       <r>    9.3032    0.0000 </r>
       <r>    9.3194    0.0000 </r>
       <r>    9.3256    0.0000 </r>
       <r>    9.3277    0.0000 </r>
       <r>    9.3296    0.0000 </r>
       <r>    9.3558    0.0000 </r>
       <r>    9.3985    0.0000 </r>
       <r>    9.4733    0.0000 </r>
       <r>    9.6114    0.0000 </r>
       <r>    9.6272    0.0000 </r>
       <r>    9.6812    0.0000 </r>
       <r>    9.6883    0.0000 </r>
       <r>    9.6906    0.0000 </r>
       <r>    9.7179    0.0000 </r>
       <r>    9.8768    0.0000 </r>
       <r>   10.0654    0.0000 </r>
       <r>   10.0887    0.0000 </r>
       <r>   10.0900    0.0000 </r>
       <r>   10.1022    0.0000 </r>
       <r>   10.1423    0.0000 </r>
       <r>   10.1705    0.0000 </r>
       <r>   10.1739    0.0000 </r>
       <r>   10.1898    0.0000 </r>
       <r>   10.1972    0.0000 </r>
       <r>   10.2266    0.0000 </r>
       <r>   10.2364    0.0000 </r>
       <r>   10.2816    0.0000 </r>
       <r>   10.3021    0.0000 </r>
       <r>   10.3032    0.0000 </r>
       <r>   10.3757    0.0000 </r>
       <r>   10.3799    0.0000 </r>
       <r>   10.3902    0.0000 </r>
       <r>   10.3950    0.0000 </r>
       <r>   10.4128    0.0000 </r>
       <r>   10.4367    0.0000 </r>
       <r>   10.4429    0.0000 </r>
       <r>   10.4658    0.0000 </r>
       <r>   10.5069    0.0000 </r>
       <r>   10.5270    0.0000 </r>
       <r>   10.6255    0.0000 </r>
       <r>   10.6679    0.0000 </r>
       <r>   10.7187    0.0000 </r>
       <r>   10.7207    0.0000 </r>
       <r>   10.7229    0.0000 </r>
       <r>   10.7308    0.0000 </r>
       <r>   10.7519    0.0000 </r>
       <r>   10.7585    0.0000 </r>
       <r>   10.7635    0.0000 </r>
       <r>   10.7826    0.0000 </r>
       <r>   10.7874    0.0000 </r>
       <r>   10.7924    0.0000 </r>
       <r>   10.8144    0.0000 </r>
       <r>   10.8147    0.0000 </r>
       <r>   11.2388    0.0000 </r>
       <r>   11.2569    0.0000 </r>
       <r>   11.5028    0.0000 </r>
       <r>   11.6148    0.0000 </r>
       <r>   11.6453    0.0000 </r>
       <r>   11.6718    0.0000 </r>
       <r>   11.7135    0.0000 </r>
       <r>   11.7400    0.0000 </r>
       <r>   11.7649    0.0000 </r>
       <r>   11.7983    0.0000 </r>
       <r>   12.2488    0.0000 </r>
      </set>
      <set comment="kpoint 5">
       <r>  -17.2937    1.0000 </r>
       <r>  -15.7199    1.0000 </r>
       <r>  -15.7199    1.0000 </r>
       <r>  -15.5736    1.0000 </r>
       <r>  -15.3956    1.0000 </r>
       <r>  -15.3101    1.0000 </r>
       <r>  -15.1585    1.0000 </r>
       <r>  -15.1584    1.0000 </r>
       <r>  -15.1583    1.0000 </r>
       <r>  -15.0713    1.0000 </r>
       <r>  -14.8870    1.0000 </r>
       <r>  -14.8642    1.0000 </r>
       <r>  -14.8635    1.0000 </r>
       <r>  -14.8472    1.0000 </r>
       <r>  -14.8429    1.0000 </r>
       <r>  -14.8428    1.0000 </r>
       <r>  -14.8385    1.0000 </r>
       <r>  -14.8374    1.0000 </r>
       <r>  -14.8275    1.0000 </r>
       <r>  -14.7639    1.0000 </r>
       <r>  -14.7636    1.0000 </r>
       <r>  -14.7439    1.0000 </r>
       <r>  -14.7205    1.0000 </r>
       <r>  -14.7204    1.0000 </r>
       <r>  -14.6447    1.0000 </r>
       <r>  -14.6336    1.0000 </r>
       <r>  -14.6317    1.0000 </r>
       <r>  -14.6209    1.0000 </r>
       <r>  -14.6183    1.0000 </r>
       <r>  -14.6135    1.0000 </r>
       <r>  -14.5609    1.0000 </r>
       <r>  -14.2536    1.0000 </r>
       <r>  -14.2536    1.0000 </r>
       <r>  -14.2425    1.0000 </r>
       <r>  -13.9155    1.0000 </r>
       <r>  -13.9154    1.0000 </r>
       <r>  -13.8548    1.0000 </r>
       <r>  -13.8486    1.0000 </r>
       <r>  -13.8435    1.0000 </r>
       <r>  -13.8427    1.0000 </r>
       <r>  -13.8391    1.0000 </r>
       <r>  -13.8381    1.0000 </r>
       <r>  -13.8367    1.0000 </r>
       <r>  -13.8135    1.0000 </r>
       <r>  -13.7958    1.0000 </r>
       <r>  -13.7957    1.0000 </r>
       <r>  -13.7839    1.0000 </r>
       <r>  -13.7778    1.0000 </r>
       <r>  -13.7777    1.0000 </r>
       <r>  -13.7522    1.0000 </r>
       <r>  -13.7507    1.0000 </r>
       <r>  -13.7507    1.0000 </r>
       <r>  -13.6420    1.0000 </r>
       <r>  -13.6399    1.0000 </r>
       <r>  -13.6376    1.0000 </r>
       <r>  -13.6370    1.0000 </r>
       <r>  -13.6352    1.0000 </r>
       <r>  -13.6320    1.0000 </r>
       <r>  -13.3985    1.0000 </r>
       <r>  -13.3947    1.0000 </r>
       <r>  -13.3941    1.0000 </r>
       <r>  -13.3940    1.0000 </r>
       <r>  -13.3935    1.0000 </r>
       <r>  -13.3916    1.0000 </r>
       <r>  -13.3728    1.0000 </r>
       <r>  -13.3727    1.0000 </r>
       <r>  -13.3572    1.0000 </r>
       <r>  -13.3498    1.0000 </r>
       <r>  -13.3498    1.0000 </r>
       <r>  -13.3494    1.0000 </r>
       <r>  -13.2679    1.0000 </r>
       <r>  -13.2679    1.0000 </r>
       <r>  -13.2093    1.0000 </r>
       <r>  -13.2056    1.0000 </r>
       <r>  -13.2043    1.0000 </r>
       <r>  -13.2037    1.0000 </r>
       <r>  -13.2029    1.0000 </r>
       <r>  -13.1990    1.0000 </r>
       <r>  -12.8944    1.0000 </r>
       <r>  -12.8583    1.0000 </r>
       <r>  -12.8582    1.0000 </r>
       <r>  -12.7736    1.0000 </r>
       <r>  -12.6758    1.0000 </r>
       <r>  -12.5897    1.0000 </r>
       <r>  -12.5896    1.0000 </r>
       <r>  -12.5887    1.0000 </r>
       <r>  -12.5331    1.0000 </r>
       <r>  -12.5331    1.0000 </r>
       <r>  -12.4972    1.0000 </r>
       <r>  -12.4972    1.0000 </r>
       <r>  -12.4680    1.0000 </r>
       <r>  -12.3506    1.0000 </r>
       <r>  -12.3362    1.0000 </r>
       <r>  -12.3312    1.0000 </r>
       <r>  -12.3204    1.0000 </r>
       <r>  -12.3200    1.0000 </r>
       <r>  -12.3154    1.0000 </r>
       <r>  -12.3122    1.0000 </r>
       <r>  -12.3119    1.0000 </r>
       <r>  -12.3040    1.0000 </r>
       <r>  -12.3038    1.0000 </r>
       <r>  -12.2949    1.0000 </r>
       <r>  -12.2946    1.0000 </r>
       <r>  -12.2897    1.0000 </r>
       <r>  -12.2891    1.0000 </r>
       <r>  -12.2881    1.0000 </r>
       <r>  -12.2878    1.0000 </r>
       <r>  -12.2787    1.0000 </r>
       <r>  -12.2766    1.0000 </r>
       <r>  -12.2700    1.0000 </r>
       <r>  -12.2697    1.0000 </r>
       <r>  -12.2672    1.0000 </r>
       <r>  -12.2671    1.0000 </r>
       <r>  -12.2562    1.0000 </r>
       <r>  -12.2553    1.0000 </r>
       <r>  -12.1931    1.0000 </r>
       <r>  -12.1921    1.0000 </r>
       <r>  -12.1918    1.0000 </r>
       <r>  -12.1846    1.0000 </r>
       <r>  -12.1835    1.0000 </r>
       <r>  -12.1833    1.0000 </r>
       <r>  -12.1608    1.0000 </r>
       <r>  -12.1578    1.0000 </r>
       <r>  -12.1544    1.0000 </r>
       <r>  -12.1533    1.0000 </r>
       <r>  -12.1513    1.0000 </r>
       <r>  -12.1507    1.0000 </r>
       <r>  -12.1490    1.0000 </r>
       <r>  -12.1439    1.0000 </r>
       <r>  -12.1431    1.0000 </r>
       <r>  -12.1413    1.0000 </r>
       <r>  -12.1402    1.0000 </r>
       <r>  -12.1339    1.0000 </r>
       <r>  -12.0647    1.0000 </r>
       <r>  -12.0618    1.0000 </r>
       <r>  -12.0582    1.0000 </r>
       <r>  -11.9615    1.0000 </r>
       <r>  -11.9615    1.0000 </r>
       <r>  -11.5949    1.0000 </r>
       <r>  -11.5943    1.0000 </r>
       <r>  -11.5940    1.0000 </r>
       <r>  -11.5934    1.0000 </r>
       <r>  -11.4707    1.0000 </r>
       <r>  -11.4668    1.0000 </r>
       <r>   -8.3731    1.0000 </r>
       <r>   -7.3289    1.0000 </r>
       <r>   -7.3288    1.0000 </r>
       <r>   -6.6088    1.0000 </r>
       <r>   -6.6087    1.0000 </r>
       <r>   -6.5433    1.0000 </r>
       <r>   -6.5259    1.0000 </r>
       <r>   -6.5259    1.0000 </r>
       <r>   -6.5243    1.0000 </r>
       <r>   -6.5208    1.0000 </r>
       <r>   -6.5208    1.0000 </r>
       <r>   -6.5095    1.0000 </r>
       <r>   -6.4867    1.0000 </r>
       <r>   -6.3918    1.0000 </r>
       <r>   -6.3899    1.0000 </r>
       <r>   -6.3881    1.0000 </r>
       <r>   -6.3162    1.0000 </r>
       <r>   -6.3162    1.0000 </r>
       <r>   -6.0962    1.0000 </r>
       <r>   -6.0962    1.0000 </r>
       <r>   -6.0294    1.0000 </r>
       <r>   -6.0293    1.0000 </r>
       <r>   -6.0064    1.0000 </r>
       <r>   -5.9874    1.0000 </r>
       <r>   -5.9069    1.0000 </r>
       <r>   -5.9068    1.0000 </r>
       <r>   -5.7170    1.0000 </r>
       <r>   -5.7167    1.0000 </r>
       <r>   -5.7107    1.0000 </r>
       <r>   -5.7106    1.0000 </r>
       <r>   -5.7080    1.0000 </r>
       <r>   -5.7079    1.0000 </r>
       <r>   -5.7017    1.0000 </r>
       <r>   -5.7016    1.0000 </r>
       <r>   -5.6933    1.0000 </r>
       <r>   -5.6887    1.0000 </r>
       <r>   -5.6880    1.0000 </r>
       <r>   -5.6849    1.0000 </r>
       <r>   -5.6835    1.0000 </r>
       <r>   -5.6833    1.0000 </r>
       <r>   -5.6781    1.0000 </r>
       <r>   -5.6765    1.0000 </r>
       <r>   -5.6719    1.0000 </r>
       <r>   -5.6718    1.0000 </r>
       <r>   -5.6702    1.0000 </r>
       <r>   -5.6701    1.0000 </r>
       <r>   -5.6655    1.0000 </r>
       <r>   -5.6654    1.0000 </r>
       <r>   -5.6633    1.0000 </r>
       <r>   -5.6632    1.0000 </r>
       <r>   -5.5815    1.0000 </r>
       <r>   -5.5810    1.0000 </r>
       <r>   -5.5616    1.0000 </r>
       <r>   -5.5590    1.0000 </r>
       <r>   -5.5577    1.0000 </r>
       <r>   -5.5573    1.0000 </r>
       <r>   -5.5550    1.0000 </r>
       <r>   -5.5550    1.0000 </r>
       <r>   -5.5549    1.0000 </r>
       <r>   -5.5527    1.0000 </r>
       <r>   -5.5510    1.0000 </r>
       <r>   -5.5503    1.0000 </r>
       <r>   -5.5491    1.0000 </r>
       <r>   -5.5478    1.0000 </r>
       <r>   -5.5462    1.0000 </r>
       <r>   -5.5423    1.0000 </r>
       <r>   -5.4190    1.0000 </r>
       <r>   -5.4178    1.0000 </r>
       <r>   -5.3696    1.0000 </r>
       <r>   -5.2477    1.0000 </r>
       <r>   -5.1470    1.0000 </r>
       <r>   -5.1470    1.0000 </r>
       <r>   -4.9933    1.0000 </r>
       <r>   -4.9233    1.0000 </r>
       <r>   -4.9233    1.0000 </r>
       <r>   -4.8739    1.0000 </r>
       <r>   -4.7464    1.0000 </r>
       <r>   -4.7464    1.0000 </r>
       <r>   -4.7455    1.0000 </r>
       <r>   -4.7454    1.0000 </r>
       <r>   -4.6191    1.0000 </r>
       <r>   -4.6191    1.0000 </r>
       <r>   -4.4801    1.0000 </r>
       <r>   -4.4795    1.0000 </r>
       <r>   -4.4794    1.0000 </r>
       <r>   -4.4763    1.0000 </r>
       <r>   -4.4762    1.0000 </r>
       <r>   -4.4761    1.0000 </r>
       <r>   -4.4718    1.0000 </r>
       <r>   -4.4718    1.0000 </r>
       <r>   -4.4703    1.0000 </r>
       <r>   -4.4687    1.0000 </r>
       <r>   -4.4687    1.0000 </r>
       <r>   -4.4685    1.0000 </r>
       <r>   -4.3426    1.0000 </r>
       <r>   -4.3412    1.0000 </r>
       <r>   -4.3390    1.0000 </r>
       <r>   -4.3389    1.0000 </r>
       <r>   -4.3365    1.0000 </r>
       <r>   -4.3354    1.0000 </r>
       <r>   -4.3019    1.0000 </r>
       <r>   -4.0489    1.0000 </r>
       <r>   -3.9419    1.0000 </r>
       <r>   -3.9418    1.0000 </r>
       <r>   -3.6298    1.0000 </r>
       <r>   -3.6297    1.0000 </r>
       <r>   -3.6149    1.0000 </r>
       <r>   -3.5983    1.0000 </r>
       <r>   -3.5593    1.0000 </r>
       <r>   -3.5190    1.0000 </r>
       <r>   -3.5189    1.0000 </r>
       <r>   -3.5128    1.0000 </r>
       <r>   -3.3591    1.0000 </r>
       <r>   -3.3201    1.0000 </r>
       <r>   -3.3200    1.0000 </r>
       <r>   -3.3058    1.0000 </r>
       <r>   -3.3058    1.0000 </r>
       <r>   -3.2519    1.0000 </r>
       <r>   -3.2518    1.0000 </r>
       <r>   -3.2207    1.0000 </r>
       <r>   -3.1824    1.0000 </r>
       <r>   -3.1736    1.0000 </r>
       <r>   -3.1735    1.0000 </r>
       <r>   -3.0984    1.0000 </r>
       <r>   -3.0983    1.0000 </r>
       <r>   -3.0977    1.0000 </r>
       <r>   -3.0970    1.0000 </r>
       <r>   -3.0969    1.0000 </r>
       <r>   -3.0967    1.0000 </r>
       <r>   -3.0963    1.0000 </r>
       <r>   -3.0963    1.0000 </r>
       <r>   -3.0955    1.0000 </r>
       <r>   -3.0953    1.0000 </r>
       <r>   -3.0952    1.0000 </r>
       <r>   -3.0952    1.0000 </r>
       <r>   -3.0212    1.0000 </r>
       <r>   -3.0210    1.0000 </r>
       <r>   -2.9735    1.0000 </r>
       <r>   -2.9708    1.0000 </r>
       <r>   -2.9691    1.0000 </r>
       <r>   -2.9685    1.0000 </r>
       <r>   -2.9674    1.0000 </r>
       <r>   -2.9669    1.0000 </r>
       <r>   -2.9645    1.0000 </r>
       <r>   -2.9265    1.0000 </r>
       <r>   -2.9263    1.0000 </r>
       <r>   -2.9218    1.0000 </r>
       <r>   -2.9217    1.0000 </r>
       <r>   -2.9190    1.0000 </r>
       <r>   -2.9189    1.0000 </r>
       <r>   -2.9132    1.0000 </r>
       <r>   -2.9131    1.0000 </r>
       <r>   -2.9086    1.0000 </r>
       <r>   -2.9037    1.0000 </r>
       <r>   -2.9025    1.0000 </r>
       <r>   -2.8966    1.0000 </r>
       <r>   -2.8939    1.0000 </r>
       <r>   -2.8926    1.0000 </r>
       <r>   -2.8878    1.0000 </r>
       <r>   -2.8860    1.0000 </r>
       <r>   -2.8824    1.0000 </r>
       <r>   -2.8822    1.0000 </r>
       <r>   -2.8804    1.0000 </r>
       <r>   -2.8802    1.0000 </r>
       <r>   -2.8760    1.0000 </r>
       <r>   -2.8759    1.0000 </r>
       <r>   -2.8734    1.0000 </r>
       <r>   -2.8733    1.0000 </r>
       <r>   -2.8601    1.0000 </r>
       <r>   -2.8295    1.0000 </r>
       <r>   -2.8284    1.0000 </r>
       <r>   -2.8043    1.0000 </r>
       <r>   -2.8027    1.0000 </r>
       <r>   -2.7935    1.0000 </r>
       <r>   -2.7742    1.0000 </r>
       <r>   -2.7717    1.0000 </r>
       <r>   -2.7710    1.0000 </r>
       <r>   -2.7702    1.0000 </r>
       <r>   -2.7677    1.0000 </r>
       <r>   -2.7666    1.0000 </r>
       <r>   -2.7647    1.0000 </r>
       <r>   -2.7618    1.0000 </r>
       <r>   -2.7604    1.0000 </r>
       <r>   -2.7598    1.0000 </r>
       <r>   -2.7592    1.0000 </r>
       <r>   -2.7557    1.0000 </r>
       <r>   -2.4050    1.0000 </r>
       <r>   -2.2442    1.0000 </r>
       <r>   -2.2442    1.0000 </r>
       <r>   -2.2173    1.0000 </r>
       <r>   -2.1190    1.0000 </r>
       <r>   -2.0979    1.0000 </r>
       <r>   -2.0919    1.0000 </r>
       <r>   -2.0918    1.0000 </r>
       <r>   -2.0876    1.0000 </r>
       <r>   -2.0221    1.0000 </r>
       <r>   -2.0220    1.0000 </r>
       <r>   -1.9511    1.0000 </r>
       <r>   -1.9511    1.0000 </r>
       <r>   -1.9016    1.0000 </r>
       <r>   -1.7147    1.0000 </r>
       <r>   -1.7146    1.0000 </r>
       <r>   -1.7144    1.0000 </r>
       <r>   -1.7099    1.0000 </r>
       <r>   -1.7099    1.0000 </r>
       <r>   -1.7098    1.0000 </r>
       <r>   -1.6906    1.0000 </r>
       <r>   -1.6904    1.0000 </r>
       <r>   -1.6811    1.0000 </r>
       <r>   -1.6656    1.0000 </r>
       <r>   -1.6371    1.0000 </r>
       <r>   -1.6371    1.0000 </r>
       <r>   -1.5941    1.0000 </r>
       <r>   -1.5939    1.0000 </r>
       <r>   -1.5825    1.0000 </r>
       <r>   -1.5807    1.0000 </r>
       <r>   -1.5789    1.0000 </r>
       <r>   -1.5746    1.0000 </r>
       <r>   -1.5743    1.0000 </r>
       <r>   -1.5702    1.0000 </r>
       <r>   -1.5482    1.0000 </r>
       <r>   -1.5232    1.0000 </r>
       <r>   -1.5231    1.0000 </r>
       <r>   -1.5061    1.0000 </r>
       <r>   -1.5025    1.0000 </r>
       <r>   -1.5023    1.0000 </r>
       <r>   -1.5011    1.0000 </r>
       <r>   -1.5000    1.0000 </r>
       <r>   -1.4999    1.0000 </r>
       <r>   -1.4980    1.0000 </r>
       <r>   -1.4917    1.0000 </r>
       <r>   -1.4917    1.0000 </r>
       <r>   -1.4915    1.0000 </r>
       <r>   -1.4914    1.0000 </r>
       <r>   -1.4895    1.0000 </r>
       <r>   -1.4877    1.0000 </r>
       <r>   -1.4875    1.0000 </r>
       <r>   -1.4875    1.0000 </r>
       <r>   -1.4819    1.0000 </r>
       <r>   -1.4472    1.0000 </r>
       <r>   -1.4450    1.0000 </r>
       <r>   -1.4314    1.0000 </r>
       <r>   -1.4303    1.0000 </r>
       <r>   -1.4291    1.0000 </r>
       <r>   -1.3887    1.0000 </r>
       <r>   -1.3788    1.0000 </r>
       <r>   -1.3775    1.0000 </r>
       <r>   -1.3744    1.0000 </r>
       <r>   -1.3725    1.0000 </r>
       <r>   -1.3711    1.0000 </r>
       <r>   -1.3667    1.0000 </r>
       <r>   -1.3640    1.0000 </r>
       <r>   -1.3614    1.0000 </r>
       <r>   -1.3610    1.0000 </r>
       <r>   -1.3582    1.0000 </r>
       <r>   -1.3575    1.0000 </r>
       <r>   -1.2386    1.0000 </r>
       <r>   -1.2234    1.0000 </r>
       <r>   -1.2232    1.0000 </r>
       <r>   -1.1525    1.0000 </r>
       <r>   -1.1519    1.0000 </r>
       <r>   -1.1518    1.0000 </r>
       <r>   -1.1506    1.0000 </r>
       <r>   -1.1505    1.0000 </r>
       <r>   -1.1495    1.0000 </r>
       <r>   -1.1495    1.0000 </r>
       <r>   -1.1493    1.0000 </r>
       <r>   -1.1481    1.0000 </r>
       <r>   -1.1475    1.0000 </r>
       <r>   -1.1474    1.0000 </r>
       <r>   -1.1462    1.0000 </r>
       <r>   -1.1462    1.0000 </r>
       <r>   -1.1452    1.0000 </r>
       <r>   -1.1255    1.0000 </r>
       <r>   -1.1059    1.0000 </r>
       <r>   -1.0246    1.0000 </r>
       <r>   -1.0211    1.0000 </r>
       <r>   -1.0193    1.0000 </r>
       <r>   -1.0190    1.0000 </r>
       <r>   -1.0174    1.0000 </r>
       <r>   -1.0138    1.0000 </r>
       <r>   -1.0088    1.0000 </r>
       <r>   -1.0087    1.0000 </r>
       <r>   -0.9944    1.0000 </r>
       <r>   -0.8613    1.0000 </r>
       <r>   -0.8611    1.0000 </r>
       <r>   -0.8599    1.0000 </r>
       <r>   -0.8515    1.0000 </r>
       <r>   -0.8512    1.0000 </r>
       <r>   -0.8493    1.0000 </r>
       <r>   -0.8433    1.0000 </r>
       <r>   -0.8432    1.0000 </r>
       <r>   -0.8347    1.0000 </r>
       <r>   -0.8342    1.0000 </r>
       <r>   -0.8340    1.0000 </r>
       <r>   -0.8257    1.0000 </r>
       <r>   -0.7538    1.0000 </r>
       <r>   -0.7474    1.0000 </r>
       <r>   -0.7458    1.0000 </r>
       <r>   -0.7434    1.0000 </r>
       <r>   -0.7428    1.0000 </r>
       <r>   -0.7409    1.0000 </r>
       <r>   -0.7237    1.0000 </r>
       <r>   -0.7225    1.0000 </r>
       <r>   -0.7201    1.0000 </r>
       <r>   -0.7175    1.0000 </r>
       <r>   -0.7149    1.0000 </r>
       <r>   -0.7096    1.0000 </r>
       <r>   -0.4602    1.0000 </r>
       <r>   -0.4601    1.0000 </r>
       <r>   -0.4256    1.0000 </r>
       <r>   -0.3428    1.0000 </r>
       <r>   -0.3388    1.0000 </r>
       <r>   -0.3386    1.0000 </r>
       <r>   -0.3351    1.0000 </r>
       <r>   -0.2588    1.0000 </r>
       <r>   -0.2588    1.0000 </r>
       <r>   -0.1366    1.0000 </r>
       <r>   -0.1276    1.0000 </r>
       <r>   -0.1257    1.0000 </r>
       <r>   -0.1233    1.0000 </r>
       <r>   -0.1213    1.0000 </r>
       <r>   -0.1193    1.0000 </r>
       <r>   -0.0883    1.0000 </r>
       <r>   -0.0882    1.0000 </r>
       <r>   -0.0388    1.0000 </r>
       <r>    0.0032    1.0000 </r>
       <r>    0.0034    1.0000 </r>
       <r>    0.1437    1.0000 </r>
       <r>    0.2136    1.0000 </r>
       <r>    0.2160    1.0000 </r>
       <r>    0.2170    1.0000 </r>
       <r>    0.2172    1.0000 </r>
       <r>    0.2196    1.0000 </r>
       <r>    0.2198    1.0000 </r>
       <r>    0.2229    1.0000 </r>
       <r>    0.2230    1.0000 </r>
       <r>    0.2288    1.0000 </r>
       <r>    0.2361    1.0000 </r>
       <r>    0.2362    1.0000 </r>
       <r>    0.2393    1.0000 </r>
       <r>    0.2393    1.0000 </r>
       <r>    0.2445    1.0000 </r>
       <r>    0.2479    1.0000 </r>
       <r>    0.3447    1.0000 </r>
       <r>    0.3448    1.0000 </r>
       <r>    0.3498    1.0000 </r>
       <r>    0.3536    1.0000 </r>
       <r>    0.3554    1.0000 </r>
       <r>    0.3603    1.0000 </r>
       <r>    0.3621    1.0000 </r>
       <r>    0.3671    1.0000 </r>
       <r>    0.4266    1.0000 </r>
       <r>    0.4349    1.0000 </r>
       <r>    0.4369    1.0000 </r>
       <r>    0.4385    1.0000 </r>
       <r>    0.4395    1.0000 </r>
       <r>    0.4419    1.0000 </r>
       <r>    0.4519    1.0000 </r>
       <r>    0.5755    1.0000 </r>
       <r>    0.6355    1.0000 </r>
       <r>    0.6357    1.0000 </r>
       <r>    0.7163    1.0000 </r>
       <r>    0.7164    1.0000 </r>
       <r>    0.7435    1.0000 </r>
       <r>    0.7435    1.0000 </r>
       <r>    0.7449    1.0000 </r>
       <r>    0.7759    1.0000 </r>
       <r>    0.7816    1.0000 </r>
       <r>    0.7817    1.0000 </r>
       <r>    0.9029    1.0000 </r>
       <r>    0.9248    1.0000 </r>
       <r>    0.9254    1.0000 </r>
       <r>    0.9260    1.0000 </r>
       <r>    0.9417    1.0000 </r>
       <r>    0.9422    1.0000 </r>
       <r>    0.9440    1.0000 </r>
       <r>    0.9441    1.0000 </r>
       <r>    0.9478    1.0000 </r>
       <r>    0.9519    1.0000 </r>
       <r>    0.9527    1.0000 </r>
       <r>    0.9613    1.0000 </r>
       <r>    0.9628    1.0000 </r>
       <r>    0.9640    1.0000 </r>
       <r>    0.9680    1.0000 </r>
       <r>    1.1330    1.0000 </r>
       <r>    1.1331    1.0000 </r>
       <r>    1.1348    1.0000 </r>
       <r>    1.1348    1.0000 </r>
       <r>    1.1794    1.0000 </r>
       <r>    1.1825    1.0000 </r>
       <r>    1.1834    1.0000 </r>
       <r>    1.2590    1.0000 </r>
       <r>    1.2639    1.0000 </r>
       <r>    1.4105    1.0000 </r>
       <r>    1.4107    1.0000 </r>
       <r>    1.4896    1.0000 </r>
       <r>    1.5436    1.0000 </r>
       <r>    1.5828    1.0000 </r>
       <r>    1.5832    1.0000 </r>
       <r>    1.6174    1.0000 </r>
       <r>    1.6177    1.0000 </r>
       <r>    1.6462    1.0000 </r>
       <r>    1.6654    1.0000 </r>
       <r>    1.6666    1.0000 </r>
       <r>    1.6666    1.0000 </r>
       <r>    1.7235    1.0000 </r>
       <r>    1.7237    1.0000 </r>
       <r>    1.7255    1.0000 </r>
       <r>    1.7656    1.0000 </r>
       <r>    1.7885    1.0000 </r>
       <r>    1.7897    1.0000 </r>
       <r>    1.7908    1.0000 </r>
       <r>    1.8040    1.0000 </r>
       <r>    1.8048    1.0000 </r>
       <r>    1.8135    1.0000 </r>
       <r>    1.8141    1.0000 </r>
       <r>    1.8207    1.0000 </r>
       <r>    1.8229    1.0000 </r>
       <r>    1.8244    1.0000 </r>
       <r>    1.8290    1.0000 </r>
       <r>    1.8916    1.0000 </r>
       <r>    1.8940    1.0000 </r>
       <r>    1.8957    1.0000 </r>
       <r>    2.0438    1.0000 </r>
       <r>    2.0438    1.0000 </r>
       <r>    2.3639    1.0000 </r>
       <r>    2.3726    1.0000 </r>
       <r>    2.3758    1.0000 </r>
       <r>    2.3788    1.0000 </r>
       <r>    2.4996    1.0000 </r>
       <r>    2.5016    1.0000 </r>
       <r>    4.6602    1.0000 </r>
       <r>    5.9138    0.0000 </r>
       <r>    6.4838    0.0000 </r>
       <r>    6.4838    0.0000 </r>
       <r>    6.6877    0.0000 </r>
       <r>    6.7484    0.0000 </r>
       <r>    6.8605    0.0000 </r>
       <r>    6.8614    0.0000 </r>
       <r>    6.8666    0.0000 </r>
       <r>    7.1105    0.0000 </r>
       <r>    7.1835    0.0000 </r>
       <r>    7.1836    0.0000 </r>
       <r>    7.1886    0.0000 </r>
       <r>    7.1887    0.0000 </r>
       <r>    7.2628    0.0000 </r>
       <r>    7.2629    0.0000 </r>
       <r>    7.3168    0.0000 </r>
       <r>    7.3168    0.0000 </r>
       <r>    7.3520    0.0000 </r>
       <r>    7.4112    0.0000 </r>
       <r>    7.4113    0.0000 </r>
       <r>    7.5198    0.0000 </r>
       <r>    7.5198    0.0000 </r>
       <r>    7.5726    0.0000 </r>
       <r>    7.5785    0.0000 </r>
       <r>    7.5786    0.0000 </r>
       <r>    7.5971    0.0000 </r>
       <r>    7.6308    0.0000 </r>
       <r>    7.6309    0.0000 </r>
       <r>    7.6359    0.0000 </r>
       <r>    7.6938    0.0000 </r>
       <r>    7.6943    0.0000 </r>
       <r>    7.7144    0.0000 </r>
       <r>    7.7224    0.0000 </r>
       <r>    7.7256    0.0000 </r>
       <r>    7.7274    0.0000 </r>
       <r>    7.7429    0.0000 </r>
       <r>    7.7435    0.0000 </r>
       <r>    7.7497    0.0000 </r>
       <r>    7.7523    0.0000 </r>
       <r>    7.7558    0.0000 </r>
       <r>    7.7573    0.0000 </r>
       <r>    7.8171    0.0000 </r>
       <r>    7.8180    0.0000 </r>
       <r>    7.8198    0.0000 </r>
       <r>    8.0143    0.0000 </r>
       <r>    8.0833    0.0000 </r>
       <r>    8.0834    0.0000 </r>
       <r>    8.0961    0.0000 </r>
       <r>    8.1455    0.0000 </r>
       <r>    8.1457    0.0000 </r>
       <r>    8.1866    0.0000 </r>
       <r>    8.1867    0.0000 </r>
       <r>    8.2148    0.0000 </r>
       <r>    8.2208    0.0000 </r>
       <r>    8.2209    0.0000 </r>
       <r>    8.2276    0.0000 </r>
       <r>    8.3064    0.0000 </r>
       <r>    8.3198    0.0000 </r>
       <r>    8.3201    0.0000 </r>
       <r>    8.3241    0.0000 </r>
       <r>    8.3313    0.0000 </r>
       <r>    8.3416    0.0000 </r>
       <r>    8.3441    0.0000 </r>
       <r>    8.3484    0.0000 </r>
       <r>    8.3495    0.0000 </r>
       <r>    8.3599    0.0000 </r>
       <r>    8.3621    0.0000 </r>
       <r>    8.3625    0.0000 </r>
       <r>    8.3641    0.0000 </r>
       <r>    8.3679    0.0000 </r>
       <r>    8.8096    0.0000 </r>
       <r>    8.8864    0.0000 </r>
       <r>    8.8864    0.0000 </r>
       <r>    9.0805    0.0000 </r>
       <r>    9.0810    0.0000 </r>
       <r>    9.0826    0.0000 </r>
       <r>    9.0827    0.0000 </r>
       <r>    9.1298    0.0000 </r>
       <r>    9.1300    0.0000 </r>
       <r>    9.1318    0.0000 </r>
       <r>    9.1577    0.0000 </r>
       <r>    9.1708    0.0000 </r>
       <r>    9.1970    0.0000 </r>
       <r>    9.1974    0.0000 </r>
       <r>    9.2198    0.0000 </r>
       <r>    9.2257    0.0000 </r>
       <r>    9.2269    0.0000 </r>
       <r>    9.2396    0.0000 </r>
       <r>    9.2738    0.0000 </r>
       <r>    9.2742    0.0000 </r>
       <r>    9.3893    0.0000 </r>
       <r>    9.3897    0.0000 </r>
       <r>    9.3905    0.0000 </r>
       <r>    9.4328    0.0000 </r>
       <r>    9.5274    0.0000 </r>
       <r>    9.5284    0.0000 </r>
       <r>    9.6647    0.0000 </r>
       <r>    9.7650    0.0000 </r>
       <r>    9.7651    0.0000 </r>
       <r>    9.7891    0.0000 </r>
       <r>    9.7892    0.0000 </r>
       <r>    9.7997    0.0000 </r>
       <r>    9.9501    0.0000 </r>
       <r>    9.9517    0.0000 </r>
       <r>    9.9525    0.0000 </r>
       <r>    9.9728    0.0000 </r>
       <r>    9.9737    0.0000 </r>
       <r>    9.9749    0.0000 </r>
       <r>   10.0705    0.0000 </r>
       <r>   10.1257    0.0000 </r>
       <r>   10.1264    0.0000 </r>
       <r>   10.1442    0.0000 </r>
       <r>   10.1448    0.0000 </r>
       <r>   10.1681    0.0000 </r>
       <r>   10.1825    0.0000 </r>
       <r>   10.1827    0.0000 </r>
       <r>   10.1912    0.0000 </r>
       <r>   10.1961    0.0000 </r>
       <r>   10.1971    0.0000 </r>
       <r>   10.2728    0.0000 </r>
       <r>   10.5408    0.0000 </r>
       <r>   10.6164    0.0000 </r>
       <r>   10.6167    0.0000 </r>
       <r>   10.6399    0.0000 </r>
       <r>   10.6403    0.0000 </r>
       <r>   10.6625    0.0000 </r>
       <r>   10.8077    0.0000 </r>
       <r>   10.8144    0.0000 </r>
       <r>   10.8154    0.0000 </r>
       <r>   10.8189    0.0000 </r>
       <r>   10.8197    0.0000 </r>
       <r>   10.8214    0.0000 </r>
       <r>   11.3193    0.0000 </r>
       <r>   11.3252    0.0000 </r>
       <r>   11.3434    0.0000 </r>
       <r>   11.4134    0.0000 </r>
       <r>   11.4471    0.0000 </r>
       <r>   11.5067    0.0000 </r>
       <r>   11.5117    0.0000 </r>
       <r>   11.5448    0.0000 </r>
       <r>   11.5649    0.0000 </r>
       <r>   11.6129    0.0000 </r>
       <r>   11.6282    0.0000 </r>
       <r>   11.6709    0.0000 </r>
       <r>   11.7024    0.0000 </r>
       <r>   11.7443    0.0000 </r>
       <r>   11.7581    0.0000 </r>
       <r>   11.7732    0.0000 </r>
       <r>   11.7994    0.0000 </r>
       <r>   11.8267    0.0000 </r>
       <r>   11.8826    0.0000 </r>
      </set>
      <set comment="kpoint 6">
       <r>  -17.2935    1.0000 </r>
       <r>  -15.7752    1.0000 </r>
       <r>  -15.7301    1.0000 </r>
       <r>  -15.4170    1.0000 </r>
       <r>  -15.3048    1.0000 </r>
       <r>  -15.2750    1.0000 </r>
       <r>  -15.2422    1.0000 </r>
       <r>  -15.2050    1.0000 </r>
       <r>  -15.1445    1.0000 </r>
       <r>  -15.0918    1.0000 </r>
       <r>  -15.0610    1.0000 </r>
       <r>  -15.0341    1.0000 </r>
       <r>  -15.0152    1.0000 </r>
       <r>  -14.9847    1.0000 </r>
       <r>  -14.9836    1.0000 </r>
       <r>  -14.9069    1.0000 </r>
       <r>  -14.9002    1.0000 </r>
       <r>  -14.8553    1.0000 </r>
       <r>  -14.7581    1.0000 </r>
       <r>  -14.7574    1.0000 </r>
       <r>  -14.6189    1.0000 </r>
       <r>  -14.5679    1.0000 </r>
       <r>  -14.5517    1.0000 </r>
       <r>  -14.4665    1.0000 </r>
       <r>  -14.4628    1.0000 </r>
       <r>  -14.4603    1.0000 </r>
       <r>  -14.4585    1.0000 </r>
       <r>  -14.4248    1.0000 </r>
       <r>  -14.4028    1.0000 </r>
       <r>  -14.3960    1.0000 </r>
       <r>  -14.3856    1.0000 </r>
       <r>  -14.3435    1.0000 </r>
       <r>  -14.2482    1.0000 </r>
       <r>  -14.2452    1.0000 </r>
       <r>  -14.2441    1.0000 </r>
       <r>  -14.2419    1.0000 </r>
       <r>  -14.2071    1.0000 </r>
       <r>  -14.2067    1.0000 </r>
       <r>  -14.1718    1.0000 </r>
       <r>  -14.1497    1.0000 </r>
       <r>  -14.1112    1.0000 </r>
       <r>  -14.0359    1.0000 </r>
       <r>  -13.9989    1.0000 </r>
       <r>  -13.9961    1.0000 </r>
       <r>  -13.9483    1.0000 </r>
       <r>  -13.7879    1.0000 </r>
       <r>  -13.7420    1.0000 </r>
       <r>  -13.7400    1.0000 </r>
       <r>  -13.7123    1.0000 </r>
       <r>  -13.7113    1.0000 </r>
       <r>  -13.7032    1.0000 </r>
       <r>  -13.6817    1.0000 </r>
       <r>  -13.6578    1.0000 </r>
       <r>  -13.6553    1.0000 </r>
       <r>  -13.6047    1.0000 </r>
       <r>  -13.5328    1.0000 </r>
       <r>  -13.5324    1.0000 </r>
       <r>  -13.5207    1.0000 </r>
       <r>  -13.5170    1.0000 </r>
       <r>  -13.5056    1.0000 </r>
       <r>  -13.3597    1.0000 </r>
       <r>  -13.3379    1.0000 </r>
       <r>  -13.2554    1.0000 </r>
       <r>  -13.2232    1.0000 </r>
       <r>  -13.1101    1.0000 </r>
       <r>  -13.0688    1.0000 </r>
       <r>  -13.0638    1.0000 </r>
       <r>  -13.0620    1.0000 </r>
       <r>  -13.0605    1.0000 </r>
       <r>  -13.0333    1.0000 </r>
       <r>  -13.0265    1.0000 </r>
       <r>  -13.0230    1.0000 </r>
       <r>  -13.0166    1.0000 </r>
       <r>  -12.9741    1.0000 </r>
       <r>  -12.9291    1.0000 </r>
       <r>  -12.8945    1.0000 </r>
       <r>  -12.8927    1.0000 </r>
       <r>  -12.8890    1.0000 </r>
       <r>  -12.8887    1.0000 </r>
       <r>  -12.8797    1.0000 </r>
       <r>  -12.8781    1.0000 </r>
       <r>  -12.8770    1.0000 </r>
       <r>  -12.8746    1.0000 </r>
       <r>  -12.8667    1.0000 </r>
       <r>  -12.8602    1.0000 </r>
       <r>  -12.8561    1.0000 </r>
       <r>  -12.8508    1.0000 </r>
       <r>  -12.8506    1.0000 </r>
       <r>  -12.7182    1.0000 </r>
       <r>  -12.7155    1.0000 </r>
       <r>  -12.7144    1.0000 </r>
       <r>  -12.7120    1.0000 </r>
       <r>  -12.6837    1.0000 </r>
       <r>  -12.6101    1.0000 </r>
       <r>  -12.5983    1.0000 </r>
       <r>  -12.5767    1.0000 </r>
       <r>  -12.5731    1.0000 </r>
       <r>  -12.5513    1.0000 </r>
       <r>  -12.5334    1.0000 </r>
       <r>  -12.4986    1.0000 </r>
       <r>  -12.4377    1.0000 </r>
       <r>  -12.4283    1.0000 </r>
       <r>  -12.4247    1.0000 </r>
       <r>  -12.4232    1.0000 </r>
       <r>  -12.3424    1.0000 </r>
       <r>  -12.3382    1.0000 </r>
       <r>  -12.3218    1.0000 </r>
       <r>  -12.3171    1.0000 </r>
       <r>  -12.2463    1.0000 </r>
       <r>  -12.2456    1.0000 </r>
       <r>  -12.2368    1.0000 </r>
       <r>  -12.2327    1.0000 </r>
       <r>  -12.2191    1.0000 </r>
       <r>  -12.2176    1.0000 </r>
       <r>  -12.2082    1.0000 </r>
       <r>  -12.2054    1.0000 </r>
       <r>  -12.1777    1.0000 </r>
       <r>  -12.1753    1.0000 </r>
       <r>  -12.1709    1.0000 </r>
       <r>  -12.1706    1.0000 </r>
       <r>  -12.0965    1.0000 </r>
       <r>  -12.0961    1.0000 </r>
       <r>  -12.0909    1.0000 </r>
       <r>  -12.0892    1.0000 </r>
       <r>  -12.0850    1.0000 </r>
       <r>  -12.0830    1.0000 </r>
       <r>  -11.9511    1.0000 </r>
       <r>  -11.9479    1.0000 </r>
       <r>  -11.9468    1.0000 </r>
       <r>  -11.9433    1.0000 </r>
       <r>  -11.8162    1.0000 </r>
       <r>  -11.8152    1.0000 </r>
       <r>  -11.8077    1.0000 </r>
       <r>  -11.8072    1.0000 </r>
       <r>  -11.8046    1.0000 </r>
       <r>  -11.8035    1.0000 </r>
       <r>  -11.7852    1.0000 </r>
       <r>  -11.7849    1.0000 </r>
       <r>  -11.7796    1.0000 </r>
       <r>  -11.7793    1.0000 </r>
       <r>  -11.6687    1.0000 </r>
       <r>  -11.6682    1.0000 </r>
       <r>  -11.6645    1.0000 </r>
       <r>  -11.6580    1.0000 </r>
       <r>   -8.3630    1.0000 </r>
       <r>   -7.2839    1.0000 </r>
       <r>   -7.2706    1.0000 </r>
       <r>   -6.7936    1.0000 </r>
       <r>   -6.7047    1.0000 </r>
       <r>   -6.6828    1.0000 </r>
       <r>   -6.4379    1.0000 </r>
       <r>   -6.4062    1.0000 </r>
       <r>   -6.3220    1.0000 </r>
       <r>   -6.3088    1.0000 </r>
       <r>   -6.3060    1.0000 </r>
       <r>   -6.3039    1.0000 </r>
       <r>   -6.2993    1.0000 </r>
       <r>   -6.2870    1.0000 </r>
       <r>   -6.2756    1.0000 </r>
       <r>   -6.2749    1.0000 </r>
       <r>   -6.2688    1.0000 </r>
       <r>   -6.2684    1.0000 </r>
       <r>   -6.2157    1.0000 </r>
       <r>   -6.2156    1.0000 </r>
       <r>   -6.2118    1.0000 </r>
       <r>   -6.2073    1.0000 </r>
       <r>   -6.1959    1.0000 </r>
       <r>   -6.1950    1.0000 </r>
       <r>   -6.1588    1.0000 </r>
       <r>   -6.1584    1.0000 </r>
       <r>   -6.1524    1.0000 </r>
       <r>   -6.1472    1.0000 </r>
       <r>   -6.0721    1.0000 </r>
       <r>   -6.0709    1.0000 </r>
       <r>   -5.9354    1.0000 </r>
       <r>   -5.9280    1.0000 </r>
       <r>   -5.9108    1.0000 </r>
       <r>   -5.9035    1.0000 </r>
       <r>   -5.8438    1.0000 </r>
       <r>   -5.7894    1.0000 </r>
       <r>   -5.7813    1.0000 </r>
       <r>   -5.7718    1.0000 </r>
       <r>   -5.7695    1.0000 </r>
       <r>   -5.7686    1.0000 </r>
       <r>   -5.7640    1.0000 </r>
       <r>   -5.7616    1.0000 </r>
       <r>   -5.7587    1.0000 </r>
       <r>   -5.7583    1.0000 </r>
       <r>   -5.7576    1.0000 </r>
       <r>   -5.7508    1.0000 </r>
       <r>   -5.7394    1.0000 </r>
       <r>   -5.6845    1.0000 </r>
       <r>   -5.6542    1.0000 </r>
       <r>   -5.6418    1.0000 </r>
       <r>   -5.6239    1.0000 </r>
       <r>   -5.6231    1.0000 </r>
       <r>   -5.6209    1.0000 </r>
       <r>   -5.6188    1.0000 </r>
       <r>   -5.2296    1.0000 </r>
       <r>   -5.2271    1.0000 </r>
       <r>   -5.2246    1.0000 </r>
       <r>   -5.2243    1.0000 </r>
       <r>   -5.2241    1.0000 </r>
       <r>   -5.2200    1.0000 </r>
       <r>   -5.2192    1.0000 </r>
       <r>   -5.2189    1.0000 </r>
       <r>   -5.2182    1.0000 </r>
       <r>   -5.2175    1.0000 </r>
       <r>   -5.2173    1.0000 </r>
       <r>   -5.2167    1.0000 </r>
       <r>   -5.1148    1.0000 </r>
       <r>   -5.1102    1.0000 </r>
       <r>   -5.0952    1.0000 </r>
       <r>   -5.0909    1.0000 </r>
       <r>   -5.0892    1.0000 </r>
       <r>   -5.0876    1.0000 </r>
       <r>   -5.0864    1.0000 </r>
       <r>   -5.0844    1.0000 </r>
       <r>   -5.0261    1.0000 </r>
       <r>   -4.9211    1.0000 </r>
       <r>   -4.8318    1.0000 </r>
       <r>   -4.6116    1.0000 </r>
       <r>   -4.5543    1.0000 </r>
       <r>   -4.5413    1.0000 </r>
       <r>   -4.4755    1.0000 </r>
       <r>   -4.4731    1.0000 </r>
       <r>   -4.4720    1.0000 </r>
       <r>   -4.4712    1.0000 </r>
       <r>   -4.4707    1.0000 </r>
       <r>   -4.4695    1.0000 </r>
       <r>   -4.4681    1.0000 </r>
       <r>   -4.4678    1.0000 </r>
       <r>   -4.3433    1.0000 </r>
       <r>   -4.3414    1.0000 </r>
       <r>   -4.3401    1.0000 </r>
       <r>   -4.3374    1.0000 </r>
       <r>   -4.3164    1.0000 </r>
       <r>   -4.2887    1.0000 </r>
       <r>   -4.2019    1.0000 </r>
       <r>   -4.0978    1.0000 </r>
       <r>   -4.0879    1.0000 </r>
       <r>   -4.0876    1.0000 </r>
       <r>   -4.0844    1.0000 </r>
       <r>   -4.0835    1.0000 </r>
       <r>   -4.0748    1.0000 </r>
       <r>   -4.0746    1.0000 </r>
       <r>   -4.0714    1.0000 </r>
       <r>   -4.0704    1.0000 </r>
       <r>   -4.0287    1.0000 </r>
       <r>   -3.9505    1.0000 </r>
       <r>   -3.9498    1.0000 </r>
       <r>   -3.9469    1.0000 </r>
       <r>   -3.9458    1.0000 </r>
       <r>   -3.9094    1.0000 </r>
       <r>   -3.8654    1.0000 </r>
       <r>   -3.7857    1.0000 </r>
       <r>   -3.6233    1.0000 </r>
       <r>   -3.6206    1.0000 </r>
       <r>   -3.6156    1.0000 </r>
       <r>   -3.6141    1.0000 </r>
       <r>   -3.6081    1.0000 </r>
       <r>   -3.6035    1.0000 </r>
       <r>   -3.6020    1.0000 </r>
       <r>   -3.5983    1.0000 </r>
       <r>   -3.5977    1.0000 </r>
       <r>   -3.4793    1.0000 </r>
       <r>   -3.4784    1.0000 </r>
       <r>   -3.4783    1.0000 </r>
       <r>   -3.4772    1.0000 </r>
       <r>   -3.4747    1.0000 </r>
       <r>   -3.4682    1.0000 </r>
       <r>   -3.4674    1.0000 </r>
       <r>   -3.4660    1.0000 </r>
       <r>   -3.4651    1.0000 </r>
       <r>   -3.3901    1.0000 </r>
       <r>   -3.3585    1.0000 </r>
       <r>   -3.3472    1.0000 </r>
       <r>   -3.3404    1.0000 </r>
       <r>   -3.3393    1.0000 </r>
       <r>   -3.3387    1.0000 </r>
       <r>   -3.3365    1.0000 </r>
       <r>   -3.1562    1.0000 </r>
       <r>   -3.0973    1.0000 </r>
       <r>   -3.0776    1.0000 </r>
       <r>   -3.0729    1.0000 </r>
       <r>   -3.0727    1.0000 </r>
       <r>   -3.0661    1.0000 </r>
       <r>   -3.0034    1.0000 </r>
       <r>   -3.0000    1.0000 </r>
       <r>   -2.9919    1.0000 </r>
       <r>   -2.9393    1.0000 </r>
       <r>   -2.9383    1.0000 </r>
       <r>   -2.8559    1.0000 </r>
       <r>   -2.8424    1.0000 </r>
       <r>   -2.7698    1.0000 </r>
       <r>   -2.7661    1.0000 </r>
       <r>   -2.7563    1.0000 </r>
       <r>   -2.7266    1.0000 </r>
       <r>   -2.6770    1.0000 </r>
       <r>   -2.6739    1.0000 </r>
       <r>   -2.6722    1.0000 </r>
       <r>   -2.6628    1.0000 </r>
       <r>   -2.6422    1.0000 </r>
       <r>   -2.5484    1.0000 </r>
       <r>   -2.5457    1.0000 </r>
       <r>   -2.5432    1.0000 </r>
       <r>   -2.5177    1.0000 </r>
       <r>   -2.4675    1.0000 </r>
       <r>   -2.3929    1.0000 </r>
       <r>   -2.3874    1.0000 </r>
       <r>   -2.3775    1.0000 </r>
       <r>   -2.3747    1.0000 </r>
       <r>   -2.3731    1.0000 </r>
       <r>   -2.3720    1.0000 </r>
       <r>   -2.3718    1.0000 </r>
       <r>   -2.3709    1.0000 </r>
       <r>   -2.3701    1.0000 </r>
       <r>   -2.3681    1.0000 </r>
       <r>   -2.3662    1.0000 </r>
       <r>   -2.3470    1.0000 </r>
       <r>   -2.2859    1.0000 </r>
       <r>   -2.2641    1.0000 </r>
       <r>   -2.2575    1.0000 </r>
       <r>   -2.2455    1.0000 </r>
       <r>   -2.2415    1.0000 </r>
       <r>   -2.2399    1.0000 </r>
       <r>   -2.2386    1.0000 </r>
       <r>   -2.2369    1.0000 </r>
       <r>   -2.2086    1.0000 </r>
       <r>   -2.2082    1.0000 </r>
       <r>   -2.1995    1.0000 </r>
       <r>   -2.1647    1.0000 </r>
       <r>   -2.1587    1.0000 </r>
       <r>   -2.1442    1.0000 </r>
       <r>   -2.1264    1.0000 </r>
       <r>   -2.0989    1.0000 </r>
       <r>   -2.0914    1.0000 </r>
       <r>   -2.0908    1.0000 </r>
       <r>   -2.0858    1.0000 </r>
       <r>   -2.0853    1.0000 </r>
       <r>   -2.0578    1.0000 </r>
       <r>   -2.0574    1.0000 </r>
       <r>   -2.0510    1.0000 </r>
       <r>   -2.0508    1.0000 </r>
       <r>   -2.0104    1.0000 </r>
       <r>   -1.9640    1.0000 </r>
       <r>   -1.9430    1.0000 </r>
       <r>   -1.9427    1.0000 </r>
       <r>   -1.9363    1.0000 </r>
       <r>   -1.9344    1.0000 </r>
       <r>   -1.9315    1.0000 </r>
       <r>   -1.9300    1.0000 </r>
       <r>   -1.9066    1.0000 </r>
       <r>   -1.9053    1.0000 </r>
       <r>   -1.8963    1.0000 </r>
       <r>   -1.8837    1.0000 </r>
       <r>   -1.8631    1.0000 </r>
       <r>   -1.8604    1.0000 </r>
       <r>   -1.8599    1.0000 </r>
       <r>   -1.8585    1.0000 </r>
       <r>   -1.8577    1.0000 </r>
       <r>   -1.8566    1.0000 </r>
       <r>   -1.8561    1.0000 </r>
       <r>   -1.8549    1.0000 </r>
       <r>   -1.7786    1.0000 </r>
       <r>   -1.7786    1.0000 </r>
       <r>   -1.7778    1.0000 </r>
       <r>   -1.7776    1.0000 </r>
       <r>   -1.7743    1.0000 </r>
       <r>   -1.7741    1.0000 </r>
       <r>   -1.7728    1.0000 </r>
       <r>   -1.7727    1.0000 </r>
       <r>   -1.7464    1.0000 </r>
       <r>   -1.7436    1.0000 </r>
       <r>   -1.7414    1.0000 </r>
       <r>   -1.7407    1.0000 </r>
       <r>   -1.7153    1.0000 </r>
       <r>   -1.7085    1.0000 </r>
       <r>   -1.6883    1.0000 </r>
       <r>   -1.6616    1.0000 </r>
       <r>   -1.6465    1.0000 </r>
       <r>   -1.6454    1.0000 </r>
       <r>   -1.6447    1.0000 </r>
       <r>   -1.6415    1.0000 </r>
       <r>   -1.6101    1.0000 </r>
       <r>   -1.6088    1.0000 </r>
       <r>   -1.5860    1.0000 </r>
       <r>   -1.5839    1.0000 </r>
       <r>   -1.5797    1.0000 </r>
       <r>   -1.5597    1.0000 </r>
       <r>   -1.5551    1.0000 </r>
       <r>   -1.5500    1.0000 </r>
       <r>   -1.4642    1.0000 </r>
       <r>   -1.4492    1.0000 </r>
       <r>   -1.4408    1.0000 </r>
       <r>   -1.4340    1.0000 </r>
       <r>   -1.2638    1.0000 </r>
       <r>   -1.2555    1.0000 </r>
       <r>   -1.2529    1.0000 </r>
       <r>   -1.2358    1.0000 </r>
       <r>   -1.2352    1.0000 </r>
       <r>   -1.2245    1.0000 </r>
       <r>   -1.2236    1.0000 </r>
       <r>   -1.2093    1.0000 </r>
       <r>   -1.2070    1.0000 </r>
       <r>   -1.2067    1.0000 </r>
       <r>   -1.2061    1.0000 </r>
       <r>   -1.1945    1.0000 </r>
       <r>   -1.1882    1.0000 </r>
       <r>   -1.1875    1.0000 </r>
       <r>   -1.1856    1.0000 </r>
       <r>   -1.1584    1.0000 </r>
       <r>   -1.1196    1.0000 </r>
       <r>   -1.0887    1.0000 </r>
       <r>   -1.0883    1.0000 </r>
       <r>   -1.0830    1.0000 </r>
       <r>   -1.0773    1.0000 </r>
       <r>   -1.0562    1.0000 </r>
       <r>   -1.0158    1.0000 </r>
       <r>   -0.9349    1.0000 </r>
       <r>   -0.9304    1.0000 </r>
       <r>   -0.9144    1.0000 </r>
       <r>   -0.9106    1.0000 </r>
       <r>   -0.9090    1.0000 </r>
       <r>   -0.8573    1.0000 </r>
       <r>   -0.8453    1.0000 </r>
       <r>   -0.8356    1.0000 </r>
       <r>   -0.7766    1.0000 </r>
       <r>   -0.7322    1.0000 </r>
       <r>   -0.7086    1.0000 </r>
       <r>   -0.7056    1.0000 </r>
       <r>   -0.6564    1.0000 </r>
       <r>   -0.6387    1.0000 </r>
       <r>   -0.5977    1.0000 </r>
       <r>   -0.5950    1.0000 </r>
       <r>   -0.5299    1.0000 </r>
       <r>   -0.5184    1.0000 </r>
       <r>   -0.5176    1.0000 </r>
       <r>   -0.5152    1.0000 </r>
       <r>   -0.5140    1.0000 </r>
       <r>   -0.4617    1.0000 </r>
       <r>   -0.4579    1.0000 </r>
       <r>   -0.4578    1.0000 </r>
       <r>   -0.4568    1.0000 </r>
       <r>   -0.4535    1.0000 </r>
       <r>   -0.4529    1.0000 </r>
       <r>   -0.4529    1.0000 </r>
       <r>   -0.4488    1.0000 </r>
       <r>   -0.4181    1.0000 </r>
       <r>   -0.3879    1.0000 </r>
       <r>   -0.3820    1.0000 </r>
       <r>   -0.3767    1.0000 </r>
       <r>   -0.3523    1.0000 </r>
       <r>   -0.3493    1.0000 </r>
       <r>   -0.3476    1.0000 </r>
       <r>   -0.3463    1.0000 </r>
       <r>   -0.3289    1.0000 </r>
       <r>   -0.3267    1.0000 </r>
       <r>   -0.3256    1.0000 </r>
       <r>   -0.3222    1.0000 </r>
       <r>   -0.2799    1.0000 </r>
       <r>   -0.2645    1.0000 </r>
       <r>   -0.2641    1.0000 </r>
       <r>   -0.2576    1.0000 </r>
       <r>   -0.2565    1.0000 </r>
       <r>   -0.2541    1.0000 </r>
       <r>   -0.2525    1.0000 </r>
       <r>   -0.2276    1.0000 </r>
       <r>   -0.2246    1.0000 </r>
       <r>   -0.2179    1.0000 </r>
       <r>   -0.2136    1.0000 </r>
       <r>   -0.1418    1.0000 </r>
       <r>   -0.1406    1.0000 </r>
       <r>   -0.0465    1.0000 </r>
       <r>   -0.0088    1.0000 </r>
       <r>    0.0014    1.0000 </r>
       <r>    0.0081    1.0000 </r>
       <r>    0.0116    1.0000 </r>
       <r>    0.0181    1.0000 </r>
       <r>    0.0185    1.0000 </r>
       <r>    0.0344    1.0000 </r>
       <r>    0.0356    1.0000 </r>
       <r>    0.0498    1.0000 </r>
       <r>    0.1866    1.0000 </r>
       <r>    0.2768    1.0000 </r>
       <r>    0.3159    1.0000 </r>
       <r>    0.3399    1.0000 </r>
       <r>    0.3432    1.0000 </r>
       <r>    0.3454    1.0000 </r>
       <r>    0.3487    1.0000 </r>
       <r>    0.3508    1.0000 </r>
       <r>    0.3946    1.0000 </r>
       <r>    0.4206    1.0000 </r>
       <r>    0.4766    1.0000 </r>
       <r>    0.4806    1.0000 </r>
       <r>    0.4886    1.0000 </r>
       <r>    0.5093    1.0000 </r>
       <r>    0.5570    1.0000 </r>
       <r>    0.5586    1.0000 </r>
       <r>    0.5655    1.0000 </r>
       <r>    0.5775    1.0000 </r>
       <r>    0.5868    1.0000 </r>
       <r>    0.5887    1.0000 </r>
       <r>    0.6152    1.0000 </r>
       <r>    0.6299    1.0000 </r>
       <r>    0.6525    1.0000 </r>
       <r>    0.6937    1.0000 </r>
       <r>    0.7076    1.0000 </r>
       <r>    0.7278    1.0000 </r>
       <r>    0.7281    1.0000 </r>
       <r>    0.8533    1.0000 </r>
       <r>    0.8549    1.0000 </r>
       <r>    0.8567    1.0000 </r>
       <r>    0.8629    1.0000 </r>
       <r>    0.8639    1.0000 </r>
       <r>    0.8653    1.0000 </r>
       <r>    0.8666    1.0000 </r>
       <r>    0.8739    1.0000 </r>
       <r>    0.8751    1.0000 </r>
       <r>    0.8764    1.0000 </r>
       <r>    0.8835    1.0000 </r>
       <r>    0.8859    1.0000 </r>
       <r>    0.8923    1.0000 </r>
       <r>    0.8939    1.0000 </r>
       <r>    0.9047    1.0000 </r>
       <r>    0.9059    1.0000 </r>
       <r>    0.9946    1.0000 </r>
       <r>    0.9980    1.0000 </r>
       <r>    1.0570    1.0000 </r>
       <r>    1.0652    1.0000 </r>
       <r>    1.0777    1.0000 </r>
       <r>    1.0787    1.0000 </r>
       <r>    1.0941    1.0000 </r>
       <r>    1.0952    1.0000 </r>
       <r>    1.1008    1.0000 </r>
       <r>    1.1083    1.0000 </r>
       <r>    1.1104    1.0000 </r>
       <r>    1.2446    1.0000 </r>
       <r>    1.2592    1.0000 </r>
       <r>    1.3039    1.0000 </r>
       <r>    1.4348    1.0000 </r>
       <r>    1.4468    1.0000 </r>
       <r>    1.4550    1.0000 </r>
       <r>    1.4627    1.0000 </r>
       <r>    1.5916    1.0000 </r>
       <r>    1.6015    1.0000 </r>
       <r>    1.6026    1.0000 </r>
       <r>    1.6053    1.0000 </r>
       <r>    1.6142    1.0000 </r>
       <r>    1.6222    1.0000 </r>
       <r>    1.6524    1.0000 </r>
       <r>    1.6658    1.0000 </r>
       <r>    1.7130    1.0000 </r>
       <r>    1.7131    1.0000 </r>
       <r>    1.7671    1.0000 </r>
       <r>    1.7741    1.0000 </r>
       <r>    1.8432    1.0000 </r>
       <r>    1.8509    1.0000 </r>
       <r>    1.8532    1.0000 </r>
       <r>    1.8628    1.0000 </r>
       <r>    1.8650    1.0000 </r>
       <r>    1.8704    1.0000 </r>
       <r>    1.8780    1.0000 </r>
       <r>    1.8822    1.0000 </r>
       <r>    1.9866    1.0000 </r>
       <r>    2.0019    1.0000 </r>
       <r>    2.1866    1.0000 </r>
       <r>    2.1886    1.0000 </r>
       <r>    2.1962    1.0000 </r>
       <r>    2.1993    1.0000 </r>
       <r>    2.2062    1.0000 </r>
       <r>    2.2102    1.0000 </r>
       <r>    2.3785    1.0000 </r>
       <r>    2.3821    1.0000 </r>
       <r>    2.3889    1.0000 </r>
       <r>    2.3893    1.0000 </r>
       <r>    4.6564    1.0000 </r>
       <r>    5.9205    0.0000 </r>
       <r>    6.6055    0.0000 </r>
       <r>    6.6230    0.0000 </r>
       <r>    6.6278    0.0000 </r>
       <r>    6.8744    0.0000 </r>
       <r>    6.9351    0.0000 </r>
       <r>    7.0011    0.0000 </r>
       <r>    7.0139    0.0000 </r>
       <r>    7.0448    0.0000 </r>
       <r>    7.0544    0.0000 </r>
       <r>    7.0681    0.0000 </r>
       <r>    7.0804    0.0000 </r>
       <r>    7.1071    0.0000 </r>
       <r>    7.1151    0.0000 </r>
       <r>    7.1446    0.0000 </r>
       <r>    7.1458    0.0000 </r>
       <r>    7.2307    0.0000 </r>
       <r>    7.2650    0.0000 </r>
       <r>    7.2652    0.0000 </r>
       <r>    7.2863    0.0000 </r>
       <r>    7.2863    0.0000 </r>
       <r>    7.4230    0.0000 </r>
       <r>    7.4497    0.0000 </r>
       <r>    7.4570    0.0000 </r>
       <r>    7.4748    0.0000 </r>
       <r>    7.4833    0.0000 </r>
       <r>    7.5674    0.0000 </r>
       <r>    7.5722    0.0000 </r>
       <r>    7.6147    0.0000 </r>
       <r>    7.6457    0.0000 </r>
       <r>    7.6598    0.0000 </r>
       <r>    7.6642    0.0000 </r>
       <r>    7.6656    0.0000 </r>
       <r>    7.6677    0.0000 </r>
       <r>    7.6840    0.0000 </r>
       <r>    7.7019    0.0000 </r>
       <r>    7.7334    0.0000 </r>
       <r>    7.7358    0.0000 </r>
       <r>    7.7816    0.0000 </r>
       <r>    7.8437    0.0000 </r>
       <r>    7.8756    0.0000 </r>
       <r>    7.8967    0.0000 </r>
       <r>    7.9697    0.0000 </r>
       <r>    7.9765    0.0000 </r>
       <r>    8.0037    0.0000 </r>
       <r>    8.0058    0.0000 </r>
       <r>    8.0819    0.0000 </r>
       <r>    8.0962    0.0000 </r>
       <r>    8.0990    0.0000 </r>
       <r>    8.1903    0.0000 </r>
       <r>    8.2100    0.0000 </r>
       <r>    8.2341    0.0000 </r>
       <r>    8.2810    0.0000 </r>
       <r>    8.3354    0.0000 </r>
       <r>    8.3375    0.0000 </r>
       <r>    8.3620    0.0000 </r>
       <r>    8.4659    0.0000 </r>
       <r>    8.4782    0.0000 </r>
       <r>    8.4889    0.0000 </r>
       <r>    8.4937    0.0000 </r>
       <r>    8.4974    0.0000 </r>
       <r>    8.5081    0.0000 </r>
       <r>    8.5097    0.0000 </r>
       <r>    8.5103    0.0000 </r>
       <r>    8.5338    0.0000 </r>
       <r>    8.5576    0.0000 </r>
       <r>    8.5638    0.0000 </r>
       <r>    8.6270    0.0000 </r>
       <r>    8.7568    0.0000 </r>
       <r>    8.8116    0.0000 </r>
       <r>    8.8786    0.0000 </r>
       <r>    8.8975    0.0000 </r>
       <r>    8.9156    0.0000 </r>
       <r>    8.9643    0.0000 </r>
       <r>    9.0017    0.0000 </r>
       <r>    9.0083    0.0000 </r>
       <r>    9.0164    0.0000 </r>
       <r>    9.0176    0.0000 </r>
       <r>    9.0219    0.0000 </r>
       <r>    9.0289    0.0000 </r>
       <r>    9.0929    0.0000 </r>
       <r>    9.1309    0.0000 </r>
       <r>    9.1629    0.0000 </r>
       <r>    9.1644    0.0000 </r>
       <r>    9.1771    0.0000 </r>
       <r>    9.2071    0.0000 </r>
       <r>    9.2085    0.0000 </r>
       <r>    9.2103    0.0000 </r>
       <r>    9.3014    0.0000 </r>
       <r>    9.3161    0.0000 </r>
       <r>    9.3986    0.0000 </r>
       <r>    9.4264    0.0000 </r>
       <r>    9.4417    0.0000 </r>
       <r>    9.4462    0.0000 </r>
       <r>    9.5813    0.0000 </r>
       <r>    9.6009    0.0000 </r>
       <r>    9.6028    0.0000 </r>
       <r>    9.6060    0.0000 </r>
       <r>    9.6075    0.0000 </r>
       <r>    9.6133    0.0000 </r>
       <r>    9.6356    0.0000 </r>
       <r>    9.6712    0.0000 </r>
       <r>    9.7066    0.0000 </r>
       <r>    9.7107    0.0000 </r>
       <r>    9.7292    0.0000 </r>
       <r>    9.7364    0.0000 </r>
       <r>    9.7728    0.0000 </r>
       <r>    9.8165    0.0000 </r>
       <r>    9.8249    0.0000 </r>
       <r>    9.9217    0.0000 </r>
       <r>    9.9247    0.0000 </r>
       <r>    9.9368    0.0000 </r>
       <r>    9.9649    0.0000 </r>
       <r>    9.9676    0.0000 </r>
       <r>   10.0292    0.0000 </r>
       <r>   10.0643    0.0000 </r>
       <r>   10.1008    0.0000 </r>
       <r>   10.1009    0.0000 </r>
       <r>   10.3004    0.0000 </r>
       <r>   10.3389    0.0000 </r>
       <r>   10.4252    0.0000 </r>
       <r>   10.4254    0.0000 </r>
       <r>   10.5250    0.0000 </r>
       <r>   10.5264    0.0000 </r>
       <r>   10.5481    0.0000 </r>
       <r>   10.5513    0.0000 </r>
       <r>   10.8652    0.0000 </r>
       <r>   10.9851    0.0000 </r>
       <r>   11.2071    0.0000 </r>
       <r>   11.2103    0.0000 </r>
       <r>   11.2807    0.0000 </r>
       <r>   11.4032    0.0000 </r>
       <r>   11.4113    0.0000 </r>
       <r>   11.4331    0.0000 </r>
       <r>   11.4641    0.0000 </r>
       <r>   11.4919    0.0000 </r>
       <r>   11.5294    0.0000 </r>
       <r>   11.5751    0.0000 </r>
       <r>   11.5815    0.0000 </r>
       <r>   11.5872    0.0000 </r>
       <r>   11.5999    0.0000 </r>
       <r>   11.6186    0.0000 </r>
       <r>   11.6490    0.0000 </r>
       <r>   11.7073    0.0000 </r>
       <r>   11.7400    0.0000 </r>
       <r>   11.8060    0.0000 </r>
       <r>   11.8666    0.0000 </r>
       <r>   11.9309    0.0000 </r>
       <r>   11.9638    0.0000 </r>
       <r>   11.9939    0.0000 </r>
       <r>   12.0565    0.0000 </r>
      </set>
      <set comment="kpoint 7">
       <r>  -17.2935    1.0000 </r>
       <r>  -15.7752    1.0000 </r>
       <r>  -15.7301    1.0000 </r>
       <r>  -15.4171    1.0000 </r>
       <r>  -15.3048    1.0000 </r>
       <r>  -15.2751    1.0000 </r>
       <r>  -15.2421    1.0000 </r>
       <r>  -15.2050    1.0000 </r>
       <r>  -15.1445    1.0000 </r>
       <r>  -15.0918    1.0000 </r>
       <r>  -15.0609    1.0000 </r>
       <r>  -15.0344    1.0000 </r>
       <r>  -15.0151    1.0000 </r>
       <r>  -14.9843    1.0000 </r>
       <r>  -14.9840    1.0000 </r>
       <r>  -14.9071    1.0000 </r>
       <r>  -14.9001    1.0000 </r>
       <r>  -14.8553    1.0000 </r>
       <r>  -14.7600    1.0000 </r>
       <r>  -14.7556    1.0000 </r>
       <r>  -14.6189    1.0000 </r>
       <r>  -14.5679    1.0000 </r>
       <r>  -14.5517    1.0000 </r>
       <r>  -14.4670    1.0000 </r>
       <r>  -14.4635    1.0000 </r>
       <r>  -14.4594    1.0000 </r>
       <r>  -14.4580    1.0000 </r>
       <r>  -14.4249    1.0000 </r>
       <r>  -14.4028    1.0000 </r>
       <r>  -14.3959    1.0000 </r>
       <r>  -14.3854    1.0000 </r>
       <r>  -14.3435    1.0000 </r>
       <r>  -14.2494    1.0000 </r>
       <r>  -14.2468    1.0000 </r>
       <r>  -14.2427    1.0000 </r>
       <r>  -14.2404    1.0000 </r>
       <r>  -14.2074    1.0000 </r>
       <r>  -14.2066    1.0000 </r>
       <r>  -14.1719    1.0000 </r>
       <r>  -14.1497    1.0000 </r>
       <r>  -14.1112    1.0000 </r>
       <r>  -14.0358    1.0000 </r>
       <r>  -13.9978    1.0000 </r>
       <r>  -13.9975    1.0000 </r>
       <r>  -13.9483    1.0000 </r>
       <r>  -13.7879    1.0000 </r>
       <r>  -13.7425    1.0000 </r>
       <r>  -13.7397    1.0000 </r>
       <r>  -13.7117    1.0000 </r>
       <r>  -13.7115    1.0000 </r>
       <r>  -13.7032    1.0000 </r>
       <r>  -13.6817    1.0000 </r>
       <r>  -13.6578    1.0000 </r>
       <r>  -13.6553    1.0000 </r>
       <r>  -13.6047    1.0000 </r>
       <r>  -13.5354    1.0000 </r>
       <r>  -13.5304    1.0000 </r>
       <r>  -13.5188    1.0000 </r>
       <r>  -13.5181    1.0000 </r>
       <r>  -13.5055    1.0000 </r>
       <r>  -13.3597    1.0000 </r>
       <r>  -13.3379    1.0000 </r>
       <r>  -13.2555    1.0000 </r>
       <r>  -13.2232    1.0000 </r>
       <r>  -13.1102    1.0000 </r>
       <r>  -13.0689    1.0000 </r>
       <r>  -13.0646    1.0000 </r>
       <r>  -13.0615    1.0000 </r>
       <r>  -13.0600    1.0000 </r>
       <r>  -13.0334    1.0000 </r>
       <r>  -13.0265    1.0000 </r>
       <r>  -13.0229    1.0000 </r>
       <r>  -13.0167    1.0000 </r>
       <r>  -12.9741    1.0000 </r>
       <r>  -12.9291    1.0000 </r>
       <r>  -12.8949    1.0000 </r>
       <r>  -12.8913    1.0000 </r>
       <r>  -12.8907    1.0000 </r>
       <r>  -12.8888    1.0000 </r>
       <r>  -12.8790    1.0000 </r>
       <r>  -12.8788    1.0000 </r>
       <r>  -12.8763    1.0000 </r>
       <r>  -12.8748    1.0000 </r>
       <r>  -12.8667    1.0000 </r>
       <r>  -12.8603    1.0000 </r>
       <r>  -12.8562    1.0000 </r>
       <r>  -12.8507    1.0000 </r>
       <r>  -12.8506    1.0000 </r>
       <r>  -12.7183    1.0000 </r>
       <r>  -12.7152    1.0000 </r>
       <r>  -12.7149    1.0000 </r>
       <r>  -12.7115    1.0000 </r>
       <r>  -12.6838    1.0000 </r>
       <r>  -12.6100    1.0000 </r>
       <r>  -12.5986    1.0000 </r>
       <r>  -12.5767    1.0000 </r>
       <r>  -12.5729    1.0000 </r>
       <r>  -12.5513    1.0000 </r>
       <r>  -12.5334    1.0000 </r>
       <r>  -12.4985    1.0000 </r>
       <r>  -12.4377    1.0000 </r>
       <r>  -12.4293    1.0000 </r>
       <r>  -12.4247    1.0000 </r>
       <r>  -12.4228    1.0000 </r>
       <r>  -12.3423    1.0000 </r>
       <r>  -12.3383    1.0000 </r>
       <r>  -12.3219    1.0000 </r>
       <r>  -12.3171    1.0000 </r>
       <r>  -12.2464    1.0000 </r>
       <r>  -12.2452    1.0000 </r>
       <r>  -12.2368    1.0000 </r>
       <r>  -12.2327    1.0000 </r>
       <r>  -12.2190    1.0000 </r>
       <r>  -12.2180    1.0000 </r>
       <r>  -12.2081    1.0000 </r>
       <r>  -12.2053    1.0000 </r>
       <r>  -12.1765    1.0000 </r>
       <r>  -12.1761    1.0000 </r>
       <r>  -12.1709    1.0000 </r>
       <r>  -12.1706    1.0000 </r>
       <r>  -12.0962    1.0000 </r>
       <r>  -12.0954    1.0000 </r>
       <r>  -12.0892    1.0000 </r>
       <r>  -12.0872    1.0000 </r>
       <r>  -12.0871    1.0000 </r>
       <r>  -12.0850    1.0000 </r>
       <r>  -11.9513    1.0000 </r>
       <r>  -11.9477    1.0000 </r>
       <r>  -11.9469    1.0000 </r>
       <r>  -11.9432    1.0000 </r>
       <r>  -11.8177    1.0000 </r>
       <r>  -11.8137    1.0000 </r>
       <r>  -11.8085    1.0000 </r>
       <r>  -11.8070    1.0000 </r>
       <r>  -11.8046    1.0000 </r>
       <r>  -11.8035    1.0000 </r>
       <r>  -11.7850    1.0000 </r>
       <r>  -11.7848    1.0000 </r>
       <r>  -11.7796    1.0000 </r>
       <r>  -11.7793    1.0000 </r>
       <r>  -11.6719    1.0000 </r>
       <r>  -11.6657    1.0000 </r>
       <r>  -11.6616    1.0000 </r>
       <r>  -11.6602    1.0000 </r>
       <r>   -8.3630    1.0000 </r>
       <r>   -7.2839    1.0000 </r>
       <r>   -7.2706    1.0000 </r>
       <r>   -6.7936    1.0000 </r>
       <r>   -6.7046    1.0000 </r>
       <r>   -6.6828    1.0000 </r>
       <r>   -6.4379    1.0000 </r>
       <r>   -6.4062    1.0000 </r>
       <r>   -6.3220    1.0000 </r>
       <r>   -6.3089    1.0000 </r>
       <r>   -6.3061    1.0000 </r>
       <r>   -6.3039    1.0000 </r>
       <r>   -6.2994    1.0000 </r>
       <r>   -6.2869    1.0000 </r>
       <r>   -6.2755    1.0000 </r>
       <r>   -6.2746    1.0000 </r>
       <r>   -6.2688    1.0000 </r>
       <r>   -6.2684    1.0000 </r>
       <r>   -6.2159    1.0000 </r>
       <r>   -6.2156    1.0000 </r>
       <r>   -6.2119    1.0000 </r>
       <r>   -6.2071    1.0000 </r>
       <r>   -6.1958    1.0000 </r>
       <r>   -6.1950    1.0000 </r>
       <r>   -6.1593    1.0000 </r>
       <r>   -6.1584    1.0000 </r>
       <r>   -6.1495    1.0000 </r>
       <r>   -6.1489    1.0000 </r>
       <r>   -6.0744    1.0000 </r>
       <r>   -6.0692    1.0000 </r>
       <r>   -5.9354    1.0000 </r>
       <r>   -5.9280    1.0000 </r>
       <r>   -5.9109    1.0000 </r>
       <r>   -5.9035    1.0000 </r>
       <r>   -5.8438    1.0000 </r>
       <r>   -5.7898    1.0000 </r>
       <r>   -5.7819    1.0000 </r>
       <r>   -5.7718    1.0000 </r>
       <r>   -5.7695    1.0000 </r>
       <r>   -5.7686    1.0000 </r>
       <r>   -5.7640    1.0000 </r>
       <r>   -5.7616    1.0000 </r>
       <r>   -5.7588    1.0000 </r>
       <r>   -5.7582    1.0000 </r>
       <r>   -5.7575    1.0000 </r>
       <r>   -5.7508    1.0000 </r>
       <r>   -5.7394    1.0000 </r>
       <r>   -5.6845    1.0000 </r>
       <r>   -5.6542    1.0000 </r>
       <r>   -5.6418    1.0000 </r>
       <r>   -5.6244    1.0000 </r>
       <r>   -5.6223    1.0000 </r>
       <r>   -5.6212    1.0000 </r>
       <r>   -5.6183    1.0000 </r>
       <r>   -5.2295    1.0000 </r>
       <r>   -5.2272    1.0000 </r>
       <r>   -5.2245    1.0000 </r>
       <r>   -5.2242    1.0000 </r>
       <r>   -5.2240    1.0000 </r>
       <r>   -5.2201    1.0000 </r>
       <r>   -5.2192    1.0000 </r>
       <r>   -5.2191    1.0000 </r>
       <r>   -5.2181    1.0000 </r>
       <r>   -5.2175    1.0000 </r>
       <r>   -5.2172    1.0000 </r>
       <r>   -5.2169    1.0000 </r>
       <r>   -5.1148    1.0000 </r>
       <r>   -5.1102    1.0000 </r>
       <r>   -5.0928    1.0000 </r>
       <r>   -5.0909    1.0000 </r>
       <r>   -5.0890    1.0000 </r>
       <r>   -5.0885    1.0000 </r>
       <r>   -5.0864    1.0000 </r>
       <r>   -5.0845    1.0000 </r>
       <r>   -5.0261    1.0000 </r>
       <r>   -4.9211    1.0000 </r>
       <r>   -4.8318    1.0000 </r>
       <r>   -4.6117    1.0000 </r>
       <r>   -4.5543    1.0000 </r>
       <r>   -4.5412    1.0000 </r>
       <r>   -4.4757    1.0000 </r>
       <r>   -4.4732    1.0000 </r>
       <r>   -4.4722    1.0000 </r>
       <r>   -4.4710    1.0000 </r>
       <r>   -4.4705    1.0000 </r>
       <r>   -4.4696    1.0000 </r>
       <r>   -4.4680    1.0000 </r>
       <r>   -4.4677    1.0000 </r>
       <r>   -4.3448    1.0000 </r>
       <r>   -4.3423    1.0000 </r>
       <r>   -4.3397    1.0000 </r>
       <r>   -4.3374    1.0000 </r>
       <r>   -4.3164    1.0000 </r>
       <r>   -4.2887    1.0000 </r>
       <r>   -4.2019    1.0000 </r>
       <r>   -4.0978    1.0000 </r>
       <r>   -4.0879    1.0000 </r>
       <r>   -4.0877    1.0000 </r>
       <r>   -4.0843    1.0000 </r>
       <r>   -4.0835    1.0000 </r>
       <r>   -4.0747    1.0000 </r>
       <r>   -4.0745    1.0000 </r>
       <r>   -4.0714    1.0000 </r>
       <r>   -4.0703    1.0000 </r>
       <r>   -4.0287    1.0000 </r>
       <r>   -3.9506    1.0000 </r>
       <r>   -3.9501    1.0000 </r>
       <r>   -3.9470    1.0000 </r>
       <r>   -3.9458    1.0000 </r>
       <r>   -3.9094    1.0000 </r>
       <r>   -3.8655    1.0000 </r>
       <r>   -3.7857    1.0000 </r>
       <r>   -3.6233    1.0000 </r>
       <r>   -3.6206    1.0000 </r>
       <r>   -3.6156    1.0000 </r>
       <r>   -3.6141    1.0000 </r>
       <r>   -3.6080    1.0000 </r>
       <r>   -3.6035    1.0000 </r>
       <r>   -3.6019    1.0000 </r>
       <r>   -3.5983    1.0000 </r>
       <r>   -3.5977    1.0000 </r>
       <r>   -3.4812    1.0000 </r>
       <r>   -3.4789    1.0000 </r>
       <r>   -3.4783    1.0000 </r>
       <r>   -3.4749    1.0000 </r>
       <r>   -3.4726    1.0000 </r>
       <r>   -3.4681    1.0000 </r>
       <r>   -3.4676    1.0000 </r>
       <r>   -3.4660    1.0000 </r>
       <r>   -3.4651    1.0000 </r>
       <r>   -3.3903    1.0000 </r>
       <r>   -3.3584    1.0000 </r>
       <r>   -3.3472    1.0000 </r>
       <r>   -3.3406    1.0000 </r>
       <r>   -3.3394    1.0000 </r>
       <r>   -3.3383    1.0000 </r>
       <r>   -3.3381    1.0000 </r>
       <r>   -3.1562    1.0000 </r>
       <r>   -3.0973    1.0000 </r>
       <r>   -3.0777    1.0000 </r>
       <r>   -3.0728    1.0000 </r>
       <r>   -3.0727    1.0000 </r>
       <r>   -3.0660    1.0000 </r>
       <r>   -3.0047    1.0000 </r>
       <r>   -2.9989    1.0000 </r>
       <r>   -2.9917    1.0000 </r>
       <r>   -2.9397    1.0000 </r>
       <r>   -2.9363    1.0000 </r>
       <r>   -2.8559    1.0000 </r>
       <r>   -2.8424    1.0000 </r>
       <r>   -2.7698    1.0000 </r>
       <r>   -2.7661    1.0000 </r>
       <r>   -2.7563    1.0000 </r>
       <r>   -2.7266    1.0000 </r>
       <r>   -2.6771    1.0000 </r>
       <r>   -2.6739    1.0000 </r>
       <r>   -2.6723    1.0000 </r>
       <r>   -2.6628    1.0000 </r>
       <r>   -2.6421    1.0000 </r>
       <r>   -2.5484    1.0000 </r>
       <r>   -2.5456    1.0000 </r>
       <r>   -2.5452    1.0000 </r>
       <r>   -2.5176    1.0000 </r>
       <r>   -2.4675    1.0000 </r>
       <r>   -2.3927    1.0000 </r>
       <r>   -2.3874    1.0000 </r>
       <r>   -2.3775    1.0000 </r>
       <r>   -2.3749    1.0000 </r>
       <r>   -2.3729    1.0000 </r>
       <r>   -2.3720    1.0000 </r>
       <r>   -2.3717    1.0000 </r>
       <r>   -2.3709    1.0000 </r>
       <r>   -2.3701    1.0000 </r>
       <r>   -2.3680    1.0000 </r>
       <r>   -2.3662    1.0000 </r>
       <r>   -2.3482    1.0000 </r>
       <r>   -2.2859    1.0000 </r>
       <r>   -2.2626    1.0000 </r>
       <r>   -2.2578    1.0000 </r>
       <r>   -2.2436    1.0000 </r>
       <r>   -2.2413    1.0000 </r>
       <r>   -2.2400    1.0000 </r>
       <r>   -2.2377    1.0000 </r>
       <r>   -2.2362    1.0000 </r>
       <r>   -2.2086    1.0000 </r>
       <r>   -2.2081    1.0000 </r>
       <r>   -2.2001    1.0000 </r>
       <r>   -2.1650    1.0000 </r>
       <r>   -2.1587    1.0000 </r>
       <r>   -2.1442    1.0000 </r>
       <r>   -2.1264    1.0000 </r>
       <r>   -2.0989    1.0000 </r>
       <r>   -2.0915    1.0000 </r>
       <r>   -2.0909    1.0000 </r>
       <r>   -2.0858    1.0000 </r>
       <r>   -2.0854    1.0000 </r>
       <r>   -2.0577    1.0000 </r>
       <r>   -2.0573    1.0000 </r>
       <r>   -2.0510    1.0000 </r>
       <r>   -2.0508    1.0000 </r>
       <r>   -2.0104    1.0000 </r>
       <r>   -1.9640    1.0000 </r>
       <r>   -1.9443    1.0000 </r>
       <r>   -1.9419    1.0000 </r>
       <r>   -1.9362    1.0000 </r>
       <r>   -1.9337    1.0000 </r>
       <r>   -1.9323    1.0000 </r>
       <r>   -1.9310    1.0000 </r>
       <r>   -1.9068    1.0000 </r>
       <r>   -1.9054    1.0000 </r>
       <r>   -1.8963    1.0000 </r>
       <r>   -1.8840    1.0000 </r>
       <r>   -1.8631    1.0000 </r>
       <r>   -1.8604    1.0000 </r>
       <r>   -1.8599    1.0000 </r>
       <r>   -1.8585    1.0000 </r>
       <r>   -1.8577    1.0000 </r>
       <r>   -1.8566    1.0000 </r>
       <r>   -1.8562    1.0000 </r>
       <r>   -1.8549    1.0000 </r>
       <r>   -1.7788    1.0000 </r>
       <r>   -1.7788    1.0000 </r>
       <r>   -1.7777    1.0000 </r>
       <r>   -1.7775    1.0000 </r>
       <r>   -1.7744    1.0000 </r>
       <r>   -1.7741    1.0000 </r>
       <r>   -1.7727    1.0000 </r>
       <r>   -1.7727    1.0000 </r>
       <r>   -1.7456    1.0000 </r>
       <r>   -1.7445    1.0000 </r>
       <r>   -1.7426    1.0000 </r>
       <r>   -1.7394    1.0000 </r>
       <r>   -1.7153    1.0000 </r>
       <r>   -1.7085    1.0000 </r>
       <r>   -1.6880    1.0000 </r>
       <r>   -1.6616    1.0000 </r>
       <r>   -1.6486    1.0000 </r>
       <r>   -1.6461    1.0000 </r>
       <r>   -1.6439    1.0000 </r>
       <r>   -1.6412    1.0000 </r>
       <r>   -1.6106    1.0000 </r>
       <r>   -1.6087    1.0000 </r>
       <r>   -1.5857    1.0000 </r>
       <r>   -1.5840    1.0000 </r>
       <r>   -1.5796    1.0000 </r>
       <r>   -1.5598    1.0000 </r>
       <r>   -1.5550    1.0000 </r>
       <r>   -1.5500    1.0000 </r>
       <r>   -1.4642    1.0000 </r>
       <r>   -1.4491    1.0000 </r>
       <r>   -1.4410    1.0000 </r>
       <r>   -1.4316    1.0000 </r>
       <r>   -1.2638    1.0000 </r>
       <r>   -1.2553    1.0000 </r>
       <r>   -1.2538    1.0000 </r>
       <r>   -1.2357    1.0000 </r>
       <r>   -1.2347    1.0000 </r>
       <r>   -1.2245    1.0000 </r>
       <r>   -1.2237    1.0000 </r>
       <r>   -1.2093    1.0000 </r>
       <r>   -1.2071    1.0000 </r>
       <r>   -1.2069    1.0000 </r>
       <r>   -1.2062    1.0000 </r>
       <r>   -1.1940    1.0000 </r>
       <r>   -1.1883    1.0000 </r>
       <r>   -1.1877    1.0000 </r>
       <r>   -1.1856    1.0000 </r>
       <r>   -1.1582    1.0000 </r>
       <r>   -1.1194    1.0000 </r>
       <r>   -1.0908    1.0000 </r>
       <r>   -1.0855    1.0000 </r>
       <r>   -1.0831    1.0000 </r>
       <r>   -1.0810    1.0000 </r>
       <r>   -1.0561    1.0000 </r>
       <r>   -1.0159    1.0000 </r>
       <r>   -0.9349    1.0000 </r>
       <r>   -0.9303    1.0000 </r>
       <r>   -0.9171    1.0000 </r>
       <r>   -0.9093    1.0000 </r>
       <r>   -0.9076    1.0000 </r>
       <r>   -0.8572    1.0000 </r>
       <r>   -0.8453    1.0000 </r>
       <r>   -0.8357    1.0000 </r>
       <r>   -0.7766    1.0000 </r>
       <r>   -0.7322    1.0000 </r>
       <r>   -0.7086    1.0000 </r>
       <r>   -0.7056    1.0000 </r>
       <r>   -0.6564    1.0000 </r>
       <r>   -0.6388    1.0000 </r>
       <r>   -0.5977    1.0000 </r>
       <r>   -0.5950    1.0000 </r>
       <r>   -0.5298    1.0000 </r>
       <r>   -0.5184    1.0000 </r>
       <r>   -0.5175    1.0000 </r>
       <r>   -0.5152    1.0000 </r>
       <r>   -0.5140    1.0000 </r>
       <r>   -0.4617    1.0000 </r>
       <r>   -0.4579    1.0000 </r>
       <r>   -0.4578    1.0000 </r>
       <r>   -0.4569    1.0000 </r>
       <r>   -0.4535    1.0000 </r>
       <r>   -0.4530    1.0000 </r>
       <r>   -0.4529    1.0000 </r>
       <r>   -0.4488    1.0000 </r>
       <r>   -0.4181    1.0000 </r>
       <r>   -0.3838    1.0000 </r>
       <r>   -0.3835    1.0000 </r>
       <r>   -0.3768    1.0000 </r>
       <r>   -0.3523    1.0000 </r>
       <r>   -0.3494    1.0000 </r>
       <r>   -0.3475    1.0000 </r>
       <r>   -0.3462    1.0000 </r>
       <r>   -0.3302    1.0000 </r>
       <r>   -0.3268    1.0000 </r>
       <r>   -0.3252    1.0000 </r>
       <r>   -0.3214    1.0000 </r>
       <r>   -0.2800    1.0000 </r>
       <r>   -0.2645    1.0000 </r>
       <r>   -0.2642    1.0000 </r>
       <r>   -0.2594    1.0000 </r>
       <r>   -0.2551    1.0000 </r>
       <r>   -0.2533    1.0000 </r>
       <r>   -0.2525    1.0000 </r>
       <r>   -0.2265    1.0000 </r>
       <r>   -0.2224    1.0000 </r>
       <r>   -0.2180    1.0000 </r>
       <r>   -0.2135    1.0000 </r>
       <r>   -0.1418    1.0000 </r>
       <r>   -0.1406    1.0000 </r>
       <r>   -0.0465    1.0000 </r>
       <r>   -0.0095    1.0000 </r>
       <r>    0.0015    1.0000 </r>
       <r>    0.0096    1.0000 </r>
       <r>    0.0103    1.0000 </r>
       <r>    0.0175    1.0000 </r>
       <r>    0.0192    1.0000 </r>
       <r>    0.0343    1.0000 </r>
       <r>    0.0357    1.0000 </r>
       <r>    0.0497    1.0000 </r>
       <r>    0.1866    1.0000 </r>
       <r>    0.2768    1.0000 </r>
       <r>    0.3159    1.0000 </r>
       <r>    0.3398    1.0000 </r>
       <r>    0.3430    1.0000 </r>
       <r>    0.3453    1.0000 </r>
       <r>    0.3488    1.0000 </r>
       <r>    0.3509    1.0000 </r>
       <r>    0.3946    1.0000 </r>
       <r>    0.4206    1.0000 </r>
       <r>    0.4745    1.0000 </r>
       <r>    0.4795    1.0000 </r>
       <r>    0.4880    1.0000 </r>
       <r>    0.5103    1.0000 </r>
       <r>    0.5568    1.0000 </r>
       <r>    0.5585    1.0000 </r>
       <r>    0.5655    1.0000 </r>
       <r>    0.5775    1.0000 </r>
       <r>    0.5869    1.0000 </r>
       <r>    0.5888    1.0000 </r>
       <r>    0.6154    1.0000 </r>
       <r>    0.6298    1.0000 </r>
       <r>    0.6527    1.0000 </r>
       <r>    0.6940    1.0000 </r>
       <r>    0.7033    1.0000 </r>
       <r>    0.7279    1.0000 </r>
       <r>    0.7280    1.0000 </r>
       <r>    0.8534    1.0000 </r>
       <r>    0.8549    1.0000 </r>
       <r>    0.8568    1.0000 </r>
       <r>    0.8609    1.0000 </r>
       <r>    0.8653    1.0000 </r>
       <r>    0.8653    1.0000 </r>
       <r>    0.8674    1.0000 </r>
       <r>    0.8741    1.0000 </r>
       <r>    0.8752    1.0000 </r>
       <r>    0.8758    1.0000 </r>
       <r>    0.8836    1.0000 </r>
       <r>    0.8858    1.0000 </r>
       <r>    0.8923    1.0000 </r>
       <r>    0.8938    1.0000 </r>
       <r>    0.9047    1.0000 </r>
       <r>    0.9059    1.0000 </r>
       <r>    0.9938    1.0000 </r>
       <r>    1.0028    1.0000 </r>
       <r>    1.0565    1.0000 </r>
       <r>    1.0663    1.0000 </r>
       <r>    1.0773    1.0000 </r>
       <r>    1.0785    1.0000 </r>
       <r>    1.0940    1.0000 </r>
       <r>    1.0955    1.0000 </r>
       <r>    1.1008    1.0000 </r>
       <r>    1.1087    1.0000 </r>
       <r>    1.1091    1.0000 </r>
       <r>    1.2446    1.0000 </r>
       <r>    1.2591    1.0000 </r>
       <r>    1.3040    1.0000 </r>
       <r>    1.4338    1.0000 </r>
       <r>    1.4468    1.0000 </r>
       <r>    1.4564    1.0000 </r>
       <r>    1.4627    1.0000 </r>
       <r>    1.5916    1.0000 </r>
       <r>    1.6005    1.0000 </r>
       <r>    1.6027    1.0000 </r>
       <r>    1.6064    1.0000 </r>
       <r>    1.6140    1.0000 </r>
       <r>    1.6218    1.0000 </r>
       <r>    1.6523    1.0000 </r>
       <r>    1.6660    1.0000 </r>
       <r>    1.7131    1.0000 </r>
       <r>    1.7134    1.0000 </r>
       <r>    1.7677    1.0000 </r>
       <r>    1.7734    1.0000 </r>
       <r>    1.8436    1.0000 </r>
       <r>    1.8520    1.0000 </r>
       <r>    1.8538    1.0000 </r>
       <r>    1.8628    1.0000 </r>
       <r>    1.8646    1.0000 </r>
       <r>    1.8713    1.0000 </r>
       <r>    1.8783    1.0000 </r>
       <r>    1.8788    1.0000 </r>
       <r>    1.9866    1.0000 </r>
       <r>    2.0020    1.0000 </r>
       <r>    2.1867    1.0000 </r>
       <r>    2.1887    1.0000 </r>
       <r>    2.1947    1.0000 </r>
       <r>    2.2010    1.0000 </r>
       <r>    2.2060    1.0000 </r>
       <r>    2.2100    1.0000 </r>
       <r>    2.3789    1.0000 </r>
       <r>    2.3813    1.0000 </r>
       <r>    2.3879    1.0000 </r>
       <r>    2.3907    1.0000 </r>
       <r>    4.6564    1.0000 </r>
       <r>    5.9205    0.0000 </r>
       <r>    6.6056    0.0000 </r>
       <r>    6.6230    0.0000 </r>
       <r>    6.6277    0.0000 </r>
       <r>    6.8744    0.0000 </r>
       <r>    6.9351    0.0000 </r>
       <r>    7.0011    0.0000 </r>
       <r>    7.0140    0.0000 </r>
       <r>    7.0438    0.0000 </r>
       <r>    7.0549    0.0000 </r>
       <r>    7.0681    0.0000 </r>
       <r>    7.0804    0.0000 </r>
       <r>    7.1069    0.0000 </r>
       <r>    7.1148    0.0000 </r>
       <r>    7.1455    0.0000 </r>
       <r>    7.1467    0.0000 </r>
       <r>    7.2306    0.0000 </r>
       <r>    7.2647    0.0000 </r>
       <r>    7.2654    0.0000 </r>
       <r>    7.2859    0.0000 </r>
       <r>    7.2863    0.0000 </r>
       <r>    7.4233    0.0000 </r>
       <r>    7.4495    0.0000 </r>
       <r>    7.4567    0.0000 </r>
       <r>    7.4750    0.0000 </r>
       <r>    7.4833    0.0000 </r>
       <r>    7.5672    0.0000 </r>
       <r>    7.5723    0.0000 </r>
       <r>    7.6147    0.0000 </r>
       <r>    7.6454    0.0000 </r>
       <r>    7.6603    0.0000 </r>
       <r>    7.6650    0.0000 </r>
       <r>    7.6654    0.0000 </r>
       <r>    7.6679    0.0000 </r>
       <r>    7.6828    0.0000 </r>
       <r>    7.7018    0.0000 </r>
       <r>    7.7321    0.0000 </r>
       <r>    7.7356    0.0000 </r>
       <r>    7.7817    0.0000 </r>
       <r>    7.8437    0.0000 </r>
       <r>    7.8757    0.0000 </r>
       <r>    7.8968    0.0000 </r>
       <r>    7.9692    0.0000 </r>
       <r>    7.9764    0.0000 </r>
       <r>    8.0055    0.0000 </r>
       <r>    8.0063    0.0000 </r>
       <r>    8.0818    0.0000 </r>
       <r>    8.0965    0.0000 </r>
       <r>    8.0988    0.0000 </r>
       <r>    8.1903    0.0000 </r>
       <r>    8.2100    0.0000 </r>
       <r>    8.2341    0.0000 </r>
       <r>    8.2810    0.0000 </r>
       <r>    8.3354    0.0000 </r>
       <r>    8.3375    0.0000 </r>
       <r>    8.3621    0.0000 </r>
       <r>    8.4657    0.0000 </r>
       <r>    8.4789    0.0000 </r>
       <r>    8.4885    0.0000 </r>
       <r>    8.4948    0.0000 </r>
       <r>    8.4968    0.0000 </r>
       <r>    8.5082    0.0000 </r>
       <r>    8.5096    0.0000 </r>
       <r>    8.5111    0.0000 </r>
       <r>    8.5326    0.0000 </r>
       <r>    8.5576    0.0000 </r>
       <r>    8.5639    0.0000 </r>
       <r>    8.6270    0.0000 </r>
       <r>    8.7566    0.0000 </r>
       <r>    8.8118    0.0000 </r>
       <r>    8.8786    0.0000 </r>
       <r>    8.8975    0.0000 </r>
       <r>    8.9157    0.0000 </r>
       <r>    8.9641    0.0000 </r>
       <r>    9.0014    0.0000 </r>
       <r>    9.0083    0.0000 </r>
       <r>    9.0157    0.0000 </r>
       <r>    9.0178    0.0000 </r>
       <r>    9.0221    0.0000 </r>
       <r>    9.0293    0.0000 </r>
       <r>    9.0928    0.0000 </r>
       <r>    9.1306    0.0000 </r>
       <r>    9.1628    0.0000 </r>
       <r>    9.1658    0.0000 </r>
       <r>    9.1762    0.0000 </r>
       <r>    9.2074    0.0000 </r>
       <r>    9.2090    0.0000 </r>
       <r>    9.2102    0.0000 </r>
       <r>    9.3007    0.0000 </r>
       <r>    9.3161    0.0000 </r>
       <r>    9.3986    0.0000 </r>
       <r>    9.4261    0.0000 </r>
       <r>    9.4419    0.0000 </r>
       <r>    9.4465    0.0000 </r>
       <r>    9.5813    0.0000 </r>
       <r>    9.5993    0.0000 </r>
       <r>    9.6023    0.0000 </r>
       <r>    9.6072    0.0000 </r>
       <r>    9.6077    0.0000 </r>
       <r>    9.6126    0.0000 </r>
       <r>    9.6351    0.0000 </r>
       <r>    9.6713    0.0000 </r>
       <r>    9.7073    0.0000 </r>
       <r>    9.7101    0.0000 </r>
       <r>    9.7297    0.0000 </r>
       <r>    9.7361    0.0000 </r>
       <r>    9.7719    0.0000 </r>
       <r>    9.8167    0.0000 </r>
       <r>    9.8250    0.0000 </r>
       <r>    9.9219    0.0000 </r>
       <r>    9.9243    0.0000 </r>
       <r>    9.9367    0.0000 </r>
       <r>    9.9650    0.0000 </r>
       <r>    9.9675    0.0000 </r>
       <r>   10.0289    0.0000 </r>
       <r>   10.0647    0.0000 </r>
       <r>   10.1008    0.0000 </r>
       <r>   10.1013    0.0000 </r>
       <r>   10.3003    0.0000 </r>
       <r>   10.3393    0.0000 </r>
       <r>   10.4250    0.0000 </r>
       <r>   10.4254    0.0000 </r>
       <r>   10.5254    0.0000 </r>
       <r>   10.5257    0.0000 </r>
       <r>   10.5490    0.0000 </r>
       <r>   10.5520    0.0000 </r>
       <r>   10.8619    0.0000 </r>
       <r>   10.9838    0.0000 </r>
       <r>   11.2070    0.0000 </r>
       <r>   11.2131    0.0000 </r>
       <r>   11.2760    0.0000 </r>
       <r>   11.4028    0.0000 </r>
       <r>   11.4121    0.0000 </r>
       <r>   11.4347    0.0000 </r>
       <r>   11.4716    0.0000 </r>
       <r>   11.5005    0.0000 </r>
       <r>   11.5252    0.0000 </r>
       <r>   11.5397    0.0000 </r>
       <r>   11.5759    0.0000 </r>
       <r>   11.5897    0.0000 </r>
       <r>   11.5995    0.0000 </r>
       <r>   11.6101    0.0000 </r>
       <r>   11.6229    0.0000 </r>
       <r>   11.6681    0.0000 </r>
       <r>   11.7449    0.0000 </r>
       <r>   11.7990    0.0000 </r>
       <r>   11.8496    0.0000 </r>
       <r>   11.8727    0.0000 </r>
       <r>   11.9244    0.0000 </r>
       <r>   12.0036    0.0000 </r>
       <r>   12.0319    0.0000 </r>
      </set>
      <set comment="kpoint 8">
       <r>  -17.2935    1.0000 </r>
       <r>  -15.7752    1.0000 </r>
       <r>  -15.7301    1.0000 </r>
       <r>  -15.4169    1.0000 </r>
       <r>  -15.3049    1.0000 </r>
       <r>  -15.2747    1.0000 </r>
       <r>  -15.2426    1.0000 </r>
       <r>  -15.2049    1.0000 </r>
       <r>  -15.1447    1.0000 </r>
       <r>  -15.0919    1.0000 </r>
       <r>  -15.0610    1.0000 </r>
       <r>  -15.0330    1.0000 </r>
       <r>  -15.0163    1.0000 </r>
       <r>  -14.9845    1.0000 </r>
       <r>  -14.9838    1.0000 </r>
       <r>  -14.9070    1.0000 </r>
       <r>  -14.9001    1.0000 </r>
       <r>  -14.8553    1.0000 </r>
       <r>  -14.7589    1.0000 </r>
       <r>  -14.7565    1.0000 </r>
       <r>  -14.6189    1.0000 </r>
       <r>  -14.5679    1.0000 </r>
       <r>  -14.5516    1.0000 </r>
       <r>  -14.4670    1.0000 </r>
       <r>  -14.4631    1.0000 </r>
       <r>  -14.4602    1.0000 </r>
       <r>  -14.4578    1.0000 </r>
       <r>  -14.4249    1.0000 </r>
       <r>  -14.4028    1.0000 </r>
       <r>  -14.3959    1.0000 </r>
       <r>  -14.3855    1.0000 </r>
       <r>  -14.3435    1.0000 </r>
       <r>  -14.2492    1.0000 </r>
       <r>  -14.2456    1.0000 </r>
       <r>  -14.2447    1.0000 </r>
       <r>  -14.2400    1.0000 </r>
       <r>  -14.2073    1.0000 </r>
       <r>  -14.2067    1.0000 </r>
       <r>  -14.1718    1.0000 </r>
       <r>  -14.1497    1.0000 </r>
       <r>  -14.1112    1.0000 </r>
       <r>  -14.0358    1.0000 </r>
       <r>  -13.9990    1.0000 </r>
       <r>  -13.9962    1.0000 </r>
       <r>  -13.9484    1.0000 </r>
       <r>  -13.7879    1.0000 </r>
       <r>  -13.7416    1.0000 </r>
       <r>  -13.7398    1.0000 </r>
       <r>  -13.7126    1.0000 </r>
       <r>  -13.7115    1.0000 </r>
       <r>  -13.7030    1.0000 </r>
       <r>  -13.6815    1.0000 </r>
       <r>  -13.6580    1.0000 </r>
       <r>  -13.6555    1.0000 </r>
       <r>  -13.6048    1.0000 </r>
       <r>  -13.5318    1.0000 </r>
       <r>  -13.5314    1.0000 </r>
       <r>  -13.5212    1.0000 </r>
       <r>  -13.5178    1.0000 </r>
       <r>  -13.5056    1.0000 </r>
       <r>  -13.3597    1.0000 </r>
       <r>  -13.3379    1.0000 </r>
       <r>  -13.2554    1.0000 </r>
       <r>  -13.2232    1.0000 </r>
       <r>  -13.1101    1.0000 </r>
       <r>  -13.0689    1.0000 </r>
       <r>  -13.0644    1.0000 </r>
       <r>  -13.0615    1.0000 </r>
       <r>  -13.0604    1.0000 </r>
       <r>  -13.0334    1.0000 </r>
       <r>  -13.0265    1.0000 </r>
       <r>  -13.0229    1.0000 </r>
       <r>  -13.0167    1.0000 </r>
       <r>  -12.9741    1.0000 </r>
       <r>  -12.9291    1.0000 </r>
       <r>  -12.8945    1.0000 </r>
       <r>  -12.8926    1.0000 </r>
       <r>  -12.8889    1.0000 </r>
       <r>  -12.8885    1.0000 </r>
       <r>  -12.8801    1.0000 </r>
       <r>  -12.8782    1.0000 </r>
       <r>  -12.8776    1.0000 </r>
       <r>  -12.8744    1.0000 </r>
       <r>  -12.8667    1.0000 </r>
       <r>  -12.8603    1.0000 </r>
       <r>  -12.8562    1.0000 </r>
       <r>  -12.8508    1.0000 </r>
       <r>  -12.8506    1.0000 </r>
       <r>  -12.7180    1.0000 </r>
       <r>  -12.7152    1.0000 </r>
       <r>  -12.7149    1.0000 </r>
       <r>  -12.7116    1.0000 </r>
       <r>  -12.6838    1.0000 </r>
       <r>  -12.6099    1.0000 </r>
       <r>  -12.5986    1.0000 </r>
       <r>  -12.5765    1.0000 </r>
       <r>  -12.5728    1.0000 </r>
       <r>  -12.5515    1.0000 </r>
       <r>  -12.5336    1.0000 </r>
       <r>  -12.4986    1.0000 </r>
       <r>  -12.4377    1.0000 </r>
       <r>  -12.4294    1.0000 </r>
       <r>  -12.4247    1.0000 </r>
       <r>  -12.4232    1.0000 </r>
       <r>  -12.3423    1.0000 </r>
       <r>  -12.3381    1.0000 </r>
       <r>  -12.3218    1.0000 </r>
       <r>  -12.3170    1.0000 </r>
       <r>  -12.2459    1.0000 </r>
       <r>  -12.2455    1.0000 </r>
       <r>  -12.2366    1.0000 </r>
       <r>  -12.2327    1.0000 </r>
       <r>  -12.2193    1.0000 </r>
       <r>  -12.2185    1.0000 </r>
       <r>  -12.2082    1.0000 </r>
       <r>  -12.2056    1.0000 </r>
       <r>  -12.1772    1.0000 </r>
       <r>  -12.1746    1.0000 </r>
       <r>  -12.1708    1.0000 </r>
       <r>  -12.1706    1.0000 </r>
       <r>  -12.0952    1.0000 </r>
       <r>  -12.0939    1.0000 </r>
       <r>  -12.0918    1.0000 </r>
       <r>  -12.0892    1.0000 </r>
       <r>  -12.0850    1.0000 </r>
       <r>  -12.0847    1.0000 </r>
       <r>  -11.9513    1.0000 </r>
       <r>  -11.9478    1.0000 </r>
       <r>  -11.9469    1.0000 </r>
       <r>  -11.9433    1.0000 </r>
       <r>  -11.8170    1.0000 </r>
       <r>  -11.8143    1.0000 </r>
       <r>  -11.8082    1.0000 </r>
       <r>  -11.8074    1.0000 </r>
       <r>  -11.8044    1.0000 </r>
       <r>  -11.8034    1.0000 </r>
       <r>  -11.7852    1.0000 </r>
       <r>  -11.7849    1.0000 </r>
       <r>  -11.7797    1.0000 </r>
       <r>  -11.7795    1.0000 </r>
       <r>  -11.6679    1.0000 </r>
       <r>  -11.6676    1.0000 </r>
       <r>  -11.6651    1.0000 </r>
       <r>  -11.6586    1.0000 </r>
       <r>   -8.3630    1.0000 </r>
       <r>   -7.2838    1.0000 </r>
       <r>   -7.2707    1.0000 </r>
       <r>   -6.7936    1.0000 </r>
       <r>   -6.7046    1.0000 </r>
       <r>   -6.6829    1.0000 </r>
       <r>   -6.4379    1.0000 </r>
       <r>   -6.4062    1.0000 </r>
       <r>   -6.3219    1.0000 </r>
       <r>   -6.3088    1.0000 </r>
       <r>   -6.3059    1.0000 </r>
       <r>   -6.3038    1.0000 </r>
       <r>   -6.2993    1.0000 </r>
       <r>   -6.2869    1.0000 </r>
       <r>   -6.2756    1.0000 </r>
       <r>   -6.2749    1.0000 </r>
       <r>   -6.2690    1.0000 </r>
       <r>   -6.2685    1.0000 </r>
       <r>   -6.2159    1.0000 </r>
       <r>   -6.2156    1.0000 </r>
       <r>   -6.2119    1.0000 </r>
       <r>   -6.2072    1.0000 </r>
       <r>   -6.1958    1.0000 </r>
       <r>   -6.1950    1.0000 </r>
       <r>   -6.1581    1.0000 </r>
       <r>   -6.1578    1.0000 </r>
       <r>   -6.1522    1.0000 </r>
       <r>   -6.1473    1.0000 </r>
       <r>   -6.0738    1.0000 </r>
       <r>   -6.0705    1.0000 </r>
       <r>   -5.9352    1.0000 </r>
       <r>   -5.9278    1.0000 </r>
       <r>   -5.9111    1.0000 </r>
       <r>   -5.9036    1.0000 </r>
       <r>   -5.8439    1.0000 </r>
       <r>   -5.7887    1.0000 </r>
       <r>   -5.7836    1.0000 </r>
       <r>   -5.7718    1.0000 </r>
       <r>   -5.7693    1.0000 </r>
       <r>   -5.7685    1.0000 </r>
       <r>   -5.7641    1.0000 </r>
       <r>   -5.7615    1.0000 </r>
       <r>   -5.7588    1.0000 </r>
       <r>   -5.7584    1.0000 </r>
       <r>   -5.7574    1.0000 </r>
       <r>   -5.7509    1.0000 </r>
       <r>   -5.7394    1.0000 </r>
       <r>   -5.6845    1.0000 </r>
       <r>   -5.6542    1.0000 </r>
       <r>   -5.6418    1.0000 </r>
       <r>   -5.6239    1.0000 </r>
       <r>   -5.6224    1.0000 </r>
       <r>   -5.6210    1.0000 </r>
       <r>   -5.6184    1.0000 </r>
       <r>   -5.2296    1.0000 </r>
       <r>   -5.2272    1.0000 </r>
       <r>   -5.2246    1.0000 </r>
       <r>   -5.2242    1.0000 </r>
       <r>   -5.2240    1.0000 </r>
       <r>   -5.2200    1.0000 </r>
       <r>   -5.2192    1.0000 </r>
       <r>   -5.2190    1.0000 </r>
       <r>   -5.2181    1.0000 </r>
       <r>   -5.2176    1.0000 </r>
       <r>   -5.2172    1.0000 </r>
       <r>   -5.2168    1.0000 </r>
       <r>   -5.1148    1.0000 </r>
       <r>   -5.1102    1.0000 </r>
       <r>   -5.0935    1.0000 </r>
       <r>   -5.0913    1.0000 </r>
       <r>   -5.0884    1.0000 </r>
       <r>   -5.0876    1.0000 </r>
       <r>   -5.0869    1.0000 </r>
       <r>   -5.0829    1.0000 </r>
       <r>   -5.0261    1.0000 </r>
       <r>   -4.9211    1.0000 </r>
       <r>   -4.8318    1.0000 </r>
       <r>   -4.6117    1.0000 </r>
       <r>   -4.5543    1.0000 </r>
       <r>   -4.5412    1.0000 </r>
       <r>   -4.4757    1.0000 </r>
       <r>   -4.4732    1.0000 </r>
       <r>   -4.4721    1.0000 </r>
       <r>   -4.4711    1.0000 </r>
       <r>   -4.4706    1.0000 </r>
       <r>   -4.4696    1.0000 </r>
       <r>   -4.4681    1.0000 </r>
       <r>   -4.4677    1.0000 </r>
       <r>   -4.3449    1.0000 </r>
       <r>   -4.3423    1.0000 </r>
       <r>   -4.3406    1.0000 </r>
       <r>   -4.3384    1.0000 </r>
       <r>   -4.3164    1.0000 </r>
       <r>   -4.2887    1.0000 </r>
       <r>   -4.2019    1.0000 </r>
       <r>   -4.0978    1.0000 </r>
       <r>   -4.0879    1.0000 </r>
       <r>   -4.0876    1.0000 </r>
       <r>   -4.0843    1.0000 </r>
       <r>   -4.0834    1.0000 </r>
       <r>   -4.0748    1.0000 </r>
       <r>   -4.0746    1.0000 </r>
       <r>   -4.0715    1.0000 </r>
       <r>   -4.0704    1.0000 </r>
       <r>   -4.0288    1.0000 </r>
       <r>   -3.9501    1.0000 </r>
       <r>   -3.9500    1.0000 </r>
       <r>   -3.9476    1.0000 </r>
       <r>   -3.9463    1.0000 </r>
       <r>   -3.9093    1.0000 </r>
       <r>   -3.8654    1.0000 </r>
       <r>   -3.7857    1.0000 </r>
       <r>   -3.6232    1.0000 </r>
       <r>   -3.6205    1.0000 </r>
       <r>   -3.6154    1.0000 </r>
       <r>   -3.6140    1.0000 </r>
       <r>   -3.6082    1.0000 </r>
       <r>   -3.6035    1.0000 </r>
       <r>   -3.6020    1.0000 </r>
       <r>   -3.5984    1.0000 </r>
       <r>   -3.5979    1.0000 </r>
       <r>   -3.4801    1.0000 </r>
       <r>   -3.4796    1.0000 </r>
       <r>   -3.4783    1.0000 </r>
       <r>   -3.4743    1.0000 </r>
       <r>   -3.4716    1.0000 </r>
       <r>   -3.4682    1.0000 </r>
       <r>   -3.4674    1.0000 </r>
       <r>   -3.4659    1.0000 </r>
       <r>   -3.4651    1.0000 </r>
       <r>   -3.3897    1.0000 </r>
       <r>   -3.3589    1.0000 </r>
       <r>   -3.3474    1.0000 </r>
       <r>   -3.3406    1.0000 </r>
       <r>   -3.3397    1.0000 </r>
       <r>   -3.3393    1.0000 </r>
       <r>   -3.3376    1.0000 </r>
       <r>   -3.1562    1.0000 </r>
       <r>   -3.0973    1.0000 </r>
       <r>   -3.0776    1.0000 </r>
       <r>   -3.0728    1.0000 </r>
       <r>   -3.0727    1.0000 </r>
       <r>   -3.0660    1.0000 </r>
       <r>   -3.0040    1.0000 </r>
       <r>   -2.9994    1.0000 </r>
       <r>   -2.9918    1.0000 </r>
       <r>   -2.9383    1.0000 </r>
       <r>   -2.9361    1.0000 </r>
       <r>   -2.8559    1.0000 </r>
       <r>   -2.8426    1.0000 </r>
       <r>   -2.7698    1.0000 </r>
       <r>   -2.7662    1.0000 </r>
       <r>   -2.7563    1.0000 </r>
       <r>   -2.7266    1.0000 </r>
       <r>   -2.6771    1.0000 </r>
       <r>   -2.6739    1.0000 </r>
       <r>   -2.6723    1.0000 </r>
       <r>   -2.6629    1.0000 </r>
       <r>   -2.6422    1.0000 </r>
       <r>   -2.5484    1.0000 </r>
       <r>   -2.5477    1.0000 </r>
       <r>   -2.5451    1.0000 </r>
       <r>   -2.5177    1.0000 </r>
       <r>   -2.4675    1.0000 </r>
       <r>   -2.3926    1.0000 </r>
       <r>   -2.3874    1.0000 </r>
       <r>   -2.3776    1.0000 </r>
       <r>   -2.3748    1.0000 </r>
       <r>   -2.3730    1.0000 </r>
       <r>   -2.3720    1.0000 </r>
       <r>   -2.3717    1.0000 </r>
       <r>   -2.3708    1.0000 </r>
       <r>   -2.3701    1.0000 </r>
       <r>   -2.3681    1.0000 </r>
       <r>   -2.3661    1.0000 </r>
       <r>   -2.3479    1.0000 </r>
       <r>   -2.2859    1.0000 </r>
       <r>   -2.2637    1.0000 </r>
       <r>   -2.2576    1.0000 </r>
       <r>   -2.2429    1.0000 </r>
       <r>   -2.2411    1.0000 </r>
       <r>   -2.2399    1.0000 </r>
       <r>   -2.2364    1.0000 </r>
       <r>   -2.2354    1.0000 </r>
       <r>   -2.2086    1.0000 </r>
       <r>   -2.2080    1.0000 </r>
       <r>   -2.2000    1.0000 </r>
       <r>   -2.1648    1.0000 </r>
       <r>   -2.1587    1.0000 </r>
       <r>   -2.1442    1.0000 </r>
       <r>   -2.1264    1.0000 </r>
       <r>   -2.0990    1.0000 </r>
       <r>   -2.0914    1.0000 </r>
       <r>   -2.0908    1.0000 </r>
       <r>   -2.0858    1.0000 </r>
       <r>   -2.0853    1.0000 </r>
       <r>   -2.0579    1.0000 </r>
       <r>   -2.0576    1.0000 </r>
       <r>   -2.0512    1.0000 </r>
       <r>   -2.0509    1.0000 </r>
       <r>   -2.0103    1.0000 </r>
       <r>   -1.9634    1.0000 </r>
       <r>   -1.9422    1.0000 </r>
       <r>   -1.9420    1.0000 </r>
       <r>   -1.9373    1.0000 </r>
       <r>   -1.9361    1.0000 </r>
       <r>   -1.9328    1.0000 </r>
       <r>   -1.9324    1.0000 </r>
       <r>   -1.9066    1.0000 </r>
       <r>   -1.9047    1.0000 </r>
       <r>   -1.8963    1.0000 </r>
       <r>   -1.8836    1.0000 </r>
       <r>   -1.8631    1.0000 </r>
       <r>   -1.8604    1.0000 </r>
       <r>   -1.8599    1.0000 </r>
       <r>   -1.8585    1.0000 </r>
       <r>   -1.8577    1.0000 </r>
       <r>   -1.8566    1.0000 </r>
       <r>   -1.8561    1.0000 </r>
       <r>   -1.8549    1.0000 </r>
       <r>   -1.7787    1.0000 </r>
       <r>   -1.7787    1.0000 </r>
       <r>   -1.7777    1.0000 </r>
       <r>   -1.7776    1.0000 </r>
       <r>   -1.7743    1.0000 </r>
       <r>   -1.7741    1.0000 </r>
       <r>   -1.7727    1.0000 </r>
       <r>   -1.7727    1.0000 </r>
       <r>   -1.7465    1.0000 </r>
       <r>   -1.7429    1.0000 </r>
       <r>   -1.7424    1.0000 </r>
       <r>   -1.7401    1.0000 </r>
       <r>   -1.7153    1.0000 </r>
       <r>   -1.7085    1.0000 </r>
       <r>   -1.6881    1.0000 </r>
       <r>   -1.6616    1.0000 </r>
       <r>   -1.6484    1.0000 </r>
       <r>   -1.6456    1.0000 </r>
       <r>   -1.6444    1.0000 </r>
       <r>   -1.6432    1.0000 </r>
       <r>   -1.6097    1.0000 </r>
       <r>   -1.6091    1.0000 </r>
       <r>   -1.5860    1.0000 </r>
       <r>   -1.5837    1.0000 </r>
       <r>   -1.5794    1.0000 </r>
       <r>   -1.5599    1.0000 </r>
       <r>   -1.5552    1.0000 </r>
       <r>   -1.5502    1.0000 </r>
       <r>   -1.4643    1.0000 </r>
       <r>   -1.4491    1.0000 </r>
       <r>   -1.4400    1.0000 </r>
       <r>   -1.4304    1.0000 </r>
       <r>   -1.2638    1.0000 </r>
       <r>   -1.2555    1.0000 </r>
       <r>   -1.2527    1.0000 </r>
       <r>   -1.2356    1.0000 </r>
       <r>   -1.2351    1.0000 </r>
       <r>   -1.2245    1.0000 </r>
       <r>   -1.2235    1.0000 </r>
       <r>   -1.2095    1.0000 </r>
       <r>   -1.2072    1.0000 </r>
       <r>   -1.2069    1.0000 </r>
       <r>   -1.2064    1.0000 </r>
       <r>   -1.1943    1.0000 </r>
       <r>   -1.1883    1.0000 </r>
       <r>   -1.1876    1.0000 </r>
       <r>   -1.1861    1.0000 </r>
       <r>   -1.1584    1.0000 </r>
       <r>   -1.1197    1.0000 </r>
       <r>   -1.0888    1.0000 </r>
       <r>   -1.0865    1.0000 </r>
       <r>   -1.0854    1.0000 </r>
       <r>   -1.0826    1.0000 </r>
       <r>   -1.0562    1.0000 </r>
       <r>   -1.0159    1.0000 </r>
       <r>   -0.9348    1.0000 </r>
       <r>   -0.9308    1.0000 </r>
       <r>   -0.9158    1.0000 </r>
       <r>   -0.9097    1.0000 </r>
       <r>   -0.9082    1.0000 </r>
       <r>   -0.8572    1.0000 </r>
       <r>   -0.8453    1.0000 </r>
       <r>   -0.8356    1.0000 </r>
       <r>   -0.7765    1.0000 </r>
       <r>   -0.7323    1.0000 </r>
       <r>   -0.7086    1.0000 </r>
       <r>   -0.7056    1.0000 </r>
       <r>   -0.6564    1.0000 </r>
       <r>   -0.6388    1.0000 </r>
       <r>   -0.5975    1.0000 </r>
       <r>   -0.5948    1.0000 </r>
       <r>   -0.5299    1.0000 </r>
       <r>   -0.5183    1.0000 </r>
       <r>   -0.5175    1.0000 </r>
       <r>   -0.5151    1.0000 </r>
       <r>   -0.5140    1.0000 </r>
       <r>   -0.4616    1.0000 </r>
       <r>   -0.4578    1.0000 </r>
       <r>   -0.4577    1.0000 </r>
       <r>   -0.4568    1.0000 </r>
       <r>   -0.4534    1.0000 </r>
       <r>   -0.4530    1.0000 </r>
       <r>   -0.4529    1.0000 </r>
       <r>   -0.4488    1.0000 </r>
       <r>   -0.4180    1.0000 </r>
       <r>   -0.3849    1.0000 </r>
       <r>   -0.3800    1.0000 </r>
       <r>   -0.3767    1.0000 </r>
       <r>   -0.3524    1.0000 </r>
       <r>   -0.3495    1.0000 </r>
       <r>   -0.3477    1.0000 </r>
       <r>   -0.3463    1.0000 </r>
       <r>   -0.3295    1.0000 </r>
       <r>   -0.3262    1.0000 </r>
       <r>   -0.3250    1.0000 </r>
       <r>   -0.3228    1.0000 </r>
       <r>   -0.2800    1.0000 </r>
       <r>   -0.2644    1.0000 </r>
       <r>   -0.2641    1.0000 </r>
       <r>   -0.2588    1.0000 </r>
       <r>   -0.2558    1.0000 </r>
       <r>   -0.2533    1.0000 </r>
       <r>   -0.2524    1.0000 </r>
       <r>   -0.2250    1.0000 </r>
       <r>   -0.2209    1.0000 </r>
       <r>   -0.2178    1.0000 </r>
       <r>   -0.2132    1.0000 </r>
       <r>   -0.1419    1.0000 </r>
       <r>   -0.1407    1.0000 </r>
       <r>   -0.0466    1.0000 </r>
       <r>   -0.0078    1.0000 </r>
       <r>    0.0010    1.0000 </r>
       <r>    0.0077    1.0000 </r>
       <r>    0.0108    1.0000 </r>
       <r>    0.0183    1.0000 </r>
       <r>    0.0186    1.0000 </r>
       <r>    0.0341    1.0000 </r>
       <r>    0.0355    1.0000 </r>
       <r>    0.0498    1.0000 </r>
       <r>    0.1867    1.0000 </r>
       <r>    0.2767    1.0000 </r>
       <r>    0.3158    1.0000 </r>
       <r>    0.3398    1.0000 </r>
       <r>    0.3430    1.0000 </r>
       <r>    0.3452    1.0000 </r>
       <r>    0.3487    1.0000 </r>
       <r>    0.3508    1.0000 </r>
       <r>    0.3946    1.0000 </r>
       <r>    0.4207    1.0000 </r>
       <r>    0.4729    1.0000 </r>
       <r>    0.4776    1.0000 </r>
       <r>    0.4880    1.0000 </r>
       <r>    0.5108    1.0000 </r>
       <r>    0.5570    1.0000 </r>
       <r>    0.5586    1.0000 </r>
       <r>    0.5655    1.0000 </r>
       <r>    0.5774    1.0000 </r>
       <r>    0.5867    1.0000 </r>
       <r>    0.5887    1.0000 </r>
       <r>    0.6153    1.0000 </r>
       <r>    0.6298    1.0000 </r>
       <r>    0.6526    1.0000 </r>
       <r>    0.6938    1.0000 </r>
       <r>    0.6997    1.0000 </r>
       <r>    0.7279    1.0000 </r>
       <r>    0.7281    1.0000 </r>
       <r>    0.8535    1.0000 </r>
       <r>    0.8552    1.0000 </r>
       <r>    0.8570    1.0000 </r>
       <r>    0.8616    1.0000 </r>
       <r>    0.8646    1.0000 </r>
       <r>    0.8654    1.0000 </r>
       <r>    0.8676    1.0000 </r>
       <r>    0.8737    1.0000 </r>
       <r>    0.8752    1.0000 </r>
       <r>    0.8762    1.0000 </r>
       <r>    0.8833    1.0000 </r>
       <r>    0.8856    1.0000 </r>
       <r>    0.8923    1.0000 </r>
       <r>    0.8936    1.0000 </r>
       <r>    0.9047    1.0000 </r>
       <r>    0.9059    1.0000 </r>
       <r>    0.9940    1.0000 </r>
       <r>    1.0065    1.0000 </r>
       <r>    1.0572    1.0000 </r>
       <r>    1.0655    1.0000 </r>
       <r>    1.0769    1.0000 </r>
       <r>    1.0790    1.0000 </r>
       <r>    1.0943    1.0000 </r>
       <r>    1.0956    1.0000 </r>
       <r>    1.1010    1.0000 </r>
       <r>    1.1076    1.0000 </r>
       <r>    1.1085    1.0000 </r>
       <r>    1.2446    1.0000 </r>
       <r>    1.2590    1.0000 </r>
       <r>    1.3040    1.0000 </r>
       <r>    1.4338    1.0000 </r>
       <r>    1.4468    1.0000 </r>
       <r>    1.4572    1.0000 </r>
       <r>    1.4628    1.0000 </r>
       <r>    1.5917    1.0000 </r>
       <r>    1.6010    1.0000 </r>
       <r>    1.6029    1.0000 </r>
       <r>    1.6063    1.0000 </r>
       <r>    1.6140    1.0000 </r>
       <r>    1.6217    1.0000 </r>
       <r>    1.6522    1.0000 </r>
       <r>    1.6660    1.0000 </r>
       <r>    1.7128    1.0000 </r>
       <r>    1.7134    1.0000 </r>
       <r>    1.7673    1.0000 </r>
       <r>    1.7742    1.0000 </r>
       <r>    1.8436    1.0000 </r>
       <r>    1.8526    1.0000 </r>
       <r>    1.8540    1.0000 </r>
       <r>    1.8629    1.0000 </r>
       <r>    1.8655    1.0000 </r>
       <r>    1.8708    1.0000 </r>
       <r>    1.8768    1.0000 </r>
       <r>    1.8778    1.0000 </r>
       <r>    1.9866    1.0000 </r>
       <r>    2.0020    1.0000 </r>
       <r>    2.1867    1.0000 </r>
       <r>    2.1886    1.0000 </r>
       <r>    2.1955    1.0000 </r>
       <r>    2.2006    1.0000 </r>
       <r>    2.2061    1.0000 </r>
       <r>    2.2100    1.0000 </r>
       <r>    2.3779    1.0000 </r>
       <r>    2.3802    1.0000 </r>
       <r>    2.3897    1.0000 </r>
       <r>    2.3911    1.0000 </r>
       <r>    4.6564    1.0000 </r>
       <r>    5.9205    0.0000 </r>
       <r>    6.6057    0.0000 </r>
       <r>    6.6231    0.0000 </r>
       <r>    6.6276    0.0000 </r>
       <r>    6.8744    0.0000 </r>
       <r>    6.9349    0.0000 </r>
       <r>    7.0012    0.0000 </r>
       <r>    7.0140    0.0000 </r>
       <r>    7.0437    0.0000 </r>
       <r>    7.0541    0.0000 </r>
       <r>    7.0681    0.0000 </r>
       <r>    7.0805    0.0000 </r>
       <r>    7.1073    0.0000 </r>
       <r>    7.1154    0.0000 </r>
       <r>    7.1458    0.0000 </r>
       <r>    7.1465    0.0000 </r>
       <r>    7.2307    0.0000 </r>
       <r>    7.2647    0.0000 </r>
       <r>    7.2649    0.0000 </r>
       <r>    7.2863    0.0000 </r>
       <r>    7.2865    0.0000 </r>
       <r>    7.4233    0.0000 </r>
       <r>    7.4493    0.0000 </r>
       <r>    7.4565    0.0000 </r>
       <r>    7.4748    0.0000 </r>
       <r>    7.4833    0.0000 </r>
       <r>    7.5673    0.0000 </r>
       <r>    7.5724    0.0000 </r>
       <r>    7.6149    0.0000 </r>
       <r>    7.6457    0.0000 </r>
       <r>    7.6610    0.0000 </r>
       <r>    7.6641    0.0000 </r>
       <r>    7.6663    0.0000 </r>
       <r>    7.6673    0.0000 </r>
       <r>    7.6815    0.0000 </r>
       <r>    7.7019    0.0000 </r>
       <r>    7.7319    0.0000 </r>
       <r>    7.7343    0.0000 </r>
       <r>    7.7817    0.0000 </r>
       <r>    7.8434    0.0000 </r>
       <r>    7.8759    0.0000 </r>
       <r>    7.8969    0.0000 </r>
       <r>    7.9703    0.0000 </r>
       <r>    7.9772    0.0000 </r>
       <r>    8.0051    0.0000 </r>
       <r>    8.0070    0.0000 </r>
       <r>    8.0819    0.0000 </r>
       <r>    8.0965    0.0000 </r>
       <r>    8.0991    0.0000 </r>
       <r>    8.1903    0.0000 </r>
       <r>    8.2100    0.0000 </r>
       <r>    8.2341    0.0000 </r>
       <r>    8.2811    0.0000 </r>
       <r>    8.3353    0.0000 </r>
       <r>    8.3374    0.0000 </r>
       <r>    8.3620    0.0000 </r>
       <r>    8.4660    0.0000 </r>
       <r>    8.4787    0.0000 </r>
       <r>    8.4885    0.0000 </r>
       <r>    8.4944    0.0000 </r>
       <r>    8.4976    0.0000 </r>
       <r>    8.5080    0.0000 </r>
       <r>    8.5105    0.0000 </r>
       <r>    8.5117    0.0000 </r>
       <r>    8.5310    0.0000 </r>
       <r>    8.5576    0.0000 </r>
       <r>    8.5642    0.0000 </r>
       <r>    8.6265    0.0000 </r>
       <r>    8.7569    0.0000 </r>
       <r>    8.8117    0.0000 </r>
       <r>    8.8787    0.0000 </r>
       <r>    8.8976    0.0000 </r>
       <r>    8.9157    0.0000 </r>
       <r>    8.9641    0.0000 </r>
       <r>    9.0015    0.0000 </r>
       <r>    9.0082    0.0000 </r>
       <r>    9.0162    0.0000 </r>
       <r>    9.0178    0.0000 </r>
       <r>    9.0220    0.0000 </r>
       <r>    9.0290    0.0000 </r>
       <r>    9.0925    0.0000 </r>
       <r>    9.1306    0.0000 </r>
       <r>    9.1634    0.0000 </r>
       <r>    9.1653    0.0000 </r>
       <r>    9.1772    0.0000 </r>
       <r>    9.2072    0.0000 </r>
       <r>    9.2086    0.0000 </r>
       <r>    9.2101    0.0000 </r>
       <r>    9.3004    0.0000 </r>
       <r>    9.3158    0.0000 </r>
       <r>    9.3987    0.0000 </r>
       <r>    9.4263    0.0000 </r>
       <r>    9.4419    0.0000 </r>
       <r>    9.4463    0.0000 </r>
       <r>    9.5811    0.0000 </r>
       <r>    9.5997    0.0000 </r>
       <r>    9.6021    0.0000 </r>
       <r>    9.6056    0.0000 </r>
       <r>    9.6079    0.0000 </r>
       <r>    9.6123    0.0000 </r>
       <r>    9.6350    0.0000 </r>
       <r>    9.6712    0.0000 </r>
       <r>    9.7067    0.0000 </r>
       <r>    9.7104    0.0000 </r>
       <r>    9.7300    0.0000 </r>
       <r>    9.7362    0.0000 </r>
       <r>    9.7724    0.0000 </r>
       <r>    9.8167    0.0000 </r>
       <r>    9.8250    0.0000 </r>
       <r>    9.9217    0.0000 </r>
       <r>    9.9247    0.0000 </r>
       <r>    9.9367    0.0000 </r>
       <r>    9.9647    0.0000 </r>
       <r>    9.9673    0.0000 </r>
       <r>   10.0294    0.0000 </r>
       <r>   10.0644    0.0000 </r>
       <r>   10.1008    0.0000 </r>
       <r>   10.1012    0.0000 </r>
       <r>   10.3010    0.0000 </r>
       <r>   10.3394    0.0000 </r>
       <r>   10.4248    0.0000 </r>
       <r>   10.4250    0.0000 </r>
       <r>   10.5256    0.0000 </r>
       <r>   10.5269    0.0000 </r>
       <r>   10.5482    0.0000 </r>
       <r>   10.5512    0.0000 </r>
       <r>   10.8627    0.0000 </r>
       <r>   10.9848    0.0000 </r>
       <r>   11.2065    0.0000 </r>
       <r>   11.2115    0.0000 </r>
       <r>   11.2834    0.0000 </r>
       <r>   11.4049    0.0000 </r>
       <r>   11.4179    0.0000 </r>
       <r>   11.4323    0.0000 </r>
       <r>   11.4427    0.0000 </r>
       <r>   11.4854    0.0000 </r>
       <r>   11.5111    0.0000 </r>
       <r>   11.5365    0.0000 </r>
       <r>   11.5758    0.0000 </r>
       <r>   11.5832    0.0000 </r>
       <r>   11.5931    0.0000 </r>
       <r>   11.6121    0.0000 </r>
       <r>   11.6360    0.0000 </r>
       <r>   11.6683    0.0000 </r>
       <r>   11.7029    0.0000 </r>
       <r>   11.7706    0.0000 </r>
       <r>   11.8247    0.0000 </r>
       <r>   11.8705    0.0000 </r>
       <r>   11.9099    0.0000 </r>
       <r>   11.9604    0.0000 </r>
       <r>   12.0535    0.0000 </r>
      </set>
     </set>
     <set comment="spin 2">
      <set comment="kpoint 1">
       <r>  -17.1661    1.0000 </r>
       <r>  -15.6762    1.0000 </r>
       <r>  -15.6762    1.0000 </r>
       <r>  -15.5709    1.0000 </r>
       <r>  -15.3631    1.0000 </r>
       <r>  -15.3441    1.0000 </r>
       <r>  -15.1574    1.0000 </r>
       <r>  -15.1573    1.0000 </r>
       <r>  -15.1527    1.0000 </r>
       <r>  -15.0720    1.0000 </r>
       <r>  -14.8857    1.0000 </r>
       <r>  -14.8710    1.0000 </r>
       <r>  -14.8706    1.0000 </r>
       <r>  -14.8453    1.0000 </r>
       <r>  -14.8189    1.0000 </r>
       <r>  -14.8187    1.0000 </r>
       <r>  -14.8183    1.0000 </r>
       <r>  -14.8168    1.0000 </r>
       <r>  -14.8012    1.0000 </r>
       <r>  -14.7877    1.0000 </r>
       <r>  -14.7874    1.0000 </r>
       <r>  -14.7748    1.0000 </r>
       <r>  -14.7206    1.0000 </r>
       <r>  -14.7204    1.0000 </r>
       <r>  -14.6476    1.0000 </r>
       <r>  -14.6257    1.0000 </r>
       <r>  -14.6235    1.0000 </r>
       <r>  -14.6153    1.0000 </r>
       <r>  -14.6133    1.0000 </r>
       <r>  -14.6071    1.0000 </r>
       <r>  -14.5443    1.0000 </r>
       <r>  -14.2499    1.0000 </r>
       <r>  -14.2499    1.0000 </r>
       <r>  -14.2411    1.0000 </r>
       <r>  -13.9168    1.0000 </r>
       <r>  -13.9166    1.0000 </r>
       <r>  -13.8639    1.0000 </r>
       <r>  -13.8305    1.0000 </r>
       <r>  -13.8292    1.0000 </r>
       <r>  -13.8258    1.0000 </r>
       <r>  -13.8235    1.0000 </r>
       <r>  -13.8125    1.0000 </r>
       <r>  -13.8118    1.0000 </r>
       <r>  -13.8111    1.0000 </r>
       <r>  -13.8065    1.0000 </r>
       <r>  -13.8063    1.0000 </r>
       <r>  -13.8013    1.0000 </r>
       <r>  -13.8011    1.0000 </r>
       <r>  -13.7994    1.0000 </r>
       <r>  -13.7606    1.0000 </r>
       <r>  -13.7550    1.0000 </r>
       <r>  -13.7549    1.0000 </r>
       <r>  -13.6388    1.0000 </r>
       <r>  -13.6370    1.0000 </r>
       <r>  -13.6347    1.0000 </r>
       <r>  -13.6342    1.0000 </r>
       <r>  -13.6326    1.0000 </r>
       <r>  -13.6295    1.0000 </r>
       <r>  -13.3980    1.0000 </r>
       <r>  -13.3972    1.0000 </r>
       <r>  -13.3881    1.0000 </r>
       <r>  -13.3822    1.0000 </r>
       <r>  -13.3820    1.0000 </r>
       <r>  -13.3814    1.0000 </r>
       <r>  -13.3675    1.0000 </r>
       <r>  -13.3634    1.0000 </r>
       <r>  -13.3633    1.0000 </r>
       <r>  -13.3629    1.0000 </r>
       <r>  -13.3628    1.0000 </r>
       <r>  -13.3604    1.0000 </r>
       <r>  -13.2694    1.0000 </r>
       <r>  -13.2689    1.0000 </r>
       <r>  -13.2061    1.0000 </r>
       <r>  -13.2024    1.0000 </r>
       <r>  -13.2017    1.0000 </r>
       <r>  -13.2011    1.0000 </r>
       <r>  -13.1999    1.0000 </r>
       <r>  -13.1966    1.0000 </r>
       <r>  -12.8860    1.0000 </r>
       <r>  -12.8555    1.0000 </r>
       <r>  -12.8554    1.0000 </r>
       <r>  -12.7715    1.0000 </r>
       <r>  -12.6721    1.0000 </r>
       <r>  -12.5885    1.0000 </r>
       <r>  -12.5884    1.0000 </r>
       <r>  -12.5882    1.0000 </r>
       <r>  -12.5328    1.0000 </r>
       <r>  -12.5327    1.0000 </r>
       <r>  -12.4967    1.0000 </r>
       <r>  -12.4967    1.0000 </r>
       <r>  -12.4676    1.0000 </r>
       <r>  -12.3438    1.0000 </r>
       <r>  -12.3390    1.0000 </r>
       <r>  -12.3266    1.0000 </r>
       <r>  -12.3201    1.0000 </r>
       <r>  -12.3159    1.0000 </r>
       <r>  -12.3156    1.0000 </r>
       <r>  -12.3088    1.0000 </r>
       <r>  -12.3086    1.0000 </r>
       <r>  -12.3076    1.0000 </r>
       <r>  -12.3072    1.0000 </r>
       <r>  -12.2994    1.0000 </r>
       <r>  -12.2992    1.0000 </r>
       <r>  -12.2849    1.0000 </r>
       <r>  -12.2845    1.0000 </r>
       <r>  -12.2823    1.0000 </r>
       <r>  -12.2819    1.0000 </r>
       <r>  -12.2751    1.0000 </r>
       <r>  -12.2749    1.0000 </r>
       <r>  -12.2730    1.0000 </r>
       <r>  -12.2729    1.0000 </r>
       <r>  -12.2728    1.0000 </r>
       <r>  -12.2712    1.0000 </r>
       <r>  -12.2623    1.0000 </r>
       <r>  -12.2611    1.0000 </r>
       <r>  -12.1914    1.0000 </r>
       <r>  -12.1906    1.0000 </r>
       <r>  -12.1903    1.0000 </r>
       <r>  -12.1861    1.0000 </r>
       <r>  -12.1852    1.0000 </r>
       <r>  -12.1851    1.0000 </r>
       <r>  -12.1604    1.0000 </r>
       <r>  -12.1576    1.0000 </r>
       <r>  -12.1541    1.0000 </r>
       <r>  -12.1529    1.0000 </r>
       <r>  -12.1509    1.0000 </r>
       <r>  -12.1504    1.0000 </r>
       <r>  -12.1486    1.0000 </r>
       <r>  -12.1434    1.0000 </r>
       <r>  -12.1426    1.0000 </r>
       <r>  -12.1407    1.0000 </r>
       <r>  -12.1396    1.0000 </r>
       <r>  -12.1335    1.0000 </r>
       <r>  -12.0646    1.0000 </r>
       <r>  -12.0617    1.0000 </r>
       <r>  -12.0582    1.0000 </r>
       <r>  -11.9603    1.0000 </r>
       <r>  -11.9603    1.0000 </r>
       <r>  -11.5946    1.0000 </r>
       <r>  -11.5943    1.0000 </r>
       <r>  -11.5936    1.0000 </r>
       <r>  -11.5933    1.0000 </r>
       <r>  -11.4706    1.0000 </r>
       <r>  -11.4668    1.0000 </r>
       <r>   -8.1765    1.0000 </r>
       <r>   -7.2988    1.0000 </r>
       <r>   -7.2988    1.0000 </r>
       <r>   -6.5940    1.0000 </r>
       <r>   -6.5939    1.0000 </r>
       <r>   -6.5330    1.0000 </r>
       <r>   -6.5252    1.0000 </r>
       <r>   -6.5252    1.0000 </r>
       <r>   -6.5234    1.0000 </r>
       <r>   -6.5212    1.0000 </r>
       <r>   -6.5211    1.0000 </r>
       <r>   -6.5029    1.0000 </r>
       <r>   -6.4691    1.0000 </r>
       <r>   -6.3917    1.0000 </r>
       <r>   -6.3898    1.0000 </r>
       <r>   -6.3878    1.0000 </r>
       <r>   -6.3091    1.0000 </r>
       <r>   -6.3091    1.0000 </r>
       <r>   -6.0934    1.0000 </r>
       <r>   -6.0934    1.0000 </r>
       <r>   -6.0273    1.0000 </r>
       <r>   -6.0272    1.0000 </r>
       <r>   -6.0046    1.0000 </r>
       <r>   -5.9866    1.0000 </r>
       <r>   -5.9065    1.0000 </r>
       <r>   -5.9065    1.0000 </r>
       <r>   -5.7144    1.0000 </r>
       <r>   -5.7143    1.0000 </r>
       <r>   -5.7127    1.0000 </r>
       <r>   -5.7125    1.0000 </r>
       <r>   -5.7054    1.0000 </r>
       <r>   -5.7054    1.0000 </r>
       <r>   -5.7036    1.0000 </r>
       <r>   -5.7035    1.0000 </r>
       <r>   -5.6907    1.0000 </r>
       <r>   -5.6898    1.0000 </r>
       <r>   -5.6864    1.0000 </r>
       <r>   -5.6855    1.0000 </r>
       <r>   -5.6822    1.0000 </r>
       <r>   -5.6808    1.0000 </r>
       <r>   -5.6806    1.0000 </r>
       <r>   -5.6793    1.0000 </r>
       <r>   -5.6692    1.0000 </r>
       <r>   -5.6692    1.0000 </r>
       <r>   -5.6681    1.0000 </r>
       <r>   -5.6680    1.0000 </r>
       <r>   -5.6673    1.0000 </r>
       <r>   -5.6671    1.0000 </r>
       <r>   -5.6662    1.0000 </r>
       <r>   -5.6661    1.0000 </r>
       <r>   -5.5755    1.0000 </r>
       <r>   -5.5748    1.0000 </r>
       <r>   -5.5618    1.0000 </r>
       <r>   -5.5617    1.0000 </r>
       <r>   -5.5612    1.0000 </r>
       <r>   -5.5588    1.0000 </r>
       <r>   -5.5576    1.0000 </r>
       <r>   -5.5572    1.0000 </r>
       <r>   -5.5548    1.0000 </r>
       <r>   -5.5525    1.0000 </r>
       <r>   -5.5508    1.0000 </r>
       <r>   -5.5502    1.0000 </r>
       <r>   -5.5488    1.0000 </r>
       <r>   -5.5477    1.0000 </r>
       <r>   -5.5460    1.0000 </r>
       <r>   -5.5421    1.0000 </r>
       <r>   -5.4183    1.0000 </r>
       <r>   -5.4171    1.0000 </r>
       <r>   -5.3587    1.0000 </r>
       <r>   -5.2307    1.0000 </r>
       <r>   -5.1381    1.0000 </r>
       <r>   -5.1380    1.0000 </r>
       <r>   -4.9856    1.0000 </r>
       <r>   -4.9186    1.0000 </r>
       <r>   -4.9186    1.0000 </r>
       <r>   -4.8706    1.0000 </r>
       <r>   -4.7489    1.0000 </r>
       <r>   -4.7489    1.0000 </r>
       <r>   -4.7424    1.0000 </r>
       <r>   -4.7423    1.0000 </r>
       <r>   -4.6191    1.0000 </r>
       <r>   -4.6191    1.0000 </r>
       <r>   -4.4766    1.0000 </r>
       <r>   -4.4766    1.0000 </r>
       <r>   -4.4755    1.0000 </r>
       <r>   -4.4743    1.0000 </r>
       <r>   -4.4742    1.0000 </r>
       <r>   -4.4735    1.0000 </r>
       <r>   -4.4733    1.0000 </r>
       <r>   -4.4733    1.0000 </r>
       <r>   -4.4729    1.0000 </r>
       <r>   -4.4714    1.0000 </r>
       <r>   -4.4713    1.0000 </r>
       <r>   -4.4710    1.0000 </r>
       <r>   -4.3423    1.0000 </r>
       <r>   -4.3410    1.0000 </r>
       <r>   -4.3388    1.0000 </r>
       <r>   -4.3388    1.0000 </r>
       <r>   -4.3363    1.0000 </r>
       <r>   -4.3352    1.0000 </r>
       <r>   -4.1435    1.0000 </r>
       <r>   -4.0359    1.0000 </r>
       <r>   -3.9234    1.0000 </r>
       <r>   -3.9234    1.0000 </r>
       <r>   -3.6229    1.0000 </r>
       <r>   -3.6229    1.0000 </r>
       <r>   -3.5973    1.0000 </r>
       <r>   -3.5851    1.0000 </r>
       <r>   -3.5821    1.0000 </r>
       <r>   -3.5152    1.0000 </r>
       <r>   -3.5151    1.0000 </r>
       <r>   -3.3535    1.0000 </r>
       <r>   -3.3180    1.0000 </r>
       <r>   -3.3179    1.0000 </r>
       <r>   -3.3141    1.0000 </r>
       <r>   -3.3139    1.0000 </r>
       <r>   -3.3029    1.0000 </r>
       <r>   -3.3028    1.0000 </r>
       <r>   -3.2200    1.0000 </r>
       <r>   -3.1819    1.0000 </r>
       <r>   -3.1727    1.0000 </r>
       <r>   -3.1727    1.0000 </r>
       <r>   -3.1698    1.0000 </r>
       <r>   -3.1691    1.0000 </r>
       <r>   -3.1327    1.0000 </r>
       <r>   -3.1020    1.0000 </r>
       <r>   -3.1020    1.0000 </r>
       <r>   -3.1012    1.0000 </r>
       <r>   -3.1010    1.0000 </r>
       <r>   -3.1009    1.0000 </r>
       <r>   -3.1008    1.0000 </r>
       <r>   -3.0921    1.0000 </r>
       <r>   -3.0921    1.0000 </r>
       <r>   -3.0913    1.0000 </r>
       <r>   -3.0910    1.0000 </r>
       <r>   -3.0910    1.0000 </r>
       <r>   -3.0909    1.0000 </r>
       <r>   -3.0485    1.0000 </r>
       <r>   -2.9732    1.0000 </r>
       <r>   -2.9706    1.0000 </r>
       <r>   -2.9688    1.0000 </r>
       <r>   -2.9682    1.0000 </r>
       <r>   -2.9666    1.0000 </r>
       <r>   -2.9644    1.0000 </r>
       <r>   -2.9617    1.0000 </r>
       <r>   -2.9239    1.0000 </r>
       <r>   -2.9237    1.0000 </r>
       <r>   -2.9231    1.0000 </r>
       <r>   -2.9230    1.0000 </r>
       <r>   -2.9165    1.0000 </r>
       <r>   -2.9164    1.0000 </r>
       <r>   -2.9155    1.0000 </r>
       <r>   -2.9154    1.0000 </r>
       <r>   -2.9067    1.0000 </r>
       <r>   -2.9055    1.0000 </r>
       <r>   -2.8998    1.0000 </r>
       <r>   -2.8990    1.0000 </r>
       <r>   -2.8912    1.0000 </r>
       <r>   -2.8904    1.0000 </r>
       <r>   -2.8897    1.0000 </r>
       <r>   -2.8889    1.0000 </r>
       <r>   -2.8799    1.0000 </r>
       <r>   -2.8797    1.0000 </r>
       <r>   -2.8785    1.0000 </r>
       <r>   -2.8783    1.0000 </r>
       <r>   -2.8774    1.0000 </r>
       <r>   -2.8772    1.0000 </r>
       <r>   -2.8763    1.0000 </r>
       <r>   -2.8763    1.0000 </r>
       <r>   -2.7742    1.0000 </r>
       <r>   -2.7716    1.0000 </r>
       <r>   -2.7709    1.0000 </r>
       <r>   -2.7700    1.0000 </r>
       <r>   -2.7676    1.0000 </r>
       <r>   -2.7665    1.0000 </r>
       <r>   -2.7645    1.0000 </r>
       <r>   -2.7617    1.0000 </r>
       <r>   -2.7603    1.0000 </r>
       <r>   -2.7596    1.0000 </r>
       <r>   -2.7590    1.0000 </r>
       <r>   -2.7556    1.0000 </r>
       <r>   -2.5624    1.0000 </r>
       <r>   -2.4523    1.0000 </r>
       <r>   -2.4512    1.0000 </r>
       <r>   -2.3097    1.0000 </r>
       <r>   -2.3082    1.0000 </r>
       <r>   -2.3063    1.0000 </r>
       <r>   -2.2791    1.0000 </r>
       <r>   -2.2788    1.0000 </r>
       <r>   -2.2676    1.0000 </r>
       <r>   -2.2297    1.0000 </r>
       <r>   -2.2294    1.0000 </r>
       <r>   -2.2179    1.0000 </r>
       <r>   -2.2176    1.0000 </r>
       <r>   -2.2122    1.0000 </r>
       <r>   -2.2108    1.0000 </r>
       <r>   -2.0969    1.0000 </r>
       <r>   -2.0881    1.0000 </r>
       <r>   -2.0881    1.0000 </r>
       <r>   -1.9432    1.0000 </r>
       <r>   -1.9432    1.0000 </r>
       <r>   -1.9020    1.0000 </r>
       <r>   -1.9020    1.0000 </r>
       <r>   -1.8939    1.0000 </r>
       <r>   -1.8914    1.0000 </r>
       <r>   -1.8438    1.0000 </r>
       <r>   -1.7796    1.0000 </r>
       <r>   -1.7793    1.0000 </r>
       <r>   -1.7789    1.0000 </r>
       <r>   -1.7134    1.0000 </r>
       <r>   -1.7133    1.0000 </r>
       <r>   -1.7133    1.0000 </r>
       <r>   -1.7110    1.0000 </r>
       <r>   -1.7109    1.0000 </r>
       <r>   -1.7109    1.0000 </r>
       <r>   -1.5825    1.0000 </r>
       <r>   -1.5807    1.0000 </r>
       <r>   -1.5789    1.0000 </r>
       <r>   -1.5475    1.0000 </r>
       <r>   -1.5426    1.0000 </r>
       <r>   -1.5426    1.0000 </r>
       <r>   -1.5214    1.0000 </r>
       <r>   -1.5214    1.0000 </r>
       <r>   -1.5013    1.0000 </r>
       <r>   -1.5012    1.0000 </r>
       <r>   -1.5005    1.0000 </r>
       <r>   -1.4996    1.0000 </r>
       <r>   -1.4996    1.0000 </r>
       <r>   -1.4982    1.0000 </r>
       <r>   -1.4965    1.0000 </r>
       <r>   -1.4961    1.0000 </r>
       <r>   -1.4960    1.0000 </r>
       <r>   -1.4921    1.0000 </r>
       <r>   -1.4920    1.0000 </r>
       <r>   -1.4915    1.0000 </r>
       <r>   -1.4856    1.0000 </r>
       <r>   -1.4855    1.0000 </r>
       <r>   -1.4773    1.0000 </r>
       <r>   -1.3717    1.0000 </r>
       <r>   -1.3690    1.0000 </r>
       <r>   -1.3679    1.0000 </r>
       <r>   -1.3666    1.0000 </r>
       <r>   -1.3656    1.0000 </r>
       <r>   -1.3628    1.0000 </r>
       <r>   -1.3190    1.0000 </r>
       <r>   -1.3177    1.0000 </r>
       <r>   -1.3118    1.0000 </r>
       <r>   -1.2476    1.0000 </r>
       <r>   -1.2392    1.0000 </r>
       <r>   -1.2391    1.0000 </r>
       <r>   -1.1783    1.0000 </r>
       <r>   -1.1770    1.0000 </r>
       <r>   -1.1758    1.0000 </r>
       <r>   -1.1518    1.0000 </r>
       <r>   -1.1514    1.0000 </r>
       <r>   -1.1507    1.0000 </r>
       <r>   -1.1505    1.0000 </r>
       <r>   -1.1502    1.0000 </r>
       <r>   -1.1494    1.0000 </r>
       <r>   -1.1494    1.0000 </r>
       <r>   -1.1492    1.0000 </r>
       <r>   -1.1485    1.0000 </r>
       <r>   -1.1482    1.0000 </r>
       <r>   -1.1480    1.0000 </r>
       <r>   -1.1470    1.0000 </r>
       <r>   -1.1469    1.0000 </r>
       <r>   -1.1463    1.0000 </r>
       <r>   -1.1340    1.0000 </r>
       <r>   -1.1268    1.0000 </r>
       <r>   -1.1157    1.0000 </r>
       <r>   -1.1148    1.0000 </r>
       <r>   -1.1033    1.0000 </r>
       <r>   -1.0246    1.0000 </r>
       <r>   -1.0211    1.0000 </r>
       <r>   -1.0193    1.0000 </r>
       <r>   -1.0191    1.0000 </r>
       <r>   -1.0175    1.0000 </r>
       <r>   -1.0139    1.0000 </r>
       <r>   -0.9607    1.0000 </r>
       <r>   -0.9601    1.0000 </r>
       <r>   -0.9539    1.0000 </r>
       <r>   -0.9461    1.0000 </r>
       <r>   -0.9337    1.0000 </r>
       <r>   -0.9317    1.0000 </r>
       <r>   -0.8700    1.0000 </r>
       <r>   -0.8687    1.0000 </r>
       <r>   -0.8685    1.0000 </r>
       <r>   -0.8623    1.0000 </r>
       <r>   -0.8518    1.0000 </r>
       <r>   -0.8517    1.0000 </r>
       <r>   -0.8501    1.0000 </r>
       <r>   -0.8500    1.0000 </r>
       <r>   -0.8496    1.0000 </r>
       <r>   -0.8493    1.0000 </r>
       <r>   -0.8479    1.0000 </r>
       <r>   -0.8435    1.0000 </r>
       <r>   -0.8433    1.0000 </r>
       <r>   -0.8422    1.0000 </r>
       <r>   -0.8418    1.0000 </r>
       <r>   -0.8334    1.0000 </r>
       <r>   -0.8331    1.0000 </r>
       <r>   -0.8252    1.0000 </r>
       <r>   -0.7268    1.0000 </r>
       <r>   -0.7248    1.0000 </r>
       <r>   -0.7229    1.0000 </r>
       <r>   -0.7209    1.0000 </r>
       <r>   -0.7184    1.0000 </r>
       <r>   -0.7129    1.0000 </r>
       <r>   -0.4521    1.0000 </r>
       <r>   -0.4499    1.0000 </r>
       <r>   -0.3895    1.0000 </r>
       <r>   -0.3434    1.0000 </r>
       <r>   -0.3420    1.0000 </r>
       <r>   -0.3344    1.0000 </r>
       <r>   -0.3335    1.0000 </r>
       <r>   -0.2576    1.0000 </r>
       <r>   -0.2564    1.0000 </r>
       <r>   -0.2564    1.0000 </r>
       <r>   -0.2471    1.0000 </r>
       <r>   -0.2469    1.0000 </r>
       <r>   -0.2436    1.0000 </r>
       <r>   -0.2434    1.0000 </r>
       <r>   -0.2410    1.0000 </r>
       <r>   -0.0875    1.0000 </r>
       <r>   -0.0875    1.0000 </r>
       <r>   -0.0390    1.0000 </r>
       <r>    0.0320    1.0000 </r>
       <r>    0.0328    1.0000 </r>
       <r>    0.0631    1.0000 </r>
       <r>    0.0855    1.0000 </r>
       <r>    0.0873    1.0000 </r>
       <r>    0.0893    1.0000 </r>
       <r>    0.2141    1.0000 </r>
       <r>    0.2155    1.0000 </r>
       <r>    0.2177    1.0000 </r>
       <r>    0.2179    1.0000 </r>
       <r>    0.2190    1.0000 </r>
       <r>    0.2192    1.0000 </r>
       <r>    0.2258    1.0000 </r>
       <r>    0.2262    1.0000 </r>
       <r>    0.2370    1.0000 </r>
       <r>    0.2370    1.0000 </r>
       <r>    0.2386    1.0000 </r>
       <r>    0.2386    1.0000 </r>
       <r>    0.2453    1.0000 </r>
       <r>    0.2469    1.0000 </r>
       <r>    0.3498    1.0000 </r>
       <r>    0.3535    1.0000 </r>
       <r>    0.3554    1.0000 </r>
       <r>    0.3603    1.0000 </r>
       <r>    0.3620    1.0000 </r>
       <r>    0.3670    1.0000 </r>
       <r>    0.4291    1.0000 </r>
       <r>    0.5259    1.0000 </r>
       <r>    0.5667    1.0000 </r>
       <r>    0.5671    1.0000 </r>
       <r>    0.6142    1.0000 </r>
       <r>    0.6147    1.0000 </r>
       <r>    0.6200    1.0000 </r>
       <r>    0.6227    1.0000 </r>
       <r>    0.6341    1.0000 </r>
       <r>    0.6356    1.0000 </r>
       <r>    0.6425    1.0000 </r>
       <r>    0.6431    1.0000 </r>
       <r>    0.6702    1.0000 </r>
       <r>    0.6803    1.0000 </r>
       <r>    0.6833    1.0000 </r>
       <r>    0.6837    1.0000 </r>
       <r>    0.7448    1.0000 </r>
       <r>    0.7448    1.0000 </r>
       <r>    0.8653    1.0000 </r>
       <r>    0.8655    1.0000 </r>
       <r>    0.8740    1.0000 </r>
       <r>    1.0644    1.0000 </r>
       <r>    1.0647    1.0000 </r>
       <r>    1.1337    1.0000 </r>
       <r>    1.1337    1.0000 </r>
       <r>    1.1346    1.0000 </r>
       <r>    1.1346    1.0000 </r>
       <r>    1.1504    1.0000 </r>
       <r>    1.1700    1.0000 </r>
       <r>    1.1970    1.0000 </r>
       <r>    1.1973    1.0000 </r>
       <r>    1.2400    1.0000 </r>
       <r>    1.2454    1.0000 </r>
       <r>    1.2470    1.0000 </r>
       <r>    1.2589    1.0000 </r>
       <r>    1.2620    1.0000 </r>
       <r>    1.2640    1.0000 </r>
       <r>    1.2760    1.0000 </r>
       <r>    1.2772    1.0000 </r>
       <r>    1.2838    1.0000 </r>
       <r>    1.2840    1.0000 </r>
       <r>    1.2841    1.0000 </r>
       <r>    1.2845    1.0000 </r>
       <r>    1.3024    1.0000 </r>
       <r>    1.3026    1.0000 </r>
       <r>    1.3232    1.0000 </r>
       <r>    1.3236    1.0000 </r>
       <r>    1.3339    1.0000 </r>
       <r>    1.3340    1.0000 </r>
       <r>    1.3406    1.0000 </r>
       <r>    1.3432    1.0000 </r>
       <r>    1.4073    1.0000 </r>
       <r>    1.4080    1.0000 </r>
       <r>    1.4097    1.0000 </r>
       <r>    1.4849    1.0000 </r>
       <r>    1.4864    1.0000 </r>
       <r>    1.4865    1.0000 </r>
       <r>    1.8178    1.0000 </r>
       <r>    1.8183    1.0000 </r>
       <r>    1.8475    1.0000 </r>
       <r>    1.8731    1.0000 </r>
       <r>    1.8987    1.0000 </r>
       <r>    1.8995    1.0000 </r>
       <r>    1.9056    1.0000 </r>
       <r>    1.9065    1.0000 </r>
       <r>    1.9284    1.0000 </r>
       <r>    1.9326    1.0000 </r>
       <r>    1.9333    1.0000 </r>
       <r>    1.9379    1.0000 </r>
       <r>    1.9622    1.0000 </r>
       <r>    1.9637    1.0000 </r>
       <r>    1.9654    1.0000 </r>
       <r>    2.0595    1.0000 </r>
       <r>    2.0597    1.0000 </r>
       <r>    2.3348    1.0000 </r>
       <r>    2.3386    1.0000 </r>
       <r>    2.4123    1.0000 </r>
       <r>    2.4143    1.0000 </r>
       <r>    2.5028    1.0000 </r>
       <r>    2.5048    1.0000 </r>
       <r>    5.5526    0.0000 </r>
       <r>    6.5236    0.0000 </r>
       <r>    6.5236    0.0000 </r>
       <r>    6.7101    0.0000 </r>
       <r>    6.7275    0.0000 </r>
       <r>    6.7319    0.0000 </r>
       <r>    7.0228    0.0000 </r>
       <r>    7.0544    0.0000 </r>
       <r>    7.0555    0.0000 </r>
       <r>    7.0871    0.0000 </r>
       <r>    7.0871    0.0000 </r>
       <r>    7.1695    0.0000 </r>
       <r>    7.1695    0.0000 </r>
       <r>    7.1774    0.0000 </r>
       <r>    7.2617    0.0000 </r>
       <r>    7.2863    0.0000 </r>
       <r>    7.2864    0.0000 </r>
       <r>    7.3120    0.0000 </r>
       <r>    7.3557    0.0000 </r>
       <r>    7.3767    0.0000 </r>
       <r>    7.3768    0.0000 </r>
       <r>    7.4035    0.0000 </r>
       <r>    7.4595    0.0000 </r>
       <r>    7.4596    0.0000 </r>
       <r>    7.5455    0.0000 </r>
       <r>    7.5457    0.0000 </r>
       <r>    7.5928    0.0000 </r>
       <r>    7.5965    0.0000 </r>
       <r>    7.5966    0.0000 </r>
       <r>    7.6078    0.0000 </r>
       <r>    7.7345    0.0000 </r>
       <r>    7.7832    0.0000 </r>
       <r>    7.8163    0.0000 </r>
       <r>    7.8168    0.0000 </r>
       <r>    7.8318    0.0000 </r>
       <r>    7.8500    0.0000 </r>
       <r>    7.8500    0.0000 </r>
       <r>    7.8597    0.0000 </r>
       <r>    7.8608    0.0000 </r>
       <r>    7.8752    0.0000 </r>
       <r>    7.8835    0.0000 </r>
       <r>    7.8846    0.0000 </r>
       <r>    7.8873    0.0000 </r>
       <r>    7.8902    0.0000 </r>
       <r>    7.8904    0.0000 </r>
       <r>    7.9069    0.0000 </r>
       <r>    7.9080    0.0000 </r>
       <r>    7.9104    0.0000 </r>
       <r>    7.9146    0.0000 </r>
       <r>    7.9149    0.0000 </r>
       <r>    7.9151    0.0000 </r>
       <r>    7.9231    0.0000 </r>
       <r>    7.9273    0.0000 </r>
       <r>    7.9331    0.0000 </r>
       <r>    7.9332    0.0000 </r>
       <r>    8.0413    0.0000 </r>
       <r>    8.0435    0.0000 </r>
       <r>    8.0439    0.0000 </r>
       <r>    8.3913    0.0000 </r>
       <r>    8.4313    0.0000 </r>
       <r>    8.4317    0.0000 </r>
       <r>    8.4362    0.0000 </r>
       <r>    8.4425    0.0000 </r>
       <r>    8.4429    0.0000 </r>
       <r>    8.4659    0.0000 </r>
       <r>    8.4669    0.0000 </r>
       <r>    8.4804    0.0000 </r>
       <r>    8.4817    0.0000 </r>
       <r>    8.4994    0.0000 </r>
       <r>    8.5021    0.0000 </r>
       <r>    8.5039    0.0000 </r>
       <r>    8.5050    0.0000 </r>
       <r>    8.5383    0.0000 </r>
       <r>    8.5389    0.0000 </r>
       <r>    8.5670    0.0000 </r>
       <r>    8.7658    0.0000 </r>
       <r>    8.9280    0.0000 </r>
       <r>    9.1723    0.0000 </r>
       <r>    9.1723    0.0000 </r>
       <r>    9.2064    0.0000 </r>
       <r>    9.2064    0.0000 </r>
       <r>    9.2296    0.0000 </r>
       <r>    9.3539    0.0000 </r>
       <r>    9.3552    0.0000 </r>
       <r>    9.5120    0.0000 </r>
       <r>    9.5267    0.0000 </r>
       <r>    9.5268    0.0000 </r>
       <r>    9.5291    0.0000 </r>
       <r>    9.5331    0.0000 </r>
       <r>    9.5339    0.0000 </r>
       <r>    9.5364    0.0000 </r>
       <r>    9.5380    0.0000 </r>
       <r>    9.5396    0.0000 </r>
       <r>    9.5416    0.0000 </r>
       <r>    9.6389    0.0000 </r>
       <r>    9.6416    0.0000 </r>
       <r>    9.8935    0.0000 </r>
       <r>    9.9690    0.0000 </r>
       <r>   10.0481    0.0000 </r>
       <r>   10.1223    0.0000 </r>
       <r>   10.1275    0.0000 </r>
       <r>   10.1392    0.0000 </r>
       <r>   10.1399    0.0000 </r>
       <r>   10.1414    0.0000 </r>
       <r>   10.1494    0.0000 </r>
       <r>   10.1590    0.0000 </r>
       <r>   10.1610    0.0000 </r>
       <r>   10.1699    0.0000 </r>
       <r>   10.1719    0.0000 </r>
       <r>   10.2492    0.0000 </r>
       <r>   10.2594    0.0000 </r>
       <r>   10.2988    0.0000 </r>
       <r>   10.2998    0.0000 </r>
       <r>   10.3290    0.0000 </r>
       <r>   10.3303    0.0000 </r>
       <r>   10.3658    0.0000 </r>
       <r>   10.4438    0.0000 </r>
       <r>   10.4460    0.0000 </r>
       <r>   10.4506    0.0000 </r>
       <r>   10.4633    0.0000 </r>
       <r>   10.4635    0.0000 </r>
       <r>   10.4677    0.0000 </r>
       <r>   10.4939    0.0000 </r>
       <r>   10.5144    0.0000 </r>
       <r>   10.5197    0.0000 </r>
       <r>   10.5203    0.0000 </r>
       <r>   10.5212    0.0000 </r>
       <r>   10.5276    0.0000 </r>
       <r>   10.5729    0.0000 </r>
       <r>   10.5747    0.0000 </r>
       <r>   10.5761    0.0000 </r>
       <r>   10.5772    0.0000 </r>
       <r>   10.5818    0.0000 </r>
       <r>   10.5912    0.0000 </r>
       <r>   10.6026    0.0000 </r>
       <r>   10.6060    0.0000 </r>
       <r>   10.6741    0.0000 </r>
       <r>   10.7155    0.0000 </r>
       <r>   10.8240    0.0000 </r>
       <r>   10.8605    0.0000 </r>
       <r>   10.8771    0.0000 </r>
       <r>   10.8815    0.0000 </r>
       <r>   10.8853    0.0000 </r>
       <r>   10.8898    0.0000 </r>
       <r>   10.9069    0.0000 </r>
       <r>   10.9456    0.0000 </r>
       <r>   10.9497    0.0000 </r>
       <r>   10.9578    0.0000 </r>
       <r>   10.9622    0.0000 </r>
       <r>   10.9716    0.0000 </r>
       <r>   12.0608    0.0000 </r>
       <r>   12.2750    0.0000 </r>
      </set>
      <set comment="kpoint 2">
       <r>  -17.1659    1.0000 </r>
       <r>  -15.7431    1.0000 </r>
       <r>  -15.6886    1.0000 </r>
       <r>  -15.4156    1.0000 </r>
       <r>  -15.2953    1.0000 </r>
       <r>  -15.2485    1.0000 </r>
       <r>  -15.2278    1.0000 </r>
       <r>  -15.1910    1.0000 </r>
       <r>  -15.1884    1.0000 </r>
       <r>  -15.0941    1.0000 </r>
       <r>  -15.0550    1.0000 </r>
       <r>  -15.0248    1.0000 </r>
       <r>  -15.0077    1.0000 </r>
       <r>  -14.9544    1.0000 </r>
       <r>  -14.9446    1.0000 </r>
       <r>  -14.9373    1.0000 </r>
       <r>  -14.9357    1.0000 </r>
       <r>  -14.8534    1.0000 </r>
       <r>  -14.7530    1.0000 </r>
       <r>  -14.7526    1.0000 </r>
       <r>  -14.6164    1.0000 </r>
       <r>  -14.5683    1.0000 </r>
       <r>  -14.5437    1.0000 </r>
       <r>  -14.4567    1.0000 </r>
       <r>  -14.4451    1.0000 </r>
       <r>  -14.4427    1.0000 </r>
       <r>  -14.4284    1.0000 </r>
       <r>  -14.4241    1.0000 </r>
       <r>  -14.4200    1.0000 </r>
       <r>  -14.4161    1.0000 </r>
       <r>  -14.4145    1.0000 </r>
       <r>  -14.3451    1.0000 </r>
       <r>  -14.2474    1.0000 </r>
       <r>  -14.2413    1.0000 </r>
       <r>  -14.2400    1.0000 </r>
       <r>  -14.2383    1.0000 </r>
       <r>  -14.2000    1.0000 </r>
       <r>  -14.1914    1.0000 </r>
       <r>  -14.1674    1.0000 </r>
       <r>  -14.1663    1.0000 </r>
       <r>  -14.1140    1.0000 </r>
       <r>  -14.0345    1.0000 </r>
       <r>  -13.9964    1.0000 </r>
       <r>  -13.9946    1.0000 </r>
       <r>  -13.9380    1.0000 </r>
       <r>  -13.7862    1.0000 </r>
       <r>  -13.7352    1.0000 </r>
       <r>  -13.7103    1.0000 </r>
       <r>  -13.7084    1.0000 </r>
       <r>  -13.7065    1.0000 </r>
       <r>  -13.6966    1.0000 </r>
       <r>  -13.6940    1.0000 </r>
       <r>  -13.6741    1.0000 </r>
       <r>  -13.6737    1.0000 </r>
       <r>  -13.5994    1.0000 </r>
       <r>  -13.5305    1.0000 </r>
       <r>  -13.5303    1.0000 </r>
       <r>  -13.5176    1.0000 </r>
       <r>  -13.5141    1.0000 </r>
       <r>  -13.5018    1.0000 </r>
       <r>  -13.3576    1.0000 </r>
       <r>  -13.3335    1.0000 </r>
       <r>  -13.2540    1.0000 </r>
       <r>  -13.2222    1.0000 </r>
       <r>  -13.1124    1.0000 </r>
       <r>  -13.0590    1.0000 </r>
       <r>  -13.0536    1.0000 </r>
       <r>  -13.0509    1.0000 </r>
       <r>  -13.0422    1.0000 </r>
       <r>  -13.0391    1.0000 </r>
       <r>  -13.0373    1.0000 </r>
       <r>  -13.0347    1.0000 </r>
       <r>  -13.0331    1.0000 </r>
       <r>  -12.9738    1.0000 </r>
       <r>  -12.9257    1.0000 </r>
       <r>  -12.8885    1.0000 </r>
       <r>  -12.8845    1.0000 </r>
       <r>  -12.8819    1.0000 </r>
       <r>  -12.8810    1.0000 </r>
       <r>  -12.8752    1.0000 </r>
       <r>  -12.8735    1.0000 </r>
       <r>  -12.8717    1.0000 </r>
       <r>  -12.8714    1.0000 </r>
       <r>  -12.8688    1.0000 </r>
       <r>  -12.8671    1.0000 </r>
       <r>  -12.8634    1.0000 </r>
       <r>  -12.8628    1.0000 </r>
       <r>  -12.8594    1.0000 </r>
       <r>  -12.7175    1.0000 </r>
       <r>  -12.7154    1.0000 </r>
       <r>  -12.7136    1.0000 </r>
       <r>  -12.7109    1.0000 </r>
       <r>  -12.6804    1.0000 </r>
       <r>  -12.6087    1.0000 </r>
       <r>  -12.5910    1.0000 </r>
       <r>  -12.5837    1.0000 </r>
       <r>  -12.5694    1.0000 </r>
       <r>  -12.5549    1.0000 </r>
       <r>  -12.5328    1.0000 </r>
       <r>  -12.4984    1.0000 </r>
       <r>  -12.4352    1.0000 </r>
       <r>  -12.4305    1.0000 </r>
       <r>  -12.4229    1.0000 </r>
       <r>  -12.4192    1.0000 </r>
       <r>  -12.3355    1.0000 </r>
       <r>  -12.3320    1.0000 </r>
       <r>  -12.3276    1.0000 </r>
       <r>  -12.3233    1.0000 </r>
       <r>  -12.2438    1.0000 </r>
       <r>  -12.2419    1.0000 </r>
       <r>  -12.2391    1.0000 </r>
       <r>  -12.2360    1.0000 </r>
       <r>  -12.2170    1.0000 </r>
       <r>  -12.2150    1.0000 </r>
       <r>  -12.2102    1.0000 </r>
       <r>  -12.2082    1.0000 </r>
       <r>  -12.1777    1.0000 </r>
       <r>  -12.1758    1.0000 </r>
       <r>  -12.1695    1.0000 </r>
       <r>  -12.1690    1.0000 </r>
       <r>  -12.0964    1.0000 </r>
       <r>  -12.0960    1.0000 </r>
       <r>  -12.0913    1.0000 </r>
       <r>  -12.0875    1.0000 </r>
       <r>  -12.0843    1.0000 </r>
       <r>  -12.0826    1.0000 </r>
       <r>  -11.9497    1.0000 </r>
       <r>  -11.9475    1.0000 </r>
       <r>  -11.9468    1.0000 </r>
       <r>  -11.9444    1.0000 </r>
       <r>  -11.8160    1.0000 </r>
       <r>  -11.8147    1.0000 </r>
       <r>  -11.8063    1.0000 </r>
       <r>  -11.8060    1.0000 </r>
       <r>  -11.8055    1.0000 </r>
       <r>  -11.8050    1.0000 </r>
       <r>  -11.7843    1.0000 </r>
       <r>  -11.7840    1.0000 </r>
       <r>  -11.7805    1.0000 </r>
       <r>  -11.7802    1.0000 </r>
       <r>  -11.6686    1.0000 </r>
       <r>  -11.6681    1.0000 </r>
       <r>  -11.6645    1.0000 </r>
       <r>  -11.6580    1.0000 </r>
       <r>   -8.1622    1.0000 </r>
       <r>   -7.2497    1.0000 </r>
       <r>   -7.2351    1.0000 </r>
       <r>   -6.7831    1.0000 </r>
       <r>   -6.6995    1.0000 </r>
       <r>   -6.6786    1.0000 </r>
       <r>   -6.4258    1.0000 </r>
       <r>   -6.4020    1.0000 </r>
       <r>   -6.3173    1.0000 </r>
       <r>   -6.3073    1.0000 </r>
       <r>   -6.3051    1.0000 </r>
       <r>   -6.3041    1.0000 </r>
       <r>   -6.2989    1.0000 </r>
       <r>   -6.2839    1.0000 </r>
       <r>   -6.2733    1.0000 </r>
       <r>   -6.2725    1.0000 </r>
       <r>   -6.2708    1.0000 </r>
       <r>   -6.2707    1.0000 </r>
       <r>   -6.2140    1.0000 </r>
       <r>   -6.2134    1.0000 </r>
       <r>   -6.2125    1.0000 </r>
       <r>   -6.2043    1.0000 </r>
       <r>   -6.1974    1.0000 </r>
       <r>   -6.1926    1.0000 </r>
       <r>   -6.1585    1.0000 </r>
       <r>   -6.1582    1.0000 </r>
       <r>   -6.1522    1.0000 </r>
       <r>   -6.1470    1.0000 </r>
       <r>   -6.0719    1.0000 </r>
       <r>   -6.0707    1.0000 </r>
       <r>   -5.9325    1.0000 </r>
       <r>   -5.9305    1.0000 </r>
       <r>   -5.9077    1.0000 </r>
       <r>   -5.9066    1.0000 </r>
       <r>   -5.8366    1.0000 </r>
       <r>   -5.7892    1.0000 </r>
       <r>   -5.7812    1.0000 </r>
       <r>   -5.7696    1.0000 </r>
       <r>   -5.7674    1.0000 </r>
       <r>   -5.7633    1.0000 </r>
       <r>   -5.7624    1.0000 </r>
       <r>   -5.7616    1.0000 </r>
       <r>   -5.7589    1.0000 </r>
       <r>   -5.7569    1.0000 </r>
       <r>   -5.7523    1.0000 </r>
       <r>   -5.7517    1.0000 </r>
       <r>   -5.7375    1.0000 </r>
       <r>   -5.6804    1.0000 </r>
       <r>   -5.6521    1.0000 </r>
       <r>   -5.6393    1.0000 </r>
       <r>   -5.6235    1.0000 </r>
       <r>   -5.6228    1.0000 </r>
       <r>   -5.6204    1.0000 </r>
       <r>   -5.6184    1.0000 </r>
       <r>   -5.2270    1.0000 </r>
       <r>   -5.2256    1.0000 </r>
       <r>   -5.2239    1.0000 </r>
       <r>   -5.2227    1.0000 </r>
       <r>   -5.2216    1.0000 </r>
       <r>   -5.2211    1.0000 </r>
       <r>   -5.2208    1.0000 </r>
       <r>   -5.2202    1.0000 </r>
       <r>   -5.2191    1.0000 </r>
       <r>   -5.2185    1.0000 </r>
       <r>   -5.2175    1.0000 </r>
       <r>   -5.2173    1.0000 </r>
       <r>   -5.1068    1.0000 </r>
       <r>   -5.0955    1.0000 </r>
       <r>   -5.0946    1.0000 </r>
       <r>   -5.0908    1.0000 </r>
       <r>   -5.0888    1.0000 </r>
       <r>   -5.0874    1.0000 </r>
       <r>   -5.0861    1.0000 </r>
       <r>   -5.0843    1.0000 </r>
       <r>   -5.0084    1.0000 </r>
       <r>   -4.9190    1.0000 </r>
       <r>   -4.8268    1.0000 </r>
       <r>   -4.5973    1.0000 </r>
       <r>   -4.5428    1.0000 </r>
       <r>   -4.5347    1.0000 </r>
       <r>   -4.4753    1.0000 </r>
       <r>   -4.4726    1.0000 </r>
       <r>   -4.4715    1.0000 </r>
       <r>   -4.4711    1.0000 </r>
       <r>   -4.4707    1.0000 </r>
       <r>   -4.4691    1.0000 </r>
       <r>   -4.4678    1.0000 </r>
       <r>   -4.4676    1.0000 </r>
       <r>   -4.3432    1.0000 </r>
       <r>   -4.3413    1.0000 </r>
       <r>   -4.3400    1.0000 </r>
       <r>   -4.3372    1.0000 </r>
       <r>   -4.3118    1.0000 </r>
       <r>   -4.1904    1.0000 </r>
       <r>   -4.0918    1.0000 </r>
       <r>   -4.0891    1.0000 </r>
       <r>   -4.0871    1.0000 </r>
       <r>   -4.0870    1.0000 </r>
       <r>   -4.0845    1.0000 </r>
       <r>   -4.0832    1.0000 </r>
       <r>   -4.0741    1.0000 </r>
       <r>   -4.0738    1.0000 </r>
       <r>   -4.0718    1.0000 </r>
       <r>   -4.0707    1.0000 </r>
       <r>   -4.0246    1.0000 </r>
       <r>   -3.9504    1.0000 </r>
       <r>   -3.9497    1.0000 </r>
       <r>   -3.9468    1.0000 </r>
       <r>   -3.9457    1.0000 </r>
       <r>   -3.9073    1.0000 </r>
       <r>   -3.8631    1.0000 </r>
       <r>   -3.7743    1.0000 </r>
       <r>   -3.7444    1.0000 </r>
       <r>   -3.6225    1.0000 </r>
       <r>   -3.6207    1.0000 </r>
       <r>   -3.6151    1.0000 </r>
       <r>   -3.6137    1.0000 </r>
       <r>   -3.6035    1.0000 </r>
       <r>   -3.6030    1.0000 </r>
       <r>   -3.5984    1.0000 </r>
       <r>   -3.5979    1.0000 </r>
       <r>   -3.4792    1.0000 </r>
       <r>   -3.4782    1.0000 </r>
       <r>   -3.4770    1.0000 </r>
       <r>   -3.4745    1.0000 </r>
       <r>   -3.4729    1.0000 </r>
       <r>   -3.4686    1.0000 </r>
       <r>   -3.4683    1.0000 </r>
       <r>   -3.4680    1.0000 </r>
       <r>   -3.4651    1.0000 </r>
       <r>   -3.4644    1.0000 </r>
       <r>   -3.4338    1.0000 </r>
       <r>   -3.3436    1.0000 </r>
       <r>   -3.3386    1.0000 </r>
       <r>   -3.3365    1.0000 </r>
       <r>   -3.1460    1.0000 </r>
       <r>   -3.0896    1.0000 </r>
       <r>   -3.0755    1.0000 </r>
       <r>   -3.0738    1.0000 </r>
       <r>   -3.0701    1.0000 </r>
       <r>   -3.0693    1.0000 </r>
       <r>   -3.0662    1.0000 </r>
       <r>   -2.9870    1.0000 </r>
       <r>   -2.9392    1.0000 </r>
       <r>   -2.9381    1.0000 </r>
       <r>   -2.9021    1.0000 </r>
       <r>   -2.8452    1.0000 </r>
       <r>   -2.8077    1.0000 </r>
       <r>   -2.7635    1.0000 </r>
       <r>   -2.7544    1.0000 </r>
       <r>   -2.7510    1.0000 </r>
       <r>   -2.7478    1.0000 </r>
       <r>   -2.7444    1.0000 </r>
       <r>   -2.7231    1.0000 </r>
       <r>   -2.7227    1.0000 </r>
       <r>   -2.6821    1.0000 </r>
       <r>   -2.6777    1.0000 </r>
       <r>   -2.6686    1.0000 </r>
       <r>   -2.6672    1.0000 </r>
       <r>   -2.6629    1.0000 </r>
       <r>   -2.5444    1.0000 </r>
       <r>   -2.5415    1.0000 </r>
       <r>   -2.5186    1.0000 </r>
       <r>   -2.5169    1.0000 </r>
       <r>   -2.5090    1.0000 </r>
       <r>   -2.4551    1.0000 </r>
       <r>   -2.4235    1.0000 </r>
       <r>   -2.4154    1.0000 </r>
       <r>   -2.3839    1.0000 </r>
       <r>   -2.3759    1.0000 </r>
       <r>   -2.3739    1.0000 </r>
       <r>   -2.3732    1.0000 </r>
       <r>   -2.3725    1.0000 </r>
       <r>   -2.3717    1.0000 </r>
       <r>   -2.3704    1.0000 </r>
       <r>   -2.3697    1.0000 </r>
       <r>   -2.3687    1.0000 </r>
       <r>   -2.3572    1.0000 </r>
       <r>   -2.3547    1.0000 </r>
       <r>   -2.3423    1.0000 </r>
       <r>   -2.3171    1.0000 </r>
       <r>   -2.2585    1.0000 </r>
       <r>   -2.2453    1.0000 </r>
       <r>   -2.2413    1.0000 </r>
       <r>   -2.2397    1.0000 </r>
       <r>   -2.2384    1.0000 </r>
       <r>   -2.2095    1.0000 </r>
       <r>   -2.1727    1.0000 </r>
       <r>   -2.1438    1.0000 </r>
       <r>   -2.1275    1.0000 </r>
       <r>   -2.0886    1.0000 </r>
       <r>   -2.0884    1.0000 </r>
       <r>   -2.0878    1.0000 </r>
       <r>   -2.0875    1.0000 </r>
       <r>   -2.0551    1.0000 </r>
       <r>   -2.0549    1.0000 </r>
       <r>   -2.0537    1.0000 </r>
       <r>   -2.0533    1.0000 </r>
       <r>   -2.0142    1.0000 </r>
       <r>   -2.0127    1.0000 </r>
       <r>   -2.0081    1.0000 </r>
       <r>   -2.0013    1.0000 </r>
       <r>   -1.9810    1.0000 </r>
       <r>   -1.9430    1.0000 </r>
       <r>   -1.9426    1.0000 </r>
       <r>   -1.9343    1.0000 </r>
       <r>   -1.9300    1.0000 </r>
       <r>   -1.8961    1.0000 </r>
       <r>   -1.8696    1.0000 </r>
       <r>   -1.8675    1.0000 </r>
       <r>   -1.8668    1.0000 </r>
       <r>   -1.8653    1.0000 </r>
       <r>   -1.8232    1.0000 </r>
       <r>   -1.8225    1.0000 </r>
       <r>   -1.8212    1.0000 </r>
       <r>   -1.8167    1.0000 </r>
       <r>   -1.8160    1.0000 </r>
       <r>   -1.8140    1.0000 </r>
       <r>   -1.7772    1.0000 </r>
       <r>   -1.7769    1.0000 </r>
       <r>   -1.7761    1.0000 </r>
       <r>   -1.7759    1.0000 </r>
       <r>   -1.7755    1.0000 </r>
       <r>   -1.7752    1.0000 </r>
       <r>   -1.7750    1.0000 </r>
       <r>   -1.7742    1.0000 </r>
       <r>   -1.7639    1.0000 </r>
       <r>   -1.7127    1.0000 </r>
       <r>   -1.7055    1.0000 </r>
       <r>   -1.6991    1.0000 </r>
       <r>   -1.6925    1.0000 </r>
       <r>   -1.6580    1.0000 </r>
       <r>   -1.6470    1.0000 </r>
       <r>   -1.6465    1.0000 </r>
       <r>   -1.6454    1.0000 </r>
       <r>   -1.6446    1.0000 </r>
       <r>   -1.6418    1.0000 </r>
       <r>   -1.6340    1.0000 </r>
       <r>   -1.6163    1.0000 </r>
       <r>   -1.6113    1.0000 </r>
       <r>   -1.6041    1.0000 </r>
       <r>   -1.6031    1.0000 </r>
       <r>   -1.5828    1.0000 </r>
       <r>   -1.5805    1.0000 </r>
       <r>   -1.5795    1.0000 </r>
       <r>   -1.5646    1.0000 </r>
       <r>   -1.5638    1.0000 </r>
       <r>   -1.5561    1.0000 </r>
       <r>   -1.5538    1.0000 </r>
       <r>   -1.5511    1.0000 </r>
       <r>   -1.4771    1.0000 </r>
       <r>   -1.4500    1.0000 </r>
       <r>   -1.4407    1.0000 </r>
       <r>   -1.4339    1.0000 </r>
       <r>   -1.3498    1.0000 </r>
       <r>   -1.3475    1.0000 </r>
       <r>   -1.3363    1.0000 </r>
       <r>   -1.3358    1.0000 </r>
       <r>   -1.2291    1.0000 </r>
       <r>   -1.2290    1.0000 </r>
       <r>   -1.2257    1.0000 </r>
       <r>   -1.2257    1.0000 </r>
       <r>   -1.2120    1.0000 </r>
       <r>   -1.2117    1.0000 </r>
       <r>   -1.2096    1.0000 </r>
       <r>   -1.2081    1.0000 </r>
       <r>   -1.1853    1.0000 </r>
       <r>   -1.0923    1.0000 </r>
       <r>   -1.0921    1.0000 </r>
       <r>   -1.0864    1.0000 </r>
       <r>   -1.0807    1.0000 </r>
       <r>   -1.0497    1.0000 </r>
       <r>   -1.0075    1.0000 </r>
       <r>   -0.9821    1.0000 </r>
       <r>   -0.9297    1.0000 </r>
       <r>   -0.8725    1.0000 </r>
       <r>   -0.8656    1.0000 </r>
       <r>   -0.8452    1.0000 </r>
       <r>   -0.7779    1.0000 </r>
       <r>   -0.7767    1.0000 </r>
       <r>   -0.7479    1.0000 </r>
       <r>   -0.7218    1.0000 </r>
       <r>   -0.7167    1.0000 </r>
       <r>   -0.7096    1.0000 </r>
       <r>   -0.7063    1.0000 </r>
       <r>   -0.7016    1.0000 </r>
       <r>   -0.6756    1.0000 </r>
       <r>   -0.6748    1.0000 </r>
       <r>   -0.6743    1.0000 </r>
       <r>   -0.6724    1.0000 </r>
       <r>   -0.6539    1.0000 </r>
       <r>   -0.6538    1.0000 </r>
       <r>   -0.6536    1.0000 </r>
       <r>   -0.6223    1.0000 </r>
       <r>   -0.5176    1.0000 </r>
       <r>   -0.5167    1.0000 </r>
       <r>   -0.5157    1.0000 </r>
       <r>   -0.5147    1.0000 </r>
       <r>   -0.4620    1.0000 </r>
       <r>   -0.4584    1.0000 </r>
       <r>   -0.4576    1.0000 </r>
       <r>   -0.4570    1.0000 </r>
       <r>   -0.4542    1.0000 </r>
       <r>   -0.4535    1.0000 </r>
       <r>   -0.4529    1.0000 </r>
       <r>   -0.4497    1.0000 </r>
       <r>   -0.4261    1.0000 </r>
       <r>   -0.3994    1.0000 </r>
       <r>   -0.3878    1.0000 </r>
       <r>   -0.3820    1.0000 </r>
       <r>   -0.3764    1.0000 </r>
       <r>   -0.3690    1.0000 </r>
       <r>   -0.3569    1.0000 </r>
       <r>   -0.3538    1.0000 </r>
       <r>   -0.3492    1.0000 </r>
       <r>   -0.3463    1.0000 </r>
       <r>   -0.3426    1.0000 </r>
       <r>   -0.3398    1.0000 </r>
       <r>   -0.3291    1.0000 </r>
       <r>   -0.3270    1.0000 </r>
       <r>   -0.3258    1.0000 </r>
       <r>   -0.3225    1.0000 </r>
       <r>   -0.2756    1.0000 </r>
       <r>   -0.2283    1.0000 </r>
       <r>   -0.2252    1.0000 </r>
       <r>   -0.0984    1.0000 </r>
       <r>   -0.0449    1.0000 </r>
       <r>    0.0275    1.0000 </r>
       <r>    0.0697    1.0000 </r>
       <r>    0.1215    1.0000 </r>
       <r>    0.1577    1.0000 </r>
       <r>    0.1583    1.0000 </r>
       <r>    0.1757    1.0000 </r>
       <r>    0.1869    1.0000 </r>
       <r>    0.2033    1.0000 </r>
       <r>    0.2129    1.0000 </r>
       <r>    0.2144    1.0000 </r>
       <r>    0.2183    1.0000 </r>
       <r>    0.2207    1.0000 </r>
       <r>    0.2391    1.0000 </r>
       <r>    0.2437    1.0000 </r>
       <r>    0.2935    1.0000 </r>
       <r>    0.3188    1.0000 </r>
       <r>    0.3217    1.0000 </r>
       <r>    0.3438    1.0000 </r>
       <r>    0.3451    1.0000 </r>
       <r>    0.3490    1.0000 </r>
       <r>    0.3504    1.0000 </r>
       <r>    0.3702    1.0000 </r>
       <r>    0.3777    1.0000 </r>
       <r>    0.3965    1.0000 </r>
       <r>    0.4550    1.0000 </r>
       <r>    0.4600    1.0000 </r>
       <r>    0.4646    1.0000 </r>
       <r>    0.4652    1.0000 </r>
       <r>    0.4660    1.0000 </r>
       <r>    0.4765    1.0000 </r>
       <r>    0.4775    1.0000 </r>
       <r>    0.4807    1.0000 </r>
       <r>    0.5556    1.0000 </r>
       <r>    0.5599    1.0000 </r>
       <r>    0.5662    1.0000 </r>
       <r>    0.5853    1.0000 </r>
       <r>    0.5898    1.0000 </r>
       <r>    0.6933    1.0000 </r>
       <r>    0.6955    1.0000 </r>
       <r>    0.7069    1.0000 </r>
       <r>    0.7080    1.0000 </r>
       <r>    0.7349    1.0000 </r>
       <r>    0.8094    1.0000 </r>
       <r>    0.8122    1.0000 </r>
       <r>    0.8412    1.0000 </r>
       <r>    0.8555    1.0000 </r>
       <r>    0.8565    1.0000 </r>
       <r>    0.8817    1.0000 </r>
       <r>    0.8840    1.0000 </r>
       <r>    0.8854    1.0000 </r>
       <r>    0.9159    1.0000 </r>
       <r>    0.9946    1.0000 </r>
       <r>    0.9977    1.0000 </r>
       <r>    0.9978    1.0000 </r>
       <r>    0.9990    1.0000 </r>
       <r>    1.0249    1.0000 </r>
       <r>    1.0338    1.0000 </r>
       <r>    1.0888    1.0000 </r>
       <r>    1.1059    1.0000 </r>
       <r>    1.2083    1.0000 </r>
       <r>    1.2097    1.0000 </r>
       <r>    1.2243    1.0000 </r>
       <r>    1.2332    1.0000 </r>
       <r>    1.2483    1.0000 </r>
       <r>    1.2510    1.0000 </r>
       <r>    1.2545    1.0000 </r>
       <r>    1.2649    1.0000 </r>
       <r>    1.3176    1.0000 </r>
       <r>    1.3193    1.0000 </r>
       <r>    1.3651    1.0000 </r>
       <r>    1.3697    1.0000 </r>
       <r>    1.4030    1.0000 </r>
       <r>    1.4051    1.0000 </r>
       <r>    1.4404    1.0000 </r>
       <r>    1.4408    1.0000 </r>
       <r>    1.5036    1.0000 </r>
       <r>    1.5057    1.0000 </r>
       <r>    1.5405    1.0000 </r>
       <r>    1.5845    1.0000 </r>
       <r>    1.5899    1.0000 </r>
       <r>    1.5919    1.0000 </r>
       <r>    1.7663    1.0000 </r>
       <r>    1.7703    1.0000 </r>
       <r>    1.8478    1.0000 </r>
       <r>    1.8559    1.0000 </r>
       <r>    1.8623    1.0000 </r>
       <r>    1.8633    1.0000 </r>
       <r>    1.9190    1.0000 </r>
       <r>    1.9268    1.0000 </r>
       <r>    1.9520    1.0000 </r>
       <r>    1.9614    1.0000 </r>
       <r>    1.9811    1.0000 </r>
       <r>    1.9819    1.0000 </r>
       <r>    2.0249    1.0000 </r>
       <r>    2.0260    1.0000 </r>
       <r>    2.0649    1.0000 </r>
       <r>    2.0687    1.0000 </r>
       <r>    2.0965    1.0000 </r>
       <r>    2.0970    1.0000 </r>
       <r>    2.2252    1.0000 </r>
       <r>    2.2306    1.0000 </r>
       <r>    2.4003    1.0000 </r>
       <r>    2.4020    1.0000 </r>
       <r>    2.4040    1.0000 </r>
       <r>    2.4050    1.0000 </r>
       <r>    5.5535    0.0000 </r>
       <r>    6.6711    0.0000 </r>
       <r>    6.6902    0.0000 </r>
       <r>    6.6931    0.0000 </r>
       <r>    6.7219    0.0000 </r>
       <r>    6.8892    0.0000 </r>
       <r>    6.9314    0.0000 </r>
       <r>    7.0000    0.0000 </r>
       <r>    7.0114    0.0000 </r>
       <r>    7.0878    0.0000 </r>
       <r>    7.0970    0.0000 </r>
       <r>    7.1641    0.0000 </r>
       <r>    7.2137    0.0000 </r>
       <r>    7.2146    0.0000 </r>
       <r>    7.2298    0.0000 </r>
       <r>    7.2565    0.0000 </r>
       <r>    7.2902    0.0000 </r>
       <r>    7.2981    0.0000 </r>
       <r>    7.3071    0.0000 </r>
       <r>    7.3293    0.0000 </r>
       <r>    7.3337    0.0000 </r>
       <r>    7.3422    0.0000 </r>
       <r>    7.3450    0.0000 </r>
       <r>    7.3525    0.0000 </r>
       <r>    7.3622    0.0000 </r>
       <r>    7.3637    0.0000 </r>
       <r>    7.3853    0.0000 </r>
       <r>    7.3860    0.0000 </r>
       <r>    7.3936    0.0000 </r>
       <r>    7.3964    0.0000 </r>
       <r>    7.4298    0.0000 </r>
       <r>    7.4312    0.0000 </r>
       <r>    7.4682    0.0000 </r>
       <r>    7.7055    0.0000 </r>
       <r>    7.7418    0.0000 </r>
       <r>    7.7445    0.0000 </r>
       <r>    7.7490    0.0000 </r>
       <r>    7.7992    0.0000 </r>
       <r>    7.8370    0.0000 </r>
       <r>    7.8604    0.0000 </r>
       <r>    7.8770    0.0000 </r>
       <r>    7.8906    0.0000 </r>
       <r>    7.9115    0.0000 </r>
       <r>    7.9195    0.0000 </r>
       <r>    7.9223    0.0000 </r>
       <r>    7.9619    0.0000 </r>
       <r>    8.0046    0.0000 </r>
       <r>    8.0808    0.0000 </r>
       <r>    8.1243    0.0000 </r>
       <r>    8.1678    0.0000 </r>
       <r>    8.1720    0.0000 </r>
       <r>    8.1733    0.0000 </r>
       <r>    8.1869    0.0000 </r>
       <r>    8.2183    0.0000 </r>
       <r>    8.2228    0.0000 </r>
       <r>    8.2254    0.0000 </r>
       <r>    8.2438    0.0000 </r>
       <r>    8.2560    0.0000 </r>
       <r>    8.2718    0.0000 </r>
       <r>    8.2889    0.0000 </r>
       <r>    8.4380    0.0000 </r>
       <r>    8.5711    0.0000 </r>
       <r>    8.5812    0.0000 </r>
       <r>    8.5992    0.0000 </r>
       <r>    8.6379    0.0000 </r>
       <r>    8.6405    0.0000 </r>
       <r>    8.6509    0.0000 </r>
       <r>    8.6673    0.0000 </r>
       <r>    8.6750    0.0000 </r>
       <r>    8.6843    0.0000 </r>
       <r>    8.6888    0.0000 </r>
       <r>    8.6894    0.0000 </r>
       <r>    8.7351    0.0000 </r>
       <r>    8.9039    0.0000 </r>
       <r>    8.9776    0.0000 </r>
       <r>    9.0017    0.0000 </r>
       <r>    9.0176    0.0000 </r>
       <r>    9.0409    0.0000 </r>
       <r>    9.0838    0.0000 </r>
       <r>    9.1269    0.0000 </r>
       <r>    9.2288    0.0000 </r>
       <r>    9.2512    0.0000 </r>
       <r>    9.2665    0.0000 </r>
       <r>    9.2683    0.0000 </r>
       <r>    9.2799    0.0000 </r>
       <r>    9.2860    0.0000 </r>
       <r>    9.2983    0.0000 </r>
       <r>    9.3011    0.0000 </r>
       <r>    9.3051    0.0000 </r>
       <r>    9.3211    0.0000 </r>
       <r>    9.3261    0.0000 </r>
       <r>    9.3289    0.0000 </r>
       <r>    9.3311    0.0000 </r>
       <r>    9.3976    0.0000 </r>
       <r>    9.4950    0.0000 </r>
       <r>    9.5286    0.0000 </r>
       <r>    9.6520    0.0000 </r>
       <r>    9.6846    0.0000 </r>
       <r>    9.6872    0.0000 </r>
       <r>    9.6900    0.0000 </r>
       <r>    9.6926    0.0000 </r>
       <r>    9.7479    0.0000 </r>
       <r>    9.9095    0.0000 </r>
       <r>   10.0794    0.0000 </r>
       <r>   10.0957    0.0000 </r>
       <r>   10.0977    0.0000 </r>
       <r>   10.1087    0.0000 </r>
       <r>   10.1504    0.0000 </r>
       <r>   10.1724    0.0000 </r>
       <r>   10.1782    0.0000 </r>
       <r>   10.1982    0.0000 </r>
       <r>   10.2000    0.0000 </r>
       <r>   10.2307    0.0000 </r>
       <r>   10.2414    0.0000 </r>
       <r>   10.2854    0.0000 </r>
       <r>   10.3097    0.0000 </r>
       <r>   10.3186    0.0000 </r>
       <r>   10.3778    0.0000 </r>
       <r>   10.3821    0.0000 </r>
       <r>   10.3903    0.0000 </r>
       <r>   10.3942    0.0000 </r>
       <r>   10.4220    0.0000 </r>
       <r>   10.4384    0.0000 </r>
       <r>   10.4454    0.0000 </r>
       <r>   10.4757    0.0000 </r>
       <r>   10.5179    0.0000 </r>
       <r>   10.5406    0.0000 </r>
       <r>   10.6306    0.0000 </r>
       <r>   10.6765    0.0000 </r>
       <r>   10.7224    0.0000 </r>
       <r>   10.7239    0.0000 </r>
       <r>   10.7266    0.0000 </r>
       <r>   10.7331    0.0000 </r>
       <r>   10.7546    0.0000 </r>
       <r>   10.7606    0.0000 </r>
       <r>   10.7655    0.0000 </r>
       <r>   10.7892    0.0000 </r>
       <r>   10.7914    0.0000 </r>
       <r>   10.7952    0.0000 </r>
       <r>   10.8157    0.0000 </r>
       <r>   10.8167    0.0000 </r>
       <r>   11.2449    0.0000 </r>
       <r>   11.2612    0.0000 </r>
       <r>   11.4744    0.0000 </r>
       <r>   11.5045    0.0000 </r>
       <r>   11.5666    0.0000 </r>
       <r>   11.6464    0.0000 </r>
       <r>   11.6945    0.0000 </r>
       <r>   11.7324    0.0000 </r>
       <r>   11.7567    0.0000 </r>
       <r>   11.7882    0.0000 </r>
       <r>   11.9462    0.0000 </r>
      </set>
      <set comment="kpoint 3">
       <r>  -17.1659    1.0000 </r>
       <r>  -15.7431    1.0000 </r>
       <r>  -15.6886    1.0000 </r>
       <r>  -15.4156    1.0000 </r>
       <r>  -15.2953    1.0000 </r>
       <r>  -15.2484    1.0000 </r>
       <r>  -15.2279    1.0000 </r>
       <r>  -15.1909    1.0000 </r>
       <r>  -15.1883    1.0000 </r>
       <r>  -15.0942    1.0000 </r>
       <r>  -15.0548    1.0000 </r>
       <r>  -15.0251    1.0000 </r>
       <r>  -15.0075    1.0000 </r>
       <r>  -14.9552    1.0000 </r>
       <r>  -14.9439    1.0000 </r>
       <r>  -14.9374    1.0000 </r>
       <r>  -14.9356    1.0000 </r>
       <r>  -14.8533    1.0000 </r>
       <r>  -14.7551    1.0000 </r>
       <r>  -14.7505    1.0000 </r>
       <r>  -14.6164    1.0000 </r>
       <r>  -14.5683    1.0000 </r>
       <r>  -14.5436    1.0000 </r>
       <r>  -14.4575    1.0000 </r>
       <r>  -14.4454    1.0000 </r>
       <r>  -14.4422    1.0000 </r>
       <r>  -14.4275    1.0000 </r>
       <r>  -14.4242    1.0000 </r>
       <r>  -14.4201    1.0000 </r>
       <r>  -14.4159    1.0000 </r>
       <r>  -14.4144    1.0000 </r>
       <r>  -14.3455    1.0000 </r>
       <r>  -14.2469    1.0000 </r>
       <r>  -14.2443    1.0000 </r>
       <r>  -14.2388    1.0000 </r>
       <r>  -14.2368    1.0000 </r>
       <r>  -14.2001    1.0000 </r>
       <r>  -14.1914    1.0000 </r>
       <r>  -14.1674    1.0000 </r>
       <r>  -14.1663    1.0000 </r>
       <r>  -14.1141    1.0000 </r>
       <r>  -14.0344    1.0000 </r>
       <r>  -13.9965    1.0000 </r>
       <r>  -13.9946    1.0000 </r>
       <r>  -13.9380    1.0000 </r>
       <r>  -13.7863    1.0000 </r>
       <r>  -13.7357    1.0000 </r>
       <r>  -13.7096    1.0000 </r>
       <r>  -13.7085    1.0000 </r>
       <r>  -13.7065    1.0000 </r>
       <r>  -13.6966    1.0000 </r>
       <r>  -13.6941    1.0000 </r>
       <r>  -13.6740    1.0000 </r>
       <r>  -13.6736    1.0000 </r>
       <r>  -13.5995    1.0000 </r>
       <r>  -13.5330    1.0000 </r>
       <r>  -13.5283    1.0000 </r>
       <r>  -13.5157    1.0000 </r>
       <r>  -13.5152    1.0000 </r>
       <r>  -13.5017    1.0000 </r>
       <r>  -13.3576    1.0000 </r>
       <r>  -13.3335    1.0000 </r>
       <r>  -13.2540    1.0000 </r>
       <r>  -13.2222    1.0000 </r>
       <r>  -13.1125    1.0000 </r>
       <r>  -13.0593    1.0000 </r>
       <r>  -13.0529    1.0000 </r>
       <r>  -13.0505    1.0000 </r>
       <r>  -13.0423    1.0000 </r>
       <r>  -13.0397    1.0000 </r>
       <r>  -13.0374    1.0000 </r>
       <r>  -13.0346    1.0000 </r>
       <r>  -13.0330    1.0000 </r>
       <r>  -12.9738    1.0000 </r>
       <r>  -12.9260    1.0000 </r>
       <r>  -12.8891    1.0000 </r>
       <r>  -12.8838    1.0000 </r>
       <r>  -12.8825    1.0000 </r>
       <r>  -12.8795    1.0000 </r>
       <r>  -12.8768    1.0000 </r>
       <r>  -12.8733    1.0000 </r>
       <r>  -12.8721    1.0000 </r>
       <r>  -12.8707    1.0000 </r>
       <r>  -12.8689    1.0000 </r>
       <r>  -12.8672    1.0000 </r>
       <r>  -12.8633    1.0000 </r>
       <r>  -12.8627    1.0000 </r>
       <r>  -12.8595    1.0000 </r>
       <r>  -12.7188    1.0000 </r>
       <r>  -12.7142    1.0000 </r>
       <r>  -12.7137    1.0000 </r>
       <r>  -12.7104    1.0000 </r>
       <r>  -12.6805    1.0000 </r>
       <r>  -12.6085    1.0000 </r>
       <r>  -12.5913    1.0000 </r>
       <r>  -12.5838    1.0000 </r>
       <r>  -12.5692    1.0000 </r>
       <r>  -12.5549    1.0000 </r>
       <r>  -12.5329    1.0000 </r>
       <r>  -12.4983    1.0000 </r>
       <r>  -12.4352    1.0000 </r>
       <r>  -12.4310    1.0000 </r>
       <r>  -12.4236    1.0000 </r>
       <r>  -12.4186    1.0000 </r>
       <r>  -12.3355    1.0000 </r>
       <r>  -12.3322    1.0000 </r>
       <r>  -12.3276    1.0000 </r>
       <r>  -12.3233    1.0000 </r>
       <r>  -12.2439    1.0000 </r>
       <r>  -12.2415    1.0000 </r>
       <r>  -12.2392    1.0000 </r>
       <r>  -12.2360    1.0000 </r>
       <r>  -12.2168    1.0000 </r>
       <r>  -12.2154    1.0000 </r>
       <r>  -12.2102    1.0000 </r>
       <r>  -12.2081    1.0000 </r>
       <r>  -12.1768    1.0000 </r>
       <r>  -12.1763    1.0000 </r>
       <r>  -12.1694    1.0000 </r>
       <r>  -12.1692    1.0000 </r>
       <r>  -12.0961    1.0000 </r>
       <r>  -12.0953    1.0000 </r>
       <r>  -12.0886    1.0000 </r>
       <r>  -12.0872    1.0000 </r>
       <r>  -12.0862    1.0000 </r>
       <r>  -12.0840    1.0000 </r>
       <r>  -11.9499    1.0000 </r>
       <r>  -11.9476    1.0000 </r>
       <r>  -11.9466    1.0000 </r>
       <r>  -11.9443    1.0000 </r>
       <r>  -11.8174    1.0000 </r>
       <r>  -11.8133    1.0000 </r>
       <r>  -11.8070    1.0000 </r>
       <r>  -11.8060    1.0000 </r>
       <r>  -11.8056    1.0000 </r>
       <r>  -11.8048    1.0000 </r>
       <r>  -11.7841    1.0000 </r>
       <r>  -11.7839    1.0000 </r>
       <r>  -11.7805    1.0000 </r>
       <r>  -11.7802    1.0000 </r>
       <r>  -11.6719    1.0000 </r>
       <r>  -11.6656    1.0000 </r>
       <r>  -11.6616    1.0000 </r>
       <r>  -11.6602    1.0000 </r>
       <r>   -8.1622    1.0000 </r>
       <r>   -7.2497    1.0000 </r>
       <r>   -7.2351    1.0000 </r>
       <r>   -6.7830    1.0000 </r>
       <r>   -6.6995    1.0000 </r>
       <r>   -6.6786    1.0000 </r>
       <r>   -6.4258    1.0000 </r>
       <r>   -6.4020    1.0000 </r>
       <r>   -6.3173    1.0000 </r>
       <r>   -6.3074    1.0000 </r>
       <r>   -6.3051    1.0000 </r>
       <r>   -6.3042    1.0000 </r>
       <r>   -6.2990    1.0000 </r>
       <r>   -6.2839    1.0000 </r>
       <r>   -6.2732    1.0000 </r>
       <r>   -6.2724    1.0000 </r>
       <r>   -6.2708    1.0000 </r>
       <r>   -6.2707    1.0000 </r>
       <r>   -6.2139    1.0000 </r>
       <r>   -6.2135    1.0000 </r>
       <r>   -6.2127    1.0000 </r>
       <r>   -6.2041    1.0000 </r>
       <r>   -6.1972    1.0000 </r>
       <r>   -6.1926    1.0000 </r>
       <r>   -6.1591    1.0000 </r>
       <r>   -6.1582    1.0000 </r>
       <r>   -6.1492    1.0000 </r>
       <r>   -6.1487    1.0000 </r>
       <r>   -6.0742    1.0000 </r>
       <r>   -6.0690    1.0000 </r>
       <r>   -5.9326    1.0000 </r>
       <r>   -5.9304    1.0000 </r>
       <r>   -5.9075    1.0000 </r>
       <r>   -5.9068    1.0000 </r>
       <r>   -5.8366    1.0000 </r>
       <r>   -5.7896    1.0000 </r>
       <r>   -5.7818    1.0000 </r>
       <r>   -5.7697    1.0000 </r>
       <r>   -5.7675    1.0000 </r>
       <r>   -5.7633    1.0000 </r>
       <r>   -5.7625    1.0000 </r>
       <r>   -5.7615    1.0000 </r>
       <r>   -5.7589    1.0000 </r>
       <r>   -5.7567    1.0000 </r>
       <r>   -5.7523    1.0000 </r>
       <r>   -5.7517    1.0000 </r>
       <r>   -5.7376    1.0000 </r>
       <r>   -5.6804    1.0000 </r>
       <r>   -5.6520    1.0000 </r>
       <r>   -5.6393    1.0000 </r>
       <r>   -5.6240    1.0000 </r>
       <r>   -5.6219    1.0000 </r>
       <r>   -5.6208    1.0000 </r>
       <r>   -5.6179    1.0000 </r>
       <r>   -5.2270    1.0000 </r>
       <r>   -5.2255    1.0000 </r>
       <r>   -5.2239    1.0000 </r>
       <r>   -5.2227    1.0000 </r>
       <r>   -5.2215    1.0000 </r>
       <r>   -5.2210    1.0000 </r>
       <r>   -5.2208    1.0000 </r>
       <r>   -5.2201    1.0000 </r>
       <r>   -5.2191    1.0000 </r>
       <r>   -5.2186    1.0000 </r>
       <r>   -5.2177    1.0000 </r>
       <r>   -5.2173    1.0000 </r>
       <r>   -5.1067    1.0000 </r>
       <r>   -5.0955    1.0000 </r>
       <r>   -5.0923    1.0000 </r>
       <r>   -5.0908    1.0000 </r>
       <r>   -5.0888    1.0000 </r>
       <r>   -5.0883    1.0000 </r>
       <r>   -5.0863    1.0000 </r>
       <r>   -5.0842    1.0000 </r>
       <r>   -5.0084    1.0000 </r>
       <r>   -4.9190    1.0000 </r>
       <r>   -4.8269    1.0000 </r>
       <r>   -4.5974    1.0000 </r>
       <r>   -4.5428    1.0000 </r>
       <r>   -4.5347    1.0000 </r>
       <r>   -4.4754    1.0000 </r>
       <r>   -4.4727    1.0000 </r>
       <r>   -4.4717    1.0000 </r>
       <r>   -4.4710    1.0000 </r>
       <r>   -4.4706    1.0000 </r>
       <r>   -4.4692    1.0000 </r>
       <r>   -4.4676    1.0000 </r>
       <r>   -4.4675    1.0000 </r>
       <r>   -4.3447    1.0000 </r>
       <r>   -4.3422    1.0000 </r>
       <r>   -4.3396    1.0000 </r>
       <r>   -4.3373    1.0000 </r>
       <r>   -4.3118    1.0000 </r>
       <r>   -4.1904    1.0000 </r>
       <r>   -4.0918    1.0000 </r>
       <r>   -4.0891    1.0000 </r>
       <r>   -4.0872    1.0000 </r>
       <r>   -4.0870    1.0000 </r>
       <r>   -4.0845    1.0000 </r>
       <r>   -4.0833    1.0000 </r>
       <r>   -4.0740    1.0000 </r>
       <r>   -4.0737    1.0000 </r>
       <r>   -4.0718    1.0000 </r>
       <r>   -4.0707    1.0000 </r>
       <r>   -4.0246    1.0000 </r>
       <r>   -3.9506    1.0000 </r>
       <r>   -3.9500    1.0000 </r>
       <r>   -3.9469    1.0000 </r>
       <r>   -3.9457    1.0000 </r>
       <r>   -3.9073    1.0000 </r>
       <r>   -3.8631    1.0000 </r>
       <r>   -3.7743    1.0000 </r>
       <r>   -3.7443    1.0000 </r>
       <r>   -3.6225    1.0000 </r>
       <r>   -3.6207    1.0000 </r>
       <r>   -3.6151    1.0000 </r>
       <r>   -3.6137    1.0000 </r>
       <r>   -3.6035    1.0000 </r>
       <r>   -3.6029    1.0000 </r>
       <r>   -3.5983    1.0000 </r>
       <r>   -3.5980    1.0000 </r>
       <r>   -3.4810    1.0000 </r>
       <r>   -3.4787    1.0000 </r>
       <r>   -3.4747    1.0000 </r>
       <r>   -3.4732    1.0000 </r>
       <r>   -3.4724    1.0000 </r>
       <r>   -3.4686    1.0000 </r>
       <r>   -3.4684    1.0000 </r>
       <r>   -3.4681    1.0000 </r>
       <r>   -3.4650    1.0000 </r>
       <r>   -3.4645    1.0000 </r>
       <r>   -3.4335    1.0000 </r>
       <r>   -3.3435    1.0000 </r>
       <r>   -3.3383    1.0000 </r>
       <r>   -3.3382    1.0000 </r>
       <r>   -3.1460    1.0000 </r>
       <r>   -3.0896    1.0000 </r>
       <r>   -3.0756    1.0000 </r>
       <r>   -3.0739    1.0000 </r>
       <r>   -3.0700    1.0000 </r>
       <r>   -3.0693    1.0000 </r>
       <r>   -3.0665    1.0000 </r>
       <r>   -2.9870    1.0000 </r>
       <r>   -2.9396    1.0000 </r>
       <r>   -2.9362    1.0000 </r>
       <r>   -2.9017    1.0000 </r>
       <r>   -2.8452    1.0000 </r>
       <r>   -2.8077    1.0000 </r>
       <r>   -2.7635    1.0000 </r>
       <r>   -2.7543    1.0000 </r>
       <r>   -2.7510    1.0000 </r>
       <r>   -2.7470    1.0000 </r>
       <r>   -2.7443    1.0000 </r>
       <r>   -2.7231    1.0000 </r>
       <r>   -2.7230    1.0000 </r>
       <r>   -2.6822    1.0000 </r>
       <r>   -2.6777    1.0000 </r>
       <r>   -2.6686    1.0000 </r>
       <r>   -2.6673    1.0000 </r>
       <r>   -2.6627    1.0000 </r>
       <r>   -2.5440    1.0000 </r>
       <r>   -2.5438    1.0000 </r>
       <r>   -2.5191    1.0000 </r>
       <r>   -2.5170    1.0000 </r>
       <r>   -2.5090    1.0000 </r>
       <r>   -2.4551    1.0000 </r>
       <r>   -2.4238    1.0000 </r>
       <r>   -2.4152    1.0000 </r>
       <r>   -2.3839    1.0000 </r>
       <r>   -2.3759    1.0000 </r>
       <r>   -2.3740    1.0000 </r>
       <r>   -2.3733    1.0000 </r>
       <r>   -2.3724    1.0000 </r>
       <r>   -2.3718    1.0000 </r>
       <r>   -2.3704    1.0000 </r>
       <r>   -2.3696    1.0000 </r>
       <r>   -2.3686    1.0000 </r>
       <r>   -2.3572    1.0000 </r>
       <r>   -2.3546    1.0000 </r>
       <r>   -2.3424    1.0000 </r>
       <r>   -2.3171    1.0000 </r>
       <r>   -2.2585    1.0000 </r>
       <r>   -2.2435    1.0000 </r>
       <r>   -2.2411    1.0000 </r>
       <r>   -2.2397    1.0000 </r>
       <r>   -2.2374    1.0000 </r>
       <r>   -2.2095    1.0000 </r>
       <r>   -2.1727    1.0000 </r>
       <r>   -2.1438    1.0000 </r>
       <r>   -2.1275    1.0000 </r>
       <r>   -2.0887    1.0000 </r>
       <r>   -2.0885    1.0000 </r>
       <r>   -2.0878    1.0000 </r>
       <r>   -2.0875    1.0000 </r>
       <r>   -2.0549    1.0000 </r>
       <r>   -2.0547    1.0000 </r>
       <r>   -2.0538    1.0000 </r>
       <r>   -2.0533    1.0000 </r>
       <r>   -2.0158    1.0000 </r>
       <r>   -2.0115    1.0000 </r>
       <r>   -2.0081    1.0000 </r>
       <r>   -2.0013    1.0000 </r>
       <r>   -1.9806    1.0000 </r>
       <r>   -1.9442    1.0000 </r>
       <r>   -1.9418    1.0000 </r>
       <r>   -1.9336    1.0000 </r>
       <r>   -1.9323    1.0000 </r>
       <r>   -1.8961    1.0000 </r>
       <r>   -1.8693    1.0000 </r>
       <r>   -1.8676    1.0000 </r>
       <r>   -1.8668    1.0000 </r>
       <r>   -1.8655    1.0000 </r>
       <r>   -1.8233    1.0000 </r>
       <r>   -1.8231    1.0000 </r>
       <r>   -1.8192    1.0000 </r>
       <r>   -1.8173    1.0000 </r>
       <r>   -1.8168    1.0000 </r>
       <r>   -1.8144    1.0000 </r>
       <r>   -1.7773    1.0000 </r>
       <r>   -1.7770    1.0000 </r>
       <r>   -1.7761    1.0000 </r>
       <r>   -1.7758    1.0000 </r>
       <r>   -1.7755    1.0000 </r>
       <r>   -1.7753    1.0000 </r>
       <r>   -1.7748    1.0000 </r>
       <r>   -1.7741    1.0000 </r>
       <r>   -1.7638    1.0000 </r>
       <r>   -1.7129    1.0000 </r>
       <r>   -1.7054    1.0000 </r>
       <r>   -1.6988    1.0000 </r>
       <r>   -1.6918    1.0000 </r>
       <r>   -1.6573    1.0000 </r>
       <r>   -1.6487    1.0000 </r>
       <r>   -1.6470    1.0000 </r>
       <r>   -1.6462    1.0000 </r>
       <r>   -1.6439    1.0000 </r>
       <r>   -1.6416    1.0000 </r>
       <r>   -1.6341    1.0000 </r>
       <r>   -1.6145    1.0000 </r>
       <r>   -1.6120    1.0000 </r>
       <r>   -1.6053    1.0000 </r>
       <r>   -1.6029    1.0000 </r>
       <r>   -1.5828    1.0000 </r>
       <r>   -1.5804    1.0000 </r>
       <r>   -1.5791    1.0000 </r>
       <r>   -1.5643    1.0000 </r>
       <r>   -1.5643    1.0000 </r>
       <r>   -1.5561    1.0000 </r>
       <r>   -1.5537    1.0000 </r>
       <r>   -1.5512    1.0000 </r>
       <r>   -1.4777    1.0000 </r>
       <r>   -1.4499    1.0000 </r>
       <r>   -1.4409    1.0000 </r>
       <r>   -1.4315    1.0000 </r>
       <r>   -1.3499    1.0000 </r>
       <r>   -1.3475    1.0000 </r>
       <r>   -1.3377    1.0000 </r>
       <r>   -1.3346    1.0000 </r>
       <r>   -1.2292    1.0000 </r>
       <r>   -1.2291    1.0000 </r>
       <r>   -1.2258    1.0000 </r>
       <r>   -1.2257    1.0000 </r>
       <r>   -1.2118    1.0000 </r>
       <r>   -1.2116    1.0000 </r>
       <r>   -1.2096    1.0000 </r>
       <r>   -1.2081    1.0000 </r>
       <r>   -1.1853    1.0000 </r>
       <r>   -1.0944    1.0000 </r>
       <r>   -1.0888    1.0000 </r>
       <r>   -1.0869    1.0000 </r>
       <r>   -1.0845    1.0000 </r>
       <r>   -1.0497    1.0000 </r>
       <r>   -1.0075    1.0000 </r>
       <r>   -0.9819    1.0000 </r>
       <r>   -0.9308    1.0000 </r>
       <r>   -0.8736    1.0000 </r>
       <r>   -0.8656    1.0000 </r>
       <r>   -0.8452    1.0000 </r>
       <r>   -0.7779    1.0000 </r>
       <r>   -0.7746    1.0000 </r>
       <r>   -0.7481    1.0000 </r>
       <r>   -0.7220    1.0000 </r>
       <r>   -0.7168    1.0000 </r>
       <r>   -0.7096    1.0000 </r>
       <r>   -0.7061    1.0000 </r>
       <r>   -0.7019    1.0000 </r>
       <r>   -0.6752    1.0000 </r>
       <r>   -0.6747    1.0000 </r>
       <r>   -0.6742    1.0000 </r>
       <r>   -0.6721    1.0000 </r>
       <r>   -0.6549    1.0000 </r>
       <r>   -0.6539    1.0000 </r>
       <r>   -0.6525    1.0000 </r>
       <r>   -0.6222    1.0000 </r>
       <r>   -0.5176    1.0000 </r>
       <r>   -0.5166    1.0000 </r>
       <r>   -0.5157    1.0000 </r>
       <r>   -0.5146    1.0000 </r>
       <r>   -0.4620    1.0000 </r>
       <r>   -0.4584    1.0000 </r>
       <r>   -0.4577    1.0000 </r>
       <r>   -0.4571    1.0000 </r>
       <r>   -0.4542    1.0000 </r>
       <r>   -0.4536    1.0000 </r>
       <r>   -0.4529    1.0000 </r>
       <r>   -0.4497    1.0000 </r>
       <r>   -0.4261    1.0000 </r>
       <r>   -0.4011    1.0000 </r>
       <r>   -0.3837    1.0000 </r>
       <r>   -0.3834    1.0000 </r>
       <r>   -0.3770    1.0000 </r>
       <r>   -0.3681    1.0000 </r>
       <r>   -0.3570    1.0000 </r>
       <r>   -0.3537    1.0000 </r>
       <r>   -0.3492    1.0000 </r>
       <r>   -0.3464    1.0000 </r>
       <r>   -0.3425    1.0000 </r>
       <r>   -0.3391    1.0000 </r>
       <r>   -0.3305    1.0000 </r>
       <r>   -0.3272    1.0000 </r>
       <r>   -0.3255    1.0000 </r>
       <r>   -0.3216    1.0000 </r>
       <r>   -0.2756    1.0000 </r>
       <r>   -0.2271    1.0000 </r>
       <r>   -0.2230    1.0000 </r>
       <r>   -0.0989    1.0000 </r>
       <r>   -0.0449    1.0000 </r>
       <r>    0.0270    1.0000 </r>
       <r>    0.0689    1.0000 </r>
       <r>    0.1219    1.0000 </r>
       <r>    0.1582    1.0000 </r>
       <r>    0.1598    1.0000 </r>
       <r>    0.1755    1.0000 </r>
       <r>    0.1868    1.0000 </r>
       <r>    0.2032    1.0000 </r>
       <r>    0.2127    1.0000 </r>
       <r>    0.2142    1.0000 </r>
       <r>    0.2185    1.0000 </r>
       <r>    0.2208    1.0000 </r>
       <r>    0.2403    1.0000 </r>
       <r>    0.2435    1.0000 </r>
       <r>    0.2933    1.0000 </r>
       <r>    0.3183    1.0000 </r>
       <r>    0.3188    1.0000 </r>
       <r>    0.3437    1.0000 </r>
       <r>    0.3450    1.0000 </r>
       <r>    0.3491    1.0000 </r>
       <r>    0.3505    1.0000 </r>
       <r>    0.3699    1.0000 </r>
       <r>    0.3802    1.0000 </r>
       <r>    0.3965    1.0000 </r>
       <r>    0.4549    1.0000 </r>
       <r>    0.4600    1.0000 </r>
       <r>    0.4647    1.0000 </r>
       <r>    0.4653    1.0000 </r>
       <r>    0.4660    1.0000 </r>
       <r>    0.4745    1.0000 </r>
       <r>    0.4775    1.0000 </r>
       <r>    0.4795    1.0000 </r>
       <r>    0.5554    1.0000 </r>
       <r>    0.5598    1.0000 </r>
       <r>    0.5662    1.0000 </r>
       <r>    0.5854    1.0000 </r>
       <r>    0.5899    1.0000 </r>
       <r>    0.6935    1.0000 </r>
       <r>    0.6956    1.0000 </r>
       <r>    0.7029    1.0000 </r>
       <r>    0.7073    1.0000 </r>
       <r>    0.7346    1.0000 </r>
       <r>    0.8102    1.0000 </r>
       <r>    0.8116    1.0000 </r>
       <r>    0.8421    1.0000 </r>
       <r>    0.8554    1.0000 </r>
       <r>    0.8567    1.0000 </r>
       <r>    0.8817    1.0000 </r>
       <r>    0.8841    1.0000 </r>
       <r>    0.8852    1.0000 </r>
       <r>    0.9160    1.0000 </r>
       <r>    0.9937    1.0000 </r>
       <r>    0.9984    1.0000 </r>
       <r>    0.9995    1.0000 </r>
       <r>    1.0028    1.0000 </r>
       <r>    1.0242    1.0000 </r>
       <r>    1.0343    1.0000 </r>
       <r>    1.0887    1.0000 </r>
       <r>    1.1036    1.0000 </r>
       <r>    1.2083    1.0000 </r>
       <r>    1.2095    1.0000 </r>
       <r>    1.2243    1.0000 </r>
       <r>    1.2352    1.0000 </r>
       <r>    1.2482    1.0000 </r>
       <r>    1.2506    1.0000 </r>
       <r>    1.2545    1.0000 </r>
       <r>    1.2645    1.0000 </r>
       <r>    1.3173    1.0000 </r>
       <r>    1.3188    1.0000 </r>
       <r>    1.3672    1.0000 </r>
       <r>    1.3677    1.0000 </r>
       <r>    1.4029    1.0000 </r>
       <r>    1.4050    1.0000 </r>
       <r>    1.4405    1.0000 </r>
       <r>    1.4409    1.0000 </r>
       <r>    1.5036    1.0000 </r>
       <r>    1.5061    1.0000 </r>
       <r>    1.5400    1.0000 </r>
       <r>    1.5845    1.0000 </r>
       <r>    1.5906    1.0000 </r>
       <r>    1.5919    1.0000 </r>
       <r>    1.7661    1.0000 </r>
       <r>    1.7711    1.0000 </r>
       <r>    1.8477    1.0000 </r>
       <r>    1.8561    1.0000 </r>
       <r>    1.8618    1.0000 </r>
       <r>    1.8626    1.0000 </r>
       <r>    1.9197    1.0000 </r>
       <r>    1.9262    1.0000 </r>
       <r>    1.9540    1.0000 </r>
       <r>    1.9593    1.0000 </r>
       <r>    1.9808    1.0000 </r>
       <r>    1.9821    1.0000 </r>
       <r>    2.0256    1.0000 </r>
       <r>    2.0257    1.0000 </r>
       <r>    2.0648    1.0000 </r>
       <r>    2.0686    1.0000 </r>
       <r>    2.0966    1.0000 </r>
       <r>    2.0971    1.0000 </r>
       <r>    2.2243    1.0000 </r>
       <r>    2.2318    1.0000 </r>
       <r>    2.3998    1.0000 </r>
       <r>    2.4008    1.0000 </r>
       <r>    2.4037    1.0000 </r>
       <r>    2.4068    1.0000 </r>
       <r>    5.5535    0.0000 </r>
       <r>    6.6712    0.0000 </r>
       <r>    6.6902    0.0000 </r>
       <r>    6.6930    0.0000 </r>
       <r>    6.7219    0.0000 </r>
       <r>    6.8894    0.0000 </r>
       <r>    6.9314    0.0000 </r>
       <r>    6.9997    0.0000 </r>
       <r>    7.0118    0.0000 </r>
       <r>    7.0876    0.0000 </r>
       <r>    7.0970    0.0000 </r>
       <r>    7.1631    0.0000 </r>
       <r>    7.2136    0.0000 </r>
       <r>    7.2151    0.0000 </r>
       <r>    7.2300    0.0000 </r>
       <r>    7.2570    0.0000 </r>
       <r>    7.2902    0.0000 </r>
       <r>    7.2981    0.0000 </r>
       <r>    7.3071    0.0000 </r>
       <r>    7.3292    0.0000 </r>
       <r>    7.3339    0.0000 </r>
       <r>    7.3427    0.0000 </r>
       <r>    7.3456    0.0000 </r>
       <r>    7.3520    0.0000 </r>
       <r>    7.3613    0.0000 </r>
       <r>    7.3625    0.0000 </r>
       <r>    7.3851    0.0000 </r>
       <r>    7.3875    0.0000 </r>
       <r>    7.3935    0.0000 </r>
       <r>    7.3964    0.0000 </r>
       <r>    7.4299    0.0000 </r>
       <r>    7.4312    0.0000 </r>
       <r>    7.4681    0.0000 </r>
       <r>    7.7061    0.0000 </r>
       <r>    7.7424    0.0000 </r>
       <r>    7.7448    0.0000 </r>
       <r>    7.7488    0.0000 </r>
       <r>    7.7980    0.0000 </r>
       <r>    7.8373    0.0000 </r>
       <r>    7.8605    0.0000 </r>
       <r>    7.8771    0.0000 </r>
       <r>    7.8908    0.0000 </r>
       <r>    7.9097    0.0000 </r>
       <r>    7.9191    0.0000 </r>
       <r>    7.9221    0.0000 </r>
       <r>    7.9620    0.0000 </r>
       <r>    8.0044    0.0000 </r>
       <r>    8.0809    0.0000 </r>
       <r>    8.1244    0.0000 </r>
       <r>    8.1678    0.0000 </r>
       <r>    8.1720    0.0000 </r>
       <r>    8.1750    0.0000 </r>
       <r>    8.1874    0.0000 </r>
       <r>    8.2175    0.0000 </r>
       <r>    8.2226    0.0000 </r>
       <r>    8.2255    0.0000 </r>
       <r>    8.2438    0.0000 </r>
       <r>    8.2562    0.0000 </r>
       <r>    8.2717    0.0000 </r>
       <r>    8.2893    0.0000 </r>
       <r>    8.4376    0.0000 </r>
       <r>    8.5707    0.0000 </r>
       <r>    8.5823    0.0000 </r>
       <r>    8.5995    0.0000 </r>
       <r>    8.6375    0.0000 </r>
       <r>    8.6427    0.0000 </r>
       <r>    8.6505    0.0000 </r>
       <r>    8.6672    0.0000 </r>
       <r>    8.6749    0.0000 </r>
       <r>    8.6835    0.0000 </r>
       <r>    8.6890    0.0000 </r>
       <r>    8.6895    0.0000 </r>
       <r>    8.7344    0.0000 </r>
       <r>    8.9038    0.0000 </r>
       <r>    8.9776    0.0000 </r>
       <r>    9.0017    0.0000 </r>
       <r>    9.0177    0.0000 </r>
       <r>    9.0407    0.0000 </r>
       <r>    9.0844    0.0000 </r>
       <r>    9.1272    0.0000 </r>
       <r>    9.2285    0.0000 </r>
       <r>    9.2509    0.0000 </r>
       <r>    9.2667    0.0000 </r>
       <r>    9.2685    0.0000 </r>
       <r>    9.2799    0.0000 </r>
       <r>    9.2842    0.0000 </r>
       <r>    9.2976    0.0000 </r>
       <r>    9.3010    0.0000 </r>
       <r>    9.3052    0.0000 </r>
       <r>    9.3217    0.0000 </r>
       <r>    9.3266    0.0000 </r>
       <r>    9.3292    0.0000 </r>
       <r>    9.3315    0.0000 </r>
       <r>    9.3969    0.0000 </r>
       <r>    9.4952    0.0000 </r>
       <r>    9.5287    0.0000 </r>
       <r>    9.6505    0.0000 </r>
       <r>    9.6838    0.0000 </r>
       <r>    9.6874    0.0000 </r>
       <r>    9.6906    0.0000 </r>
       <r>    9.6929    0.0000 </r>
       <r>    9.7477    0.0000 </r>
       <r>    9.9095    0.0000 </r>
       <r>   10.0797    0.0000 </r>
       <r>   10.0958    0.0000 </r>
       <r>   10.0978    0.0000 </r>
       <r>   10.1087    0.0000 </r>
       <r>   10.1504    0.0000 </r>
       <r>   10.1726    0.0000 </r>
       <r>   10.1780    0.0000 </r>
       <r>   10.1977    0.0000 </r>
       <r>   10.2000    0.0000 </r>
       <r>   10.2305    0.0000 </r>
       <r>   10.2417    0.0000 </r>
       <r>   10.2853    0.0000 </r>
       <r>   10.3097    0.0000 </r>
       <r>   10.3210    0.0000 </r>
       <r>   10.3781    0.0000 </r>
       <r>   10.3821    0.0000 </r>
       <r>   10.3913    0.0000 </r>
       <r>   10.3936    0.0000 </r>
       <r>   10.4220    0.0000 </r>
       <r>   10.4392    0.0000 </r>
       <r>   10.4467    0.0000 </r>
       <r>   10.4778    0.0000 </r>
       <r>   10.5177    0.0000 </r>
       <r>   10.5403    0.0000 </r>
       <r>   10.6304    0.0000 </r>
       <r>   10.6772    0.0000 </r>
       <r>   10.7224    0.0000 </r>
       <r>   10.7236    0.0000 </r>
       <r>   10.7270    0.0000 </r>
       <r>   10.7339    0.0000 </r>
       <r>   10.7538    0.0000 </r>
       <r>   10.7622    0.0000 </r>
       <r>   10.7681    0.0000 </r>
       <r>   10.7891    0.0000 </r>
       <r>   10.7915    0.0000 </r>
       <r>   10.7954    0.0000 </r>
       <r>   10.8161    0.0000 </r>
       <r>   10.8182    0.0000 </r>
       <r>   11.2437    0.0000 </r>
       <r>   11.2611    0.0000 </r>
       <r>   11.4851    0.0000 </r>
       <r>   11.5798    0.0000 </r>
       <r>   11.6680    0.0000 </r>
       <r>   11.7083    0.0000 </r>
       <r>   11.7389    0.0000 </r>
       <r>   11.7451    0.0000 </r>
       <r>   11.7786    0.0000 </r>
       <r>   11.8043    0.0000 </r>
       <r>   12.2775    0.0000 </r>
      </set>
      <set comment="kpoint 4">
       <r>  -17.1659    1.0000 </r>
       <r>  -15.7431    1.0000 </r>
       <r>  -15.6886    1.0000 </r>
       <r>  -15.4154    1.0000 </r>
       <r>  -15.2956    1.0000 </r>
       <r>  -15.2480    1.0000 </r>
       <r>  -15.2277    1.0000 </r>
       <r>  -15.1914    1.0000 </r>
       <r>  -15.1885    1.0000 </r>
       <r>  -15.0940    1.0000 </r>
       <r>  -15.0549    1.0000 </r>
       <r>  -15.0242    1.0000 </r>
       <r>  -15.0085    1.0000 </r>
       <r>  -14.9549    1.0000 </r>
       <r>  -14.9442    1.0000 </r>
       <r>  -14.9373    1.0000 </r>
       <r>  -14.9356    1.0000 </r>
       <r>  -14.8533    1.0000 </r>
       <r>  -14.7541    1.0000 </r>
       <r>  -14.7514    1.0000 </r>
       <r>  -14.6164    1.0000 </r>
       <r>  -14.5683    1.0000 </r>
       <r>  -14.5437    1.0000 </r>
       <r>  -14.4574    1.0000 </r>
       <r>  -14.4452    1.0000 </r>
       <r>  -14.4420    1.0000 </r>
       <r>  -14.4282    1.0000 </r>
       <r>  -14.4243    1.0000 </r>
       <r>  -14.4201    1.0000 </r>
       <r>  -14.4160    1.0000 </r>
       <r>  -14.4144    1.0000 </r>
       <r>  -14.3453    1.0000 </r>
       <r>  -14.2475    1.0000 </r>
       <r>  -14.2421    1.0000 </r>
       <r>  -14.2405    1.0000 </r>
       <r>  -14.2368    1.0000 </r>
       <r>  -14.2001    1.0000 </r>
       <r>  -14.1916    1.0000 </r>
       <r>  -14.1674    1.0000 </r>
       <r>  -14.1663    1.0000 </r>
       <r>  -14.1141    1.0000 </r>
       <r>  -14.0344    1.0000 </r>
       <r>  -13.9965    1.0000 </r>
       <r>  -13.9946    1.0000 </r>
       <r>  -13.9381    1.0000 </r>
       <r>  -13.7863    1.0000 </r>
       <r>  -13.7347    1.0000 </r>
       <r>  -13.7097    1.0000 </r>
       <r>  -13.7083    1.0000 </r>
       <r>  -13.7064    1.0000 </r>
       <r>  -13.6967    1.0000 </r>
       <r>  -13.6949    1.0000 </r>
       <r>  -13.6742    1.0000 </r>
       <r>  -13.6738    1.0000 </r>
       <r>  -13.5993    1.0000 </r>
       <r>  -13.5297    1.0000 </r>
       <r>  -13.5293    1.0000 </r>
       <r>  -13.5182    1.0000 </r>
       <r>  -13.5147    1.0000 </r>
       <r>  -13.5018    1.0000 </r>
       <r>  -13.3576    1.0000 </r>
       <r>  -13.3335    1.0000 </r>
       <r>  -13.2540    1.0000 </r>
       <r>  -13.2222    1.0000 </r>
       <r>  -13.1125    1.0000 </r>
       <r>  -13.0592    1.0000 </r>
       <r>  -13.0536    1.0000 </r>
       <r>  -13.0503    1.0000 </r>
       <r>  -13.0423    1.0000 </r>
       <r>  -13.0396    1.0000 </r>
       <r>  -13.0374    1.0000 </r>
       <r>  -13.0347    1.0000 </r>
       <r>  -13.0330    1.0000 </r>
       <r>  -12.9738    1.0000 </r>
       <r>  -12.9257    1.0000 </r>
       <r>  -12.8886    1.0000 </r>
       <r>  -12.8849    1.0000 </r>
       <r>  -12.8818    1.0000 </r>
       <r>  -12.8795    1.0000 </r>
       <r>  -12.8766    1.0000 </r>
       <r>  -12.8740    1.0000 </r>
       <r>  -12.8727    1.0000 </r>
       <r>  -12.8701    1.0000 </r>
       <r>  -12.8688    1.0000 </r>
       <r>  -12.8672    1.0000 </r>
       <r>  -12.8633    1.0000 </r>
       <r>  -12.8628    1.0000 </r>
       <r>  -12.8595    1.0000 </r>
       <r>  -12.7177    1.0000 </r>
       <r>  -12.7150    1.0000 </r>
       <r>  -12.7139    1.0000 </r>
       <r>  -12.7105    1.0000 </r>
       <r>  -12.6804    1.0000 </r>
       <r>  -12.6085    1.0000 </r>
       <r>  -12.5913    1.0000 </r>
       <r>  -12.5836    1.0000 </r>
       <r>  -12.5692    1.0000 </r>
       <r>  -12.5550    1.0000 </r>
       <r>  -12.5330    1.0000 </r>
       <r>  -12.4984    1.0000 </r>
       <r>  -12.4352    1.0000 </r>
       <r>  -12.4303    1.0000 </r>
       <r>  -12.4250    1.0000 </r>
       <r>  -12.4183    1.0000 </r>
       <r>  -12.3354    1.0000 </r>
       <r>  -12.3319    1.0000 </r>
       <r>  -12.3275    1.0000 </r>
       <r>  -12.3232    1.0000 </r>
       <r>  -12.2434    1.0000 </r>
       <r>  -12.2419    1.0000 </r>
       <r>  -12.2389    1.0000 </r>
       <r>  -12.2360    1.0000 </r>
       <r>  -12.2171    1.0000 </r>
       <r>  -12.2159    1.0000 </r>
       <r>  -12.2103    1.0000 </r>
       <r>  -12.2085    1.0000 </r>
       <r>  -12.1773    1.0000 </r>
       <r>  -12.1751    1.0000 </r>
       <r>  -12.1694    1.0000 </r>
       <r>  -12.1689    1.0000 </r>
       <r>  -12.0951    1.0000 </r>
       <r>  -12.0938    1.0000 </r>
       <r>  -12.0920    1.0000 </r>
       <r>  -12.0876    1.0000 </r>
       <r>  -12.0853    1.0000 </r>
       <r>  -12.0834    1.0000 </r>
       <r>  -11.9499    1.0000 </r>
       <r>  -11.9476    1.0000 </r>
       <r>  -11.9467    1.0000 </r>
       <r>  -11.9444    1.0000 </r>
       <r>  -11.8168    1.0000 </r>
       <r>  -11.8140    1.0000 </r>
       <r>  -11.8066    1.0000 </r>
       <r>  -11.8061    1.0000 </r>
       <r>  -11.8054    1.0000 </r>
       <r>  -11.8048    1.0000 </r>
       <r>  -11.7843    1.0000 </r>
       <r>  -11.7839    1.0000 </r>
       <r>  -11.7806    1.0000 </r>
       <r>  -11.7804    1.0000 </r>
       <r>  -11.6679    1.0000 </r>
       <r>  -11.6676    1.0000 </r>
       <r>  -11.6651    1.0000 </r>
       <r>  -11.6586    1.0000 </r>
       <r>   -8.1622    1.0000 </r>
       <r>   -7.2496    1.0000 </r>
       <r>   -7.2351    1.0000 </r>
       <r>   -6.7830    1.0000 </r>
       <r>   -6.6995    1.0000 </r>
       <r>   -6.6787    1.0000 </r>
       <r>   -6.4258    1.0000 </r>
       <r>   -6.4020    1.0000 </r>
       <r>   -6.3172    1.0000 </r>
       <r>   -6.3072    1.0000 </r>
       <r>   -6.3050    1.0000 </r>
       <r>   -6.3040    1.0000 </r>
       <r>   -6.2989    1.0000 </r>
       <r>   -6.2838    1.0000 </r>
       <r>   -6.2734    1.0000 </r>
       <r>   -6.2726    1.0000 </r>
       <r>   -6.2709    1.0000 </r>
       <r>   -6.2708    1.0000 </r>
       <r>   -6.2139    1.0000 </r>
       <r>   -6.2134    1.0000 </r>
       <r>   -6.2127    1.0000 </r>
       <r>   -6.2042    1.0000 </r>
       <r>   -6.1973    1.0000 </r>
       <r>   -6.1925    1.0000 </r>
       <r>   -6.1578    1.0000 </r>
       <r>   -6.1576    1.0000 </r>
       <r>   -6.1520    1.0000 </r>
       <r>   -6.1471    1.0000 </r>
       <r>   -6.0736    1.0000 </r>
       <r>   -6.0703    1.0000 </r>
       <r>   -5.9324    1.0000 </r>
       <r>   -5.9303    1.0000 </r>
       <r>   -5.9078    1.0000 </r>
       <r>   -5.9068    1.0000 </r>
       <r>   -5.8366    1.0000 </r>
       <r>   -5.7885    1.0000 </r>
       <r>   -5.7835    1.0000 </r>
       <r>   -5.7697    1.0000 </r>
       <r>   -5.7672    1.0000 </r>
       <r>   -5.7632    1.0000 </r>
       <r>   -5.7624    1.0000 </r>
       <r>   -5.7614    1.0000 </r>
       <r>   -5.7589    1.0000 </r>
       <r>   -5.7570    1.0000 </r>
       <r>   -5.7523    1.0000 </r>
       <r>   -5.7518    1.0000 </r>
       <r>   -5.7376    1.0000 </r>
       <r>   -5.6804    1.0000 </r>
       <r>   -5.6521    1.0000 </r>
       <r>   -5.6393    1.0000 </r>
       <r>   -5.6235    1.0000 </r>
       <r>   -5.6221    1.0000 </r>
       <r>   -5.6206    1.0000 </r>
       <r>   -5.6181    1.0000 </r>
       <r>   -5.2270    1.0000 </r>
       <r>   -5.2255    1.0000 </r>
       <r>   -5.2239    1.0000 </r>
       <r>   -5.2228    1.0000 </r>
       <r>   -5.2216    1.0000 </r>
       <r>   -5.2211    1.0000 </r>
       <r>   -5.2207    1.0000 </r>
       <r>   -5.2202    1.0000 </r>
       <r>   -5.2191    1.0000 </r>
       <r>   -5.2185    1.0000 </r>
       <r>   -5.2176    1.0000 </r>
       <r>   -5.2173    1.0000 </r>
       <r>   -5.1068    1.0000 </r>
       <r>   -5.0952    1.0000 </r>
       <r>   -5.0933    1.0000 </r>
       <r>   -5.0912    1.0000 </r>
       <r>   -5.0880    1.0000 </r>
       <r>   -5.0873    1.0000 </r>
       <r>   -5.0866    1.0000 </r>
       <r>   -5.0827    1.0000 </r>
       <r>   -5.0084    1.0000 </r>
       <r>   -4.9190    1.0000 </r>
       <r>   -4.8269    1.0000 </r>
       <r>   -4.5974    1.0000 </r>
       <r>   -4.5428    1.0000 </r>
       <r>   -4.5347    1.0000 </r>
       <r>   -4.4754    1.0000 </r>
       <r>   -4.4727    1.0000 </r>
       <r>   -4.4717    1.0000 </r>
       <r>   -4.4711    1.0000 </r>
       <r>   -4.4706    1.0000 </r>
       <r>   -4.4692    1.0000 </r>
       <r>   -4.4677    1.0000 </r>
       <r>   -4.4675    1.0000 </r>
       <r>   -4.3448    1.0000 </r>
       <r>   -4.3422    1.0000 </r>
       <r>   -4.3405    1.0000 </r>
       <r>   -4.3383    1.0000 </r>
       <r>   -4.3117    1.0000 </r>
       <r>   -4.1904    1.0000 </r>
       <r>   -4.0918    1.0000 </r>
       <r>   -4.0890    1.0000 </r>
       <r>   -4.0871    1.0000 </r>
       <r>   -4.0869    1.0000 </r>
       <r>   -4.0845    1.0000 </r>
       <r>   -4.0832    1.0000 </r>
       <r>   -4.0742    1.0000 </r>
       <r>   -4.0738    1.0000 </r>
       <r>   -4.0719    1.0000 </r>
       <r>   -4.0708    1.0000 </r>
       <r>   -4.0246    1.0000 </r>
       <r>   -3.9500    1.0000 </r>
       <r>   -3.9500    1.0000 </r>
       <r>   -3.9475    1.0000 </r>
       <r>   -3.9462    1.0000 </r>
       <r>   -3.9073    1.0000 </r>
       <r>   -3.8631    1.0000 </r>
       <r>   -3.7743    1.0000 </r>
       <r>   -3.7446    1.0000 </r>
       <r>   -3.6223    1.0000 </r>
       <r>   -3.6205    1.0000 </r>
       <r>   -3.6150    1.0000 </r>
       <r>   -3.6136    1.0000 </r>
       <r>   -3.6036    1.0000 </r>
       <r>   -3.6031    1.0000 </r>
       <r>   -3.5985    1.0000 </r>
       <r>   -3.5979    1.0000 </r>
       <r>   -3.4799    1.0000 </r>
       <r>   -3.4793    1.0000 </r>
       <r>   -3.4743    1.0000 </r>
       <r>   -3.4726    1.0000 </r>
       <r>   -3.4713    1.0000 </r>
       <r>   -3.4685    1.0000 </r>
       <r>   -3.4683    1.0000 </r>
       <r>   -3.4680    1.0000 </r>
       <r>   -3.4651    1.0000 </r>
       <r>   -3.4645    1.0000 </r>
       <r>   -3.4336    1.0000 </r>
       <r>   -3.3436    1.0000 </r>
       <r>   -3.3398    1.0000 </r>
       <r>   -3.3377    1.0000 </r>
       <r>   -3.1460    1.0000 </r>
       <r>   -3.0895    1.0000 </r>
       <r>   -3.0755    1.0000 </r>
       <r>   -3.0738    1.0000 </r>
       <r>   -3.0701    1.0000 </r>
       <r>   -3.0692    1.0000 </r>
       <r>   -3.0666    1.0000 </r>
       <r>   -2.9871    1.0000 </r>
       <r>   -2.9381    1.0000 </r>
       <r>   -2.9360    1.0000 </r>
       <r>   -2.9022    1.0000 </r>
       <r>   -2.8452    1.0000 </r>
       <r>   -2.8076    1.0000 </r>
       <r>   -2.7635    1.0000 </r>
       <r>   -2.7546    1.0000 </r>
       <r>   -2.7510    1.0000 </r>
       <r>   -2.7474    1.0000 </r>
       <r>   -2.7444    1.0000 </r>
       <r>   -2.7232    1.0000 </r>
       <r>   -2.7231    1.0000 </r>
       <r>   -2.6822    1.0000 </r>
       <r>   -2.6777    1.0000 </r>
       <r>   -2.6686    1.0000 </r>
       <r>   -2.6673    1.0000 </r>
       <r>   -2.6626    1.0000 </r>
       <r>   -2.5464    1.0000 </r>
       <r>   -2.5434    1.0000 </r>
       <r>   -2.5180    1.0000 </r>
       <r>   -2.5168    1.0000 </r>
       <r>   -2.5090    1.0000 </r>
       <r>   -2.4552    1.0000 </r>
       <r>   -2.4236    1.0000 </r>
       <r>   -2.4153    1.0000 </r>
       <r>   -2.3840    1.0000 </r>
       <r>   -2.3760    1.0000 </r>
       <r>   -2.3739    1.0000 </r>
       <r>   -2.3732    1.0000 </r>
       <r>   -2.3725    1.0000 </r>
       <r>   -2.3718    1.0000 </r>
       <r>   -2.3704    1.0000 </r>
       <r>   -2.3696    1.0000 </r>
       <r>   -2.3685    1.0000 </r>
       <r>   -2.3572    1.0000 </r>
       <r>   -2.3546    1.0000 </r>
       <r>   -2.3421    1.0000 </r>
       <r>   -2.3171    1.0000 </r>
       <r>   -2.2585    1.0000 </r>
       <r>   -2.2427    1.0000 </r>
       <r>   -2.2410    1.0000 </r>
       <r>   -2.2397    1.0000 </r>
       <r>   -2.2354    1.0000 </r>
       <r>   -2.2095    1.0000 </r>
       <r>   -2.1727    1.0000 </r>
       <r>   -2.1438    1.0000 </r>
       <r>   -2.1275    1.0000 </r>
       <r>   -2.0886    1.0000 </r>
       <r>   -2.0883    1.0000 </r>
       <r>   -2.0878    1.0000 </r>
       <r>   -2.0874    1.0000 </r>
       <r>   -2.0552    1.0000 </r>
       <r>   -2.0550    1.0000 </r>
       <r>   -2.0539    1.0000 </r>
       <r>   -2.0534    1.0000 </r>
       <r>   -2.0158    1.0000 </r>
       <r>   -2.0122    1.0000 </r>
       <r>   -2.0080    1.0000 </r>
       <r>   -2.0013    1.0000 </r>
       <r>   -1.9805    1.0000 </r>
       <r>   -1.9422    1.0000 </r>
       <r>   -1.9419    1.0000 </r>
       <r>   -1.9371    1.0000 </r>
       <r>   -1.9328    1.0000 </r>
       <r>   -1.8961    1.0000 </r>
       <r>   -1.8695    1.0000 </r>
       <r>   -1.8676    1.0000 </r>
       <r>   -1.8667    1.0000 </r>
       <r>   -1.8653    1.0000 </r>
       <r>   -1.8231    1.0000 </r>
       <r>   -1.8221    1.0000 </r>
       <r>   -1.8205    1.0000 </r>
       <r>   -1.8173    1.0000 </r>
       <r>   -1.8171    1.0000 </r>
       <r>   -1.8139    1.0000 </r>
       <r>   -1.7773    1.0000 </r>
       <r>   -1.7769    1.0000 </r>
       <r>   -1.7761    1.0000 </r>
       <r>   -1.7758    1.0000 </r>
       <r>   -1.7755    1.0000 </r>
       <r>   -1.7753    1.0000 </r>
       <r>   -1.7749    1.0000 </r>
       <r>   -1.7742    1.0000 </r>
       <r>   -1.7641    1.0000 </r>
       <r>   -1.7126    1.0000 </r>
       <r>   -1.7055    1.0000 </r>
       <r>   -1.6986    1.0000 </r>
       <r>   -1.6918    1.0000 </r>
       <r>   -1.6579    1.0000 </r>
       <r>   -1.6486    1.0000 </r>
       <r>   -1.6471    1.0000 </r>
       <r>   -1.6456    1.0000 </r>
       <r>   -1.6444    1.0000 </r>
       <r>   -1.6433    1.0000 </r>
       <r>   -1.6345    1.0000 </r>
       <r>   -1.6151    1.0000 </r>
       <r>   -1.6120    1.0000 </r>
       <r>   -1.6048    1.0000 </r>
       <r>   -1.6027    1.0000 </r>
       <r>   -1.5825    1.0000 </r>
       <r>   -1.5802    1.0000 </r>
       <r>   -1.5793    1.0000 </r>
       <r>   -1.5648    1.0000 </r>
       <r>   -1.5644    1.0000 </r>
       <r>   -1.5562    1.0000 </r>
       <r>   -1.5539    1.0000 </r>
       <r>   -1.5513    1.0000 </r>
       <r>   -1.4768    1.0000 </r>
       <r>   -1.4498    1.0000 </r>
       <r>   -1.4399    1.0000 </r>
       <r>   -1.4303    1.0000 </r>
       <r>   -1.3498    1.0000 </r>
       <r>   -1.3475    1.0000 </r>
       <r>   -1.3364    1.0000 </r>
       <r>   -1.3352    1.0000 </r>
       <r>   -1.2291    1.0000 </r>
       <r>   -1.2290    1.0000 </r>
       <r>   -1.2257    1.0000 </r>
       <r>   -1.2256    1.0000 </r>
       <r>   -1.2119    1.0000 </r>
       <r>   -1.2116    1.0000 </r>
       <r>   -1.2097    1.0000 </r>
       <r>   -1.2082    1.0000 </r>
       <r>   -1.1853    1.0000 </r>
       <r>   -1.0928    1.0000 </r>
       <r>   -1.0898    1.0000 </r>
       <r>   -1.0887    1.0000 </r>
       <r>   -1.0864    1.0000 </r>
       <r>   -1.0497    1.0000 </r>
       <r>   -1.0075    1.0000 </r>
       <r>   -0.9824    1.0000 </r>
       <r>   -0.9287    1.0000 </r>
       <r>   -0.8734    1.0000 </r>
       <r>   -0.8656    1.0000 </r>
       <r>   -0.8452    1.0000 </r>
       <r>   -0.7778    1.0000 </r>
       <r>   -0.7764    1.0000 </r>
       <r>   -0.7484    1.0000 </r>
       <r>   -0.7217    1.0000 </r>
       <r>   -0.7166    1.0000 </r>
       <r>   -0.7096    1.0000 </r>
       <r>   -0.7062    1.0000 </r>
       <r>   -0.7019    1.0000 </r>
       <r>   -0.6756    1.0000 </r>
       <r>   -0.6749    1.0000 </r>
       <r>   -0.6745    1.0000 </r>
       <r>   -0.6726    1.0000 </r>
       <r>   -0.6546    1.0000 </r>
       <r>   -0.6539    1.0000 </r>
       <r>   -0.6535    1.0000 </r>
       <r>   -0.6218    1.0000 </r>
       <r>   -0.5176    1.0000 </r>
       <r>   -0.5166    1.0000 </r>
       <r>   -0.5156    1.0000 </r>
       <r>   -0.5146    1.0000 </r>
       <r>   -0.4619    1.0000 </r>
       <r>   -0.4584    1.0000 </r>
       <r>   -0.4575    1.0000 </r>
       <r>   -0.4570    1.0000 </r>
       <r>   -0.4541    1.0000 </r>
       <r>   -0.4536    1.0000 </r>
       <r>   -0.4529    1.0000 </r>
       <r>   -0.4497    1.0000 </r>
       <r>   -0.4259    1.0000 </r>
       <r>   -0.3994    1.0000 </r>
       <r>   -0.3849    1.0000 </r>
       <r>   -0.3799    1.0000 </r>
       <r>   -0.3763    1.0000 </r>
       <r>   -0.3688    1.0000 </r>
       <r>   -0.3570    1.0000 </r>
       <r>   -0.3538    1.0000 </r>
       <r>   -0.3488    1.0000 </r>
       <r>   -0.3464    1.0000 </r>
       <r>   -0.3426    1.0000 </r>
       <r>   -0.3397    1.0000 </r>
       <r>   -0.3298    1.0000 </r>
       <r>   -0.3265    1.0000 </r>
       <r>   -0.3253    1.0000 </r>
       <r>   -0.3232    1.0000 </r>
       <r>   -0.2757    1.0000 </r>
       <r>   -0.2256    1.0000 </r>
       <r>   -0.2213    1.0000 </r>
       <r>   -0.0991    1.0000 </r>
       <r>   -0.0450    1.0000 </r>
       <r>    0.0263    1.0000 </r>
       <r>    0.0693    1.0000 </r>
       <r>    0.1229    1.0000 </r>
       <r>    0.1582    1.0000 </r>
       <r>    0.1585    1.0000 </r>
       <r>    0.1763    1.0000 </r>
       <r>    0.1869    1.0000 </r>
       <r>    0.2032    1.0000 </r>
       <r>    0.2128    1.0000 </r>
       <r>    0.2139    1.0000 </r>
       <r>    0.2183    1.0000 </r>
       <r>    0.2208    1.0000 </r>
       <r>    0.2385    1.0000 </r>
       <r>    0.2430    1.0000 </r>
       <r>    0.2936    1.0000 </r>
       <r>    0.3187    1.0000 </r>
       <r>    0.3219    1.0000 </r>
       <r>    0.3437    1.0000 </r>
       <r>    0.3449    1.0000 </r>
       <r>    0.3490    1.0000 </r>
       <r>    0.3504    1.0000 </r>
       <r>    0.3713    1.0000 </r>
       <r>    0.3778    1.0000 </r>
       <r>    0.3966    1.0000 </r>
       <r>    0.4550    1.0000 </r>
       <r>    0.4600    1.0000 </r>
       <r>    0.4646    1.0000 </r>
       <r>    0.4653    1.0000 </r>
       <r>    0.4660    1.0000 </r>
       <r>    0.4729    1.0000 </r>
       <r>    0.4772    1.0000 </r>
       <r>    0.4776    1.0000 </r>
       <r>    0.5556    1.0000 </r>
       <r>    0.5599    1.0000 </r>
       <r>    0.5662    1.0000 </r>
       <r>    0.5852    1.0000 </r>
       <r>    0.5898    1.0000 </r>
       <r>    0.6935    1.0000 </r>
       <r>    0.6954    1.0000 </r>
       <r>    0.6994    1.0000 </r>
       <r>    0.7076    1.0000 </r>
       <r>    0.7345    1.0000 </r>
       <r>    0.8095    1.0000 </r>
       <r>    0.8114    1.0000 </r>
       <r>    0.8421    1.0000 </r>
       <r>    0.8557    1.0000 </r>
       <r>    0.8569    1.0000 </r>
       <r>    0.8819    1.0000 </r>
       <r>    0.8839    1.0000 </r>
       <r>    0.8851    1.0000 </r>
       <r>    0.9158    1.0000 </r>
       <r>    0.9940    1.0000 </r>
       <r>    0.9976    1.0000 </r>
       <r>    0.9988    1.0000 </r>
       <r>    1.0065    1.0000 </r>
       <r>    1.0241    1.0000 </r>
       <r>    1.0352    1.0000 </r>
       <r>    1.0890    1.0000 </r>
       <r>    1.1061    1.0000 </r>
       <r>    1.2090    1.0000 </r>
       <r>    1.2092    1.0000 </r>
       <r>    1.2248    1.0000 </r>
       <r>    1.2334    1.0000 </r>
       <r>    1.2484    1.0000 </r>
       <r>    1.2509    1.0000 </r>
       <r>    1.2545    1.0000 </r>
       <r>    1.2643    1.0000 </r>
       <r>    1.3183    1.0000 </r>
       <r>    1.3187    1.0000 </r>
       <r>    1.3647    1.0000 </r>
       <r>    1.3673    1.0000 </r>
       <r>    1.4029    1.0000 </r>
       <r>    1.4053    1.0000 </r>
       <r>    1.4404    1.0000 </r>
       <r>    1.4405    1.0000 </r>
       <r>    1.5036    1.0000 </r>
       <r>    1.5060    1.0000 </r>
       <r>    1.5405    1.0000 </r>
       <r>    1.5843    1.0000 </r>
       <r>    1.5911    1.0000 </r>
       <r>    1.5917    1.0000 </r>
       <r>    1.7660    1.0000 </r>
       <r>    1.7711    1.0000 </r>
       <r>    1.8477    1.0000 </r>
       <r>    1.8560    1.0000 </r>
       <r>    1.8623    1.0000 </r>
       <r>    1.8641    1.0000 </r>
       <r>    1.9219    1.0000 </r>
       <r>    1.9258    1.0000 </r>
       <r>    1.9519    1.0000 </r>
       <r>    1.9584    1.0000 </r>
       <r>    1.9812    1.0000 </r>
       <r>    1.9819    1.0000 </r>
       <r>    2.0248    1.0000 </r>
       <r>    2.0260    1.0000 </r>
       <r>    2.0651    1.0000 </r>
       <r>    2.0688    1.0000 </r>
       <r>    2.0964    1.0000 </r>
       <r>    2.0969    1.0000 </r>
       <r>    2.2246    1.0000 </r>
       <r>    2.2315    1.0000 </r>
       <r>    2.3994    1.0000 </r>
       <r>    2.4002    1.0000 </r>
       <r>    2.4057    1.0000 </r>
       <r>    2.4061    1.0000 </r>
       <r>    5.5535    0.0000 </r>
       <r>    6.6712    0.0000 </r>
       <r>    6.6902    0.0000 </r>
       <r>    6.6929    0.0000 </r>
       <r>    6.7219    0.0000 </r>
       <r>    6.8894    0.0000 </r>
       <r>    6.9313    0.0000 </r>
       <r>    7.0002    0.0000 </r>
       <r>    7.0115    0.0000 </r>
       <r>    7.0877    0.0000 </r>
       <r>    7.0970    0.0000 </r>
       <r>    7.1630    0.0000 </r>
       <r>    7.2136    0.0000 </r>
       <r>    7.2142    0.0000 </r>
       <r>    7.2298    0.0000 </r>
       <r>    7.2572    0.0000 </r>
       <r>    7.2904    0.0000 </r>
       <r>    7.2982    0.0000 </r>
       <r>    7.3074    0.0000 </r>
       <r>    7.3290    0.0000 </r>
       <r>    7.3337    0.0000 </r>
       <r>    7.3417    0.0000 </r>
       <r>    7.3455    0.0000 </r>
       <r>    7.3519    0.0000 </r>
       <r>    7.3617    0.0000 </r>
       <r>    7.3640    0.0000 </r>
       <r>    7.3854    0.0000 </r>
       <r>    7.3867    0.0000 </r>
       <r>    7.3939    0.0000 </r>
       <r>    7.3972    0.0000 </r>
       <r>    7.4296    0.0000 </r>
       <r>    7.4311    0.0000 </r>
       <r>    7.4678    0.0000 </r>
       <r>    7.7065    0.0000 </r>
       <r>    7.7426    0.0000 </r>
       <r>    7.7440    0.0000 </r>
       <r>    7.7488    0.0000 </r>
       <r>    7.7993    0.0000 </r>
       <r>    7.8368    0.0000 </r>
       <r>    7.8604    0.0000 </r>
       <r>    7.8766    0.0000 </r>
       <r>    7.8898    0.0000 </r>
       <r>    7.9091    0.0000 </r>
       <r>    7.9182    0.0000 </r>
       <r>    7.9223    0.0000 </r>
       <r>    7.9618    0.0000 </r>
       <r>    8.0050    0.0000 </r>
       <r>    8.0812    0.0000 </r>
       <r>    8.1250    0.0000 </r>
       <r>    8.1678    0.0000 </r>
       <r>    8.1720    0.0000 </r>
       <r>    8.1742    0.0000 </r>
       <r>    8.1887    0.0000 </r>
       <r>    8.2171    0.0000 </r>
       <r>    8.2229    0.0000 </r>
       <r>    8.2262    0.0000 </r>
       <r>    8.2440    0.0000 </r>
       <r>    8.2561    0.0000 </r>
       <r>    8.2718    0.0000 </r>
       <r>    8.2892    0.0000 </r>
       <r>    8.4375    0.0000 </r>
       <r>    8.5712    0.0000 </r>
       <r>    8.5821    0.0000 </r>
       <r>    8.5997    0.0000 </r>
       <r>    8.6380    0.0000 </r>
       <r>    8.6418    0.0000 </r>
       <r>    8.6517    0.0000 </r>
       <r>    8.6672    0.0000 </r>
       <r>    8.6750    0.0000 </r>
       <r>    8.6842    0.0000 </r>
       <r>    8.6888    0.0000 </r>
       <r>    8.6895    0.0000 </r>
       <r>    8.7332    0.0000 </r>
       <r>    8.9038    0.0000 </r>
       <r>    8.9776    0.0000 </r>
       <r>    9.0018    0.0000 </r>
       <r>    9.0177    0.0000 </r>
       <r>    9.0408    0.0000 </r>
       <r>    9.0840    0.0000 </r>
       <r>    9.1272    0.0000 </r>
       <r>    9.2287    0.0000 </r>
       <r>    9.2512    0.0000 </r>
       <r>    9.2667    0.0000 </r>
       <r>    9.2684    0.0000 </r>
       <r>    9.2799    0.0000 </r>
       <r>    9.2853    0.0000 </r>
       <r>    9.2970    0.0000 </r>
       <r>    9.2996    0.0000 </r>
       <r>    9.3050    0.0000 </r>
       <r>    9.3216    0.0000 </r>
       <r>    9.3268    0.0000 </r>
       <r>    9.3290    0.0000 </r>
       <r>    9.3318    0.0000 </r>
       <r>    9.3970    0.0000 </r>
       <r>    9.4951    0.0000 </r>
       <r>    9.5286    0.0000 </r>
       <r>    9.6509    0.0000 </r>
       <r>    9.6839    0.0000 </r>
       <r>    9.6873    0.0000 </r>
       <r>    9.6899    0.0000 </r>
       <r>    9.6924    0.0000 </r>
       <r>    9.7477    0.0000 </r>
       <r>    9.9096    0.0000 </r>
       <r>   10.0797    0.0000 </r>
       <r>   10.0959    0.0000 </r>
       <r>   10.0977    0.0000 </r>
       <r>   10.1092    0.0000 </r>
       <r>   10.1506    0.0000 </r>
       <r>   10.1723    0.0000 </r>
       <r>   10.1774    0.0000 </r>
       <r>   10.1982    0.0000 </r>
       <r>   10.2000    0.0000 </r>
       <r>   10.2304    0.0000 </r>
       <r>   10.2419    0.0000 </r>
       <r>   10.2844    0.0000 </r>
       <r>   10.3112    0.0000 </r>
       <r>   10.3200    0.0000 </r>
       <r>   10.3776    0.0000 </r>
       <r>   10.3817    0.0000 </r>
       <r>   10.3915    0.0000 </r>
       <r>   10.3956    0.0000 </r>
       <r>   10.4224    0.0000 </r>
       <r>   10.4395    0.0000 </r>
       <r>   10.4479    0.0000 </r>
       <r>   10.4753    0.0000 </r>
       <r>   10.5173    0.0000 </r>
       <r>   10.5400    0.0000 </r>
       <r>   10.6308    0.0000 </r>
       <r>   10.6769    0.0000 </r>
       <r>   10.7224    0.0000 </r>
       <r>   10.7227    0.0000 </r>
       <r>   10.7269    0.0000 </r>
       <r>   10.7346    0.0000 </r>
       <r>   10.7529    0.0000 </r>
       <r>   10.7606    0.0000 </r>
       <r>   10.7697    0.0000 </r>
       <r>   10.7891    0.0000 </r>
       <r>   10.7923    0.0000 </r>
       <r>   10.7954    0.0000 </r>
       <r>   10.8169    0.0000 </r>
       <r>   10.8186    0.0000 </r>
       <r>   11.2457    0.0000 </r>
       <r>   11.2651    0.0000 </r>
       <r>   11.5464    0.0000 </r>
       <r>   11.5901    0.0000 </r>
       <r>   11.6293    0.0000 </r>
       <r>   11.6712    0.0000 </r>
       <r>   11.7414    0.0000 </r>
       <r>   11.7431    0.0000 </r>
       <r>   11.7891    0.0000 </r>
       <r>   11.8147    0.0000 </r>
       <r>   12.3868    0.0000 </r>
      </set>
      <set comment="kpoint 5">
       <r>  -17.1661    1.0000 </r>
       <r>  -15.6762    1.0000 </r>
       <r>  -15.6761    1.0000 </r>
       <r>  -15.5680    1.0000 </r>
       <r>  -15.3953    1.0000 </r>
       <r>  -15.3094    1.0000 </r>
       <r>  -15.1584    1.0000 </r>
       <r>  -15.1565    1.0000 </r>
       <r>  -15.1564    1.0000 </r>
       <r>  -15.0704    1.0000 </r>
       <r>  -14.8863    1.0000 </r>
       <r>  -14.8641    1.0000 </r>
       <r>  -14.8634    1.0000 </r>
       <r>  -14.8457    1.0000 </r>
       <r>  -14.8385    1.0000 </r>
       <r>  -14.8374    1.0000 </r>
       <r>  -14.8346    1.0000 </r>
       <r>  -14.8345    1.0000 </r>
       <r>  -14.8274    1.0000 </r>
       <r>  -14.7634    1.0000 </r>
       <r>  -14.7631    1.0000 </r>
       <r>  -14.7437    1.0000 </r>
       <r>  -14.7034    1.0000 </r>
       <r>  -14.7033    1.0000 </r>
       <r>  -14.6445    1.0000 </r>
       <r>  -14.6335    1.0000 </r>
       <r>  -14.6316    1.0000 </r>
       <r>  -14.6209    1.0000 </r>
       <r>  -14.6183    1.0000 </r>
       <r>  -14.6135    1.0000 </r>
       <r>  -14.5464    1.0000 </r>
       <r>  -14.2497    1.0000 </r>
       <r>  -14.2496    1.0000 </r>
       <r>  -14.2408    1.0000 </r>
       <r>  -13.9115    1.0000 </r>
       <r>  -13.9114    1.0000 </r>
       <r>  -13.8506    1.0000 </r>
       <r>  -13.8478    1.0000 </r>
       <r>  -13.8434    1.0000 </r>
       <r>  -13.8426    1.0000 </r>
       <r>  -13.8390    1.0000 </r>
       <r>  -13.8380    1.0000 </r>
       <r>  -13.8367    1.0000 </r>
       <r>  -13.8110    1.0000 </r>
       <r>  -13.7950    1.0000 </r>
       <r>  -13.7949    1.0000 </r>
       <r>  -13.7839    1.0000 </r>
       <r>  -13.7775    1.0000 </r>
       <r>  -13.7774    1.0000 </r>
       <r>  -13.7503    1.0000 </r>
       <r>  -13.7493    1.0000 </r>
       <r>  -13.7493    1.0000 </r>
       <r>  -13.6419    1.0000 </r>
       <r>  -13.6398    1.0000 </r>
       <r>  -13.6375    1.0000 </r>
       <r>  -13.6370    1.0000 </r>
       <r>  -13.6352    1.0000 </r>
       <r>  -13.6320    1.0000 </r>
       <r>  -13.3979    1.0000 </r>
       <r>  -13.3947    1.0000 </r>
       <r>  -13.3941    1.0000 </r>
       <r>  -13.3939    1.0000 </r>
       <r>  -13.3934    1.0000 </r>
       <r>  -13.3914    1.0000 </r>
       <r>  -13.3707    1.0000 </r>
       <r>  -13.3706    1.0000 </r>
       <r>  -13.3565    1.0000 </r>
       <r>  -13.3497    1.0000 </r>
       <r>  -13.3496    1.0000 </r>
       <r>  -13.3492    1.0000 </r>
       <r>  -13.2600    1.0000 </r>
       <r>  -13.2600    1.0000 </r>
       <r>  -13.2092    1.0000 </r>
       <r>  -13.2055    1.0000 </r>
       <r>  -13.2043    1.0000 </r>
       <r>  -13.2036    1.0000 </r>
       <r>  -13.2029    1.0000 </r>
       <r>  -13.1990    1.0000 </r>
       <r>  -12.8860    1.0000 </r>
       <r>  -12.8555    1.0000 </r>
       <r>  -12.8554    1.0000 </r>
       <r>  -12.7714    1.0000 </r>
       <r>  -12.6721    1.0000 </r>
       <r>  -12.5884    1.0000 </r>
       <r>  -12.5883    1.0000 </r>
       <r>  -12.5881    1.0000 </r>
       <r>  -12.5326    1.0000 </r>
       <r>  -12.5326    1.0000 </r>
       <r>  -12.4966    1.0000 </r>
       <r>  -12.4966    1.0000 </r>
       <r>  -12.4675    1.0000 </r>
       <r>  -12.3486    1.0000 </r>
       <r>  -12.3342    1.0000 </r>
       <r>  -12.3312    1.0000 </r>
       <r>  -12.3203    1.0000 </r>
       <r>  -12.3200    1.0000 </r>
       <r>  -12.3153    1.0000 </r>
       <r>  -12.3121    1.0000 </r>
       <r>  -12.3119    1.0000 </r>
       <r>  -12.3039    1.0000 </r>
       <r>  -12.3037    1.0000 </r>
       <r>  -12.2948    1.0000 </r>
       <r>  -12.2945    1.0000 </r>
       <r>  -12.2896    1.0000 </r>
       <r>  -12.2891    1.0000 </r>
       <r>  -12.2881    1.0000 </r>
       <r>  -12.2878    1.0000 </r>
       <r>  -12.2786    1.0000 </r>
       <r>  -12.2766    1.0000 </r>
       <r>  -12.2699    1.0000 </r>
       <r>  -12.2697    1.0000 </r>
       <r>  -12.2672    1.0000 </r>
       <r>  -12.2670    1.0000 </r>
       <r>  -12.2561    1.0000 </r>
       <r>  -12.2553    1.0000 </r>
       <r>  -12.1929    1.0000 </r>
       <r>  -12.1921    1.0000 </r>
       <r>  -12.1918    1.0000 </r>
       <r>  -12.1845    1.0000 </r>
       <r>  -12.1834    1.0000 </r>
       <r>  -12.1833    1.0000 </r>
       <r>  -12.1607    1.0000 </r>
       <r>  -12.1577    1.0000 </r>
       <r>  -12.1544    1.0000 </r>
       <r>  -12.1532    1.0000 </r>
       <r>  -12.1513    1.0000 </r>
       <r>  -12.1507    1.0000 </r>
       <r>  -12.1490    1.0000 </r>
       <r>  -12.1439    1.0000 </r>
       <r>  -12.1430    1.0000 </r>
       <r>  -12.1413    1.0000 </r>
       <r>  -12.1402    1.0000 </r>
       <r>  -12.1339    1.0000 </r>
       <r>  -12.0647    1.0000 </r>
       <r>  -12.0618    1.0000 </r>
       <r>  -12.0582    1.0000 </r>
       <r>  -11.9604    1.0000 </r>
       <r>  -11.9604    1.0000 </r>
       <r>  -11.5946    1.0000 </r>
       <r>  -11.5943    1.0000 </r>
       <r>  -11.5937    1.0000 </r>
       <r>  -11.5934    1.0000 </r>
       <r>  -11.4707    1.0000 </r>
       <r>  -11.4668    1.0000 </r>
       <r>   -8.1765    1.0000 </r>
       <r>   -7.2988    1.0000 </r>
       <r>   -7.2988    1.0000 </r>
       <r>   -6.5941    1.0000 </r>
       <r>   -6.5940    1.0000 </r>
       <r>   -6.5331    1.0000 </r>
       <r>   -6.5258    1.0000 </r>
       <r>   -6.5257    1.0000 </r>
       <r>   -6.5239    1.0000 </r>
       <r>   -6.5205    1.0000 </r>
       <r>   -6.5205    1.0000 </r>
       <r>   -6.5020    1.0000 </r>
       <r>   -6.4691    1.0000 </r>
       <r>   -6.3918    1.0000 </r>
       <r>   -6.3899    1.0000 </r>
       <r>   -6.3881    1.0000 </r>
       <r>   -6.3091    1.0000 </r>
       <r>   -6.3091    1.0000 </r>
       <r>   -6.0934    1.0000 </r>
       <r>   -6.0934    1.0000 </r>
       <r>   -6.0273    1.0000 </r>
       <r>   -6.0272    1.0000 </r>
       <r>   -6.0046    1.0000 </r>
       <r>   -5.9866    1.0000 </r>
       <r>   -5.9064    1.0000 </r>
       <r>   -5.9064    1.0000 </r>
       <r>   -5.7166    1.0000 </r>
       <r>   -5.7164    1.0000 </r>
       <r>   -5.7104    1.0000 </r>
       <r>   -5.7103    1.0000 </r>
       <r>   -5.7076    1.0000 </r>
       <r>   -5.7075    1.0000 </r>
       <r>   -5.7013    1.0000 </r>
       <r>   -5.7013    1.0000 </r>
       <r>   -5.6929    1.0000 </r>
       <r>   -5.6886    1.0000 </r>
       <r>   -5.6875    1.0000 </r>
       <r>   -5.6847    1.0000 </r>
       <r>   -5.6835    1.0000 </r>
       <r>   -5.6832    1.0000 </r>
       <r>   -5.6780    1.0000 </r>
       <r>   -5.6765    1.0000 </r>
       <r>   -5.6719    1.0000 </r>
       <r>   -5.6717    1.0000 </r>
       <r>   -5.6701    1.0000 </r>
       <r>   -5.6700    1.0000 </r>
       <r>   -5.6654    1.0000 </r>
       <r>   -5.6653    1.0000 </r>
       <r>   -5.6632    1.0000 </r>
       <r>   -5.6631    1.0000 </r>
       <r>   -5.5815    1.0000 </r>
       <r>   -5.5809    1.0000 </r>
       <r>   -5.5616    1.0000 </r>
       <r>   -5.5590    1.0000 </r>
       <r>   -5.5577    1.0000 </r>
       <r>   -5.5573    1.0000 </r>
       <r>   -5.5549    1.0000 </r>
       <r>   -5.5549    1.0000 </r>
       <r>   -5.5549    1.0000 </r>
       <r>   -5.5527    1.0000 </r>
       <r>   -5.5510    1.0000 </r>
       <r>   -5.5503    1.0000 </r>
       <r>   -5.5490    1.0000 </r>
       <r>   -5.5478    1.0000 </r>
       <r>   -5.5462    1.0000 </r>
       <r>   -5.5423    1.0000 </r>
       <r>   -5.4190    1.0000 </r>
       <r>   -5.4177    1.0000 </r>
       <r>   -5.3587    1.0000 </r>
       <r>   -5.2307    1.0000 </r>
       <r>   -5.1381    1.0000 </r>
       <r>   -5.1381    1.0000 </r>
       <r>   -4.9856    1.0000 </r>
       <r>   -4.9187    1.0000 </r>
       <r>   -4.9186    1.0000 </r>
       <r>   -4.8706    1.0000 </r>
       <r>   -4.7461    1.0000 </r>
       <r>   -4.7461    1.0000 </r>
       <r>   -4.7452    1.0000 </r>
       <r>   -4.7452    1.0000 </r>
       <r>   -4.6191    1.0000 </r>
       <r>   -4.6191    1.0000 </r>
       <r>   -4.4792    1.0000 </r>
       <r>   -4.4791    1.0000 </r>
       <r>   -4.4782    1.0000 </r>
       <r>   -4.4761    1.0000 </r>
       <r>   -4.4760    1.0000 </r>
       <r>   -4.4759    1.0000 </r>
       <r>   -4.4716    1.0000 </r>
       <r>   -4.4716    1.0000 </r>
       <r>   -4.4701    1.0000 </r>
       <r>   -4.4685    1.0000 </r>
       <r>   -4.4685    1.0000 </r>
       <r>   -4.4683    1.0000 </r>
       <r>   -4.3425    1.0000 </r>
       <r>   -4.3412    1.0000 </r>
       <r>   -4.3389    1.0000 </r>
       <r>   -4.3389    1.0000 </r>
       <r>   -4.3365    1.0000 </r>
       <r>   -4.3354    1.0000 </r>
       <r>   -4.0737    1.0000 </r>
       <r>   -4.0360    1.0000 </r>
       <r>   -3.9235    1.0000 </r>
       <r>   -3.9235    1.0000 </r>
       <r>   -3.6230    1.0000 </r>
       <r>   -3.6230    1.0000 </r>
       <r>   -3.5974    1.0000 </r>
       <r>   -3.5859    1.0000 </r>
       <r>   -3.5588    1.0000 </r>
       <r>   -3.5153    1.0000 </r>
       <r>   -3.5152    1.0000 </r>
       <r>   -3.4230    1.0000 </r>
       <r>   -3.3535    1.0000 </r>
       <r>   -3.3181    1.0000 </r>
       <r>   -3.3180    1.0000 </r>
       <r>   -3.3029    1.0000 </r>
       <r>   -3.3029    1.0000 </r>
       <r>   -3.2201    1.0000 </r>
       <r>   -3.2160    1.0000 </r>
       <r>   -3.2160    1.0000 </r>
       <r>   -3.1819    1.0000 </r>
       <r>   -3.1728    1.0000 </r>
       <r>   -3.1727    1.0000 </r>
       <r>   -3.0981    1.0000 </r>
       <r>   -3.0980    1.0000 </r>
       <r>   -3.0977    1.0000 </r>
       <r>   -3.0966    1.0000 </r>
       <r>   -3.0966    1.0000 </r>
       <r>   -3.0965    1.0000 </r>
       <r>   -3.0959    1.0000 </r>
       <r>   -3.0959    1.0000 </r>
       <r>   -3.0955    1.0000 </r>
       <r>   -3.0952    1.0000 </r>
       <r>   -3.0951    1.0000 </r>
       <r>   -3.0950    1.0000 </r>
       <r>   -3.0182    1.0000 </r>
       <r>   -3.0180    1.0000 </r>
       <r>   -2.9735    1.0000 </r>
       <r>   -2.9708    1.0000 </r>
       <r>   -2.9691    1.0000 </r>
       <r>   -2.9685    1.0000 </r>
       <r>   -2.9669    1.0000 </r>
       <r>   -2.9659    1.0000 </r>
       <r>   -2.9645    1.0000 </r>
       <r>   -2.9259    1.0000 </r>
       <r>   -2.9257    1.0000 </r>
       <r>   -2.9211    1.0000 </r>
       <r>   -2.9211    1.0000 </r>
       <r>   -2.9189    1.0000 </r>
       <r>   -2.9188    1.0000 </r>
       <r>   -2.9131    1.0000 </r>
       <r>   -2.9130    1.0000 </r>
       <r>   -2.9086    1.0000 </r>
       <r>   -2.9037    1.0000 </r>
       <r>   -2.9023    1.0000 </r>
       <r>   -2.8964    1.0000 </r>
       <r>   -2.8938    1.0000 </r>
       <r>   -2.8925    1.0000 </r>
       <r>   -2.8877    1.0000 </r>
       <r>   -2.8859    1.0000 </r>
       <r>   -2.8823    1.0000 </r>
       <r>   -2.8822    1.0000 </r>
       <r>   -2.8803    1.0000 </r>
       <r>   -2.8802    1.0000 </r>
       <r>   -2.8760    1.0000 </r>
       <r>   -2.8759    1.0000 </r>
       <r>   -2.8733    1.0000 </r>
       <r>   -2.8733    1.0000 </r>
       <r>   -2.8576    1.0000 </r>
       <r>   -2.8292    1.0000 </r>
       <r>   -2.8281    1.0000 </r>
       <r>   -2.8042    1.0000 </r>
       <r>   -2.8026    1.0000 </r>
       <r>   -2.7934    1.0000 </r>
       <r>   -2.7742    1.0000 </r>
       <r>   -2.7717    1.0000 </r>
       <r>   -2.7709    1.0000 </r>
       <r>   -2.7701    1.0000 </r>
       <r>   -2.7677    1.0000 </r>
       <r>   -2.7666    1.0000 </r>
       <r>   -2.7647    1.0000 </r>
       <r>   -2.7618    1.0000 </r>
       <r>   -2.7604    1.0000 </r>
       <r>   -2.7598    1.0000 </r>
       <r>   -2.7592    1.0000 </r>
       <r>   -2.7557    1.0000 </r>
       <r>   -2.3792    1.0000 </r>
       <r>   -2.2335    1.0000 </r>
       <r>   -2.2335    1.0000 </r>
       <r>   -2.2123    1.0000 </r>
       <r>   -2.1183    1.0000 </r>
       <r>   -2.0969    1.0000 </r>
       <r>   -2.0897    1.0000 </r>
       <r>   -2.0897    1.0000 </r>
       <r>   -1.9795    1.0000 </r>
       <r>   -1.9473    1.0000 </r>
       <r>   -1.9472    1.0000 </r>
       <r>   -1.9457    1.0000 </r>
       <r>   -1.9457    1.0000 </r>
       <r>   -1.8931    1.0000 </r>
       <r>   -1.7145    1.0000 </r>
       <r>   -1.7145    1.0000 </r>
       <r>   -1.7144    1.0000 </r>
       <r>   -1.7098    1.0000 </r>
       <r>   -1.7097    1.0000 </r>
       <r>   -1.7097    1.0000 </r>
       <r>   -1.6816    1.0000 </r>
       <r>   -1.6814    1.0000 </r>
       <r>   -1.6691    1.0000 </r>
       <r>   -1.6613    1.0000 </r>
       <r>   -1.6340    1.0000 </r>
       <r>   -1.6340    1.0000 </r>
       <r>   -1.5934    1.0000 </r>
       <r>   -1.5931    1.0000 </r>
       <r>   -1.5825    1.0000 </r>
       <r>   -1.5807    1.0000 </r>
       <r>   -1.5789    1.0000 </r>
       <r>   -1.5721    1.0000 </r>
       <r>   -1.5719    1.0000 </r>
       <r>   -1.5691    1.0000 </r>
       <r>   -1.5476    1.0000 </r>
       <r>   -1.5219    1.0000 </r>
       <r>   -1.5218    1.0000 </r>
       <r>   -1.5022    1.0000 </r>
       <r>   -1.5020    1.0000 </r>
       <r>   -1.5016    1.0000 </r>
       <r>   -1.5010    1.0000 </r>
       <r>   -1.4999    1.0000 </r>
       <r>   -1.4998    1.0000 </r>
       <r>   -1.4971    1.0000 </r>
       <r>   -1.4907    1.0000 </r>
       <r>   -1.4906    1.0000 </r>
       <r>   -1.4905    1.0000 </r>
       <r>   -1.4905    1.0000 </r>
       <r>   -1.4882    1.0000 </r>
       <r>   -1.4874    1.0000 </r>
       <r>   -1.4870    1.0000 </r>
       <r>   -1.4870    1.0000 </r>
       <r>   -1.4812    1.0000 </r>
       <r>   -1.4470    1.0000 </r>
       <r>   -1.4447    1.0000 </r>
       <r>   -1.4312    1.0000 </r>
       <r>   -1.4296    1.0000 </r>
       <r>   -1.4284    1.0000 </r>
       <r>   -1.3876    1.0000 </r>
       <r>   -1.3786    1.0000 </r>
       <r>   -1.3772    1.0000 </r>
       <r>   -1.3744    1.0000 </r>
       <r>   -1.3722    1.0000 </r>
       <r>   -1.3708    1.0000 </r>
       <r>   -1.3658    1.0000 </r>
       <r>   -1.3629    1.0000 </r>
       <r>   -1.3611    1.0000 </r>
       <r>   -1.3602    1.0000 </r>
       <r>   -1.3579    1.0000 </r>
       <r>   -1.3570    1.0000 </r>
       <r>   -1.2298    1.0000 </r>
       <r>   -1.2218    1.0000 </r>
       <r>   -1.2216    1.0000 </r>
       <r>   -1.1525    1.0000 </r>
       <r>   -1.1517    1.0000 </r>
       <r>   -1.1516    1.0000 </r>
       <r>   -1.1505    1.0000 </r>
       <r>   -1.1504    1.0000 </r>
       <r>   -1.1494    1.0000 </r>
       <r>   -1.1481    1.0000 </r>
       <r>   -1.1472    1.0000 </r>
       <r>   -1.1472    1.0000 </r>
       <r>   -1.1461    1.0000 </r>
       <r>   -1.1461    1.0000 </r>
       <r>   -1.1452    1.0000 </r>
       <r>   -1.1233    1.0000 </r>
       <r>   -1.1212    1.0000 </r>
       <r>   -1.1211    1.0000 </r>
       <r>   -1.0681    1.0000 </r>
       <r>   -1.0246    1.0000 </r>
       <r>   -1.0211    1.0000 </r>
       <r>   -1.0193    1.0000 </r>
       <r>   -1.0190    1.0000 </r>
       <r>   -1.0174    1.0000 </r>
       <r>   -1.0138    1.0000 </r>
       <r>   -1.0025    1.0000 </r>
       <r>   -1.0024    1.0000 </r>
       <r>   -0.9884    1.0000 </r>
       <r>   -0.8610    1.0000 </r>
       <r>   -0.8608    1.0000 </r>
       <r>   -0.8596    1.0000 </r>
       <r>   -0.8512    1.0000 </r>
       <r>   -0.8509    1.0000 </r>
       <r>   -0.8491    1.0000 </r>
       <r>   -0.8432    1.0000 </r>
       <r>   -0.8431    1.0000 </r>
       <r>   -0.8346    1.0000 </r>
       <r>   -0.8341    1.0000 </r>
       <r>   -0.8339    1.0000 </r>
       <r>   -0.8256    1.0000 </r>
       <r>   -0.7519    1.0000 </r>
       <r>   -0.7473    1.0000 </r>
       <r>   -0.7457    1.0000 </r>
       <r>   -0.7433    1.0000 </r>
       <r>   -0.7426    1.0000 </r>
       <r>   -0.7406    1.0000 </r>
       <r>   -0.7236    1.0000 </r>
       <r>   -0.7224    1.0000 </r>
       <r>   -0.7200    1.0000 </r>
       <r>   -0.7175    1.0000 </r>
       <r>   -0.7148    1.0000 </r>
       <r>   -0.7095    1.0000 </r>
       <r>   -0.4348    1.0000 </r>
       <r>   -0.4348    1.0000 </r>
       <r>   -0.4001    1.0000 </r>
       <r>   -0.3399    1.0000 </r>
       <r>   -0.3345    1.0000 </r>
       <r>   -0.3343    1.0000 </r>
       <r>   -0.3338    1.0000 </r>
       <r>   -0.2555    1.0000 </r>
       <r>   -0.2555    1.0000 </r>
       <r>   -0.1344    1.0000 </r>
       <r>   -0.1274    1.0000 </r>
       <r>   -0.1255    1.0000 </r>
       <r>   -0.1231    1.0000 </r>
       <r>   -0.1211    1.0000 </r>
       <r>   -0.1192    1.0000 </r>
       <r>   -0.0870    1.0000 </r>
       <r>   -0.0869    1.0000 </r>
       <r>   -0.0386    1.0000 </r>
       <r>    0.0432    1.0000 </r>
       <r>    0.0434    1.0000 </r>
       <r>    0.1764    1.0000 </r>
       <r>    0.2137    1.0000 </r>
       <r>    0.2161    1.0000 </r>
       <r>    0.2172    1.0000 </r>
       <r>    0.2174    1.0000 </r>
       <r>    0.2198    1.0000 </r>
       <r>    0.2200    1.0000 </r>
       <r>    0.2266    1.0000 </r>
       <r>    0.2267    1.0000 </r>
       <r>    0.2329    1.0000 </r>
       <r>    0.2362    1.0000 </r>
       <r>    0.2363    1.0000 </r>
       <r>    0.2393    1.0000 </r>
       <r>    0.2394    1.0000 </r>
       <r>    0.2445    1.0000 </r>
       <r>    0.2479    1.0000 </r>
       <r>    0.3499    1.0000 </r>
       <r>    0.3536    1.0000 </r>
       <r>    0.3554    1.0000 </r>
       <r>    0.3598    1.0000 </r>
       <r>    0.3599    1.0000 </r>
       <r>    0.3604    1.0000 </r>
       <r>    0.3621    1.0000 </r>
       <r>    0.3671    1.0000 </r>
       <r>    0.4289    1.0000 </r>
       <r>    0.4351    1.0000 </r>
       <r>    0.4370    1.0000 </r>
       <r>    0.4386    1.0000 </r>
       <r>    0.4397    1.0000 </r>
       <r>    0.4421    1.0000 </r>
       <r>    0.5065    1.0000 </r>
       <r>    0.5859    1.0000 </r>
       <r>    0.6414    1.0000 </r>
       <r>    0.6416    1.0000 </r>
       <r>    0.7207    1.0000 </r>
       <r>    0.7208    1.0000 </r>
       <r>    0.7447    1.0000 </r>
       <r>    0.7448    1.0000 </r>
       <r>    0.7504    1.0000 </r>
       <r>    0.7774    1.0000 </r>
       <r>    0.7831    1.0000 </r>
       <r>    0.7832    1.0000 </r>
       <r>    0.9076    1.0000 </r>
       <r>    0.9248    1.0000 </r>
       <r>    0.9257    1.0000 </r>
       <r>    0.9263    1.0000 </r>
       <r>    0.9418    1.0000 </r>
       <r>    0.9424    1.0000 </r>
       <r>    0.9468    1.0000 </r>
       <r>    0.9469    1.0000 </r>
       <r>    0.9514    1.0000 </r>
       <r>    0.9520    1.0000 </r>
       <r>    0.9528    1.0000 </r>
       <r>    0.9613    1.0000 </r>
       <r>    0.9628    1.0000 </r>
       <r>    0.9641    1.0000 </r>
       <r>    0.9681    1.0000 </r>
       <r>    1.1331    1.0000 </r>
       <r>    1.1332    1.0000 </r>
       <r>    1.1349    1.0000 </r>
       <r>    1.1349    1.0000 </r>
       <r>    1.1803    1.0000 </r>
       <r>    1.1826    1.0000 </r>
       <r>    1.1835    1.0000 </r>
       <r>    1.2590    1.0000 </r>
       <r>    1.2639    1.0000 </r>
       <r>    1.4234    1.0000 </r>
       <r>    1.4236    1.0000 </r>
       <r>    1.5023    1.0000 </r>
       <r>    1.5464    1.0000 </r>
       <r>    1.5854    1.0000 </r>
       <r>    1.5858    1.0000 </r>
       <r>    1.6194    1.0000 </r>
       <r>    1.6197    1.0000 </r>
       <r>    1.6490    1.0000 </r>
       <r>    1.6662    1.0000 </r>
       <r>    1.6673    1.0000 </r>
       <r>    1.6674    1.0000 </r>
       <r>    1.7242    1.0000 </r>
       <r>    1.7244    1.0000 </r>
       <r>    1.7264    1.0000 </r>
       <r>    1.7702    1.0000 </r>
       <r>    1.7885    1.0000 </r>
       <r>    1.7899    1.0000 </r>
       <r>    1.7910    1.0000 </r>
       <r>    1.8041    1.0000 </r>
       <r>    1.8049    1.0000 </r>
       <r>    1.8136    1.0000 </r>
       <r>    1.8142    1.0000 </r>
       <r>    1.8208    1.0000 </r>
       <r>    1.8229    1.0000 </r>
       <r>    1.8244    1.0000 </r>
       <r>    1.8291    1.0000 </r>
       <r>    1.8919    1.0000 </r>
       <r>    1.8941    1.0000 </r>
       <r>    1.8958    1.0000 </r>
       <r>    2.0494    1.0000 </r>
       <r>    2.0494    1.0000 </r>
       <r>    2.3687    1.0000 </r>
       <r>    2.3730    1.0000 </r>
       <r>    2.3770    1.0000 </r>
       <r>    2.3788    1.0000 </r>
       <r>    2.4997    1.0000 </r>
       <r>    2.5017    1.0000 </r>
       <r>    5.5461    0.0000 </r>
       <r>    6.5235    0.0000 </r>
       <r>    6.5235    0.0000 </r>
       <r>    6.7451    0.0000 </r>
       <r>    6.7665    0.0000 </r>
       <r>    6.7843    0.0000 </r>
       <r>    6.8611    0.0000 </r>
       <r>    6.8620    0.0000 </r>
       <r>    6.8697    0.0000 </r>
       <r>    7.1394    0.0000 </r>
       <r>    7.1847    0.0000 </r>
       <r>    7.1848    0.0000 </r>
       <r>    7.1895    0.0000 </r>
       <r>    7.1896    0.0000 </r>
       <r>    7.2989    0.0000 </r>
       <r>    7.2990    0.0000 </r>
       <r>    7.3168    0.0000 </r>
       <r>    7.3170    0.0000 </r>
       <r>    7.3682    0.0000 </r>
       <r>    7.4374    0.0000 </r>
       <r>    7.4375    0.0000 </r>
       <r>    7.5255    0.0000 </r>
       <r>    7.5256    0.0000 </r>
       <r>    7.5769    0.0000 </r>
       <r>    7.5848    0.0000 </r>
       <r>    7.5849    0.0000 </r>
       <r>    7.5991    0.0000 </r>
       <r>    7.6334    0.0000 </r>
       <r>    7.6335    0.0000 </r>
       <r>    7.6406    0.0000 </r>
       <r>    7.6958    0.0000 </r>
       <r>    7.6963    0.0000 </r>
       <r>    7.7166    0.0000 </r>
       <r>    7.7225    0.0000 </r>
       <r>    7.7268    0.0000 </r>
       <r>    7.7286    0.0000 </r>
       <r>    7.7432    0.0000 </r>
       <r>    7.7438    0.0000 </r>
       <r>    7.7502    0.0000 </r>
       <r>    7.7525    0.0000 </r>
       <r>    7.7560    0.0000 </r>
       <r>    7.7575    0.0000 </r>
       <r>    7.8176    0.0000 </r>
       <r>    7.8184    0.0000 </r>
       <r>    7.8207    0.0000 </r>
       <r>    8.0312    0.0000 </r>
       <r>    8.0925    0.0000 </r>
       <r>    8.0926    0.0000 </r>
       <r>    8.1022    0.0000 </r>
       <r>    8.1535    0.0000 </r>
       <r>    8.1537    0.0000 </r>
       <r>    8.1892    0.0000 </r>
       <r>    8.1893    0.0000 </r>
       <r>    8.2168    0.0000 </r>
       <r>    8.2238    0.0000 </r>
       <r>    8.2238    0.0000 </r>
       <r>    8.2289    0.0000 </r>
       <r>    8.3213    0.0000 </r>
       <r>    8.3216    0.0000 </r>
       <r>    8.3243    0.0000 </r>
       <r>    8.3313    0.0000 </r>
       <r>    8.3403    0.0000 </r>
       <r>    8.3426    0.0000 </r>
       <r>    8.3451    0.0000 </r>
       <r>    8.3486    0.0000 </r>
       <r>    8.3497    0.0000 </r>
       <r>    8.3603    0.0000 </r>
       <r>    8.3626    0.0000 </r>
       <r>    8.3639    0.0000 </r>
       <r>    8.3657    0.0000 </r>
       <r>    8.3708    0.0000 </r>
       <r>    8.8681    0.0000 </r>
       <r>    8.9251    0.0000 </r>
       <r>    8.9252    0.0000 </r>
       <r>    9.0873    0.0000 </r>
       <r>    9.0876    0.0000 </r>
       <r>    9.1084    0.0000 </r>
       <r>    9.1085    0.0000 </r>
       <r>    9.1335    0.0000 </r>
       <r>    9.1432    0.0000 </r>
       <r>    9.1435    0.0000 </r>
       <r>    9.1695    0.0000 </r>
       <r>    9.1763    0.0000 </r>
       <r>    9.2005    0.0000 </r>
       <r>    9.2007    0.0000 </r>
       <r>    9.2262    0.0000 </r>
       <r>    9.2275    0.0000 </r>
       <r>    9.2399    0.0000 </r>
       <r>    9.2751    0.0000 </r>
       <r>    9.3184    0.0000 </r>
       <r>    9.3191    0.0000 </r>
       <r>    9.3901    0.0000 </r>
       <r>    9.3905    0.0000 </r>
       <r>    9.3915    0.0000 </r>
       <r>    9.4639    0.0000 </r>
       <r>    9.6128    0.0000 </r>
       <r>    9.6135    0.0000 </r>
       <r>    9.6854    0.0000 </r>
       <r>    9.7764    0.0000 </r>
       <r>    9.7766    0.0000 </r>
       <r>    9.7944    0.0000 </r>
       <r>    9.7944    0.0000 </r>
       <r>    9.8026    0.0000 </r>
       <r>    9.9512    0.0000 </r>
       <r>    9.9526    0.0000 </r>
       <r>    9.9533    0.0000 </r>
       <r>    9.9763    0.0000 </r>
       <r>    9.9797    0.0000 </r>
       <r>    9.9808    0.0000 </r>
       <r>   10.0847    0.0000 </r>
       <r>   10.1344    0.0000 </r>
       <r>   10.1351    0.0000 </r>
       <r>   10.1498    0.0000 </r>
       <r>   10.1504    0.0000 </r>
       <r>   10.1710    0.0000 </r>
       <r>   10.1854    0.0000 </r>
       <r>   10.1859    0.0000 </r>
       <r>   10.1926    0.0000 </r>
       <r>   10.2061    0.0000 </r>
       <r>   10.2065    0.0000 </r>
       <r>   10.2978    0.0000 </r>
       <r>   10.5560    0.0000 </r>
       <r>   10.6249    0.0000 </r>
       <r>   10.6253    0.0000 </r>
       <r>   10.6452    0.0000 </r>
       <r>   10.6454    0.0000 </r>
       <r>   10.6651    0.0000 </r>
       <r>   10.8081    0.0000 </r>
       <r>   10.8146    0.0000 </r>
       <r>   10.8153    0.0000 </r>
       <r>   10.8192    0.0000 </r>
       <r>   10.8203    0.0000 </r>
       <r>   10.8216    0.0000 </r>
       <r>   11.3048    0.0000 </r>
       <r>   11.3514    0.0000 </r>
       <r>   11.3730    0.0000 </r>
       <r>   11.4327    0.0000 </r>
       <r>   11.4829    0.0000 </r>
       <r>   11.4906    0.0000 </r>
       <r>   11.5020    0.0000 </r>
       <r>   11.5245    0.0000 </r>
       <r>   11.5677    0.0000 </r>
       <r>   11.5825    0.0000 </r>
       <r>   11.6470    0.0000 </r>
       <r>   11.6999    0.0000 </r>
       <r>   11.7174    0.0000 </r>
       <r>   11.7490    0.0000 </r>
       <r>   11.7688    0.0000 </r>
       <r>   11.8086    0.0000 </r>
       <r>   11.8250    0.0000 </r>
       <r>   11.8402    0.0000 </r>
       <r>   11.8808    0.0000 </r>
      </set>
      <set comment="kpoint 6">
       <r>  -17.1658    1.0000 </r>
       <r>  -15.7429    1.0000 </r>
       <r>  -15.6885    1.0000 </r>
       <r>  -15.4121    1.0000 </r>
       <r>  -15.2833    1.0000 </r>
       <r>  -15.2746    1.0000 </r>
       <r>  -15.2422    1.0000 </r>
       <r>  -15.2042    1.0000 </r>
       <r>  -15.1417    1.0000 </r>
       <r>  -15.0833    1.0000 </r>
       <r>  -15.0471    1.0000 </r>
       <r>  -15.0339    1.0000 </r>
       <r>  -15.0152    1.0000 </r>
       <r>  -14.9846    1.0000 </r>
       <r>  -14.9834    1.0000 </r>
       <r>  -14.9062    1.0000 </r>
       <r>  -14.8988    1.0000 </r>
       <r>  -14.8522    1.0000 </r>
       <r>  -14.7581    1.0000 </r>
       <r>  -14.7573    1.0000 </r>
       <r>  -14.6145    1.0000 </r>
       <r>  -14.5661    1.0000 </r>
       <r>  -14.5389    1.0000 </r>
       <r>  -14.4660    1.0000 </r>
       <r>  -14.4626    1.0000 </r>
       <r>  -14.4603    1.0000 </r>
       <r>  -14.4584    1.0000 </r>
       <r>  -14.4216    1.0000 </r>
       <r>  -14.4023    1.0000 </r>
       <r>  -14.3957    1.0000 </r>
       <r>  -14.3847    1.0000 </r>
       <r>  -14.3349    1.0000 </r>
       <r>  -14.2481    1.0000 </r>
       <r>  -14.2452    1.0000 </r>
       <r>  -14.2440    1.0000 </r>
       <r>  -14.2419    1.0000 </r>
       <r>  -14.2070    1.0000 </r>
       <r>  -14.2066    1.0000 </r>
       <r>  -14.1682    1.0000 </r>
       <r>  -14.1493    1.0000 </r>
       <r>  -14.1057    1.0000 </r>
       <r>  -14.0341    1.0000 </r>
       <r>  -13.9988    1.0000 </r>
       <r>  -13.9961    1.0000 </r>
       <r>  -13.9392    1.0000 </r>
       <r>  -13.7792    1.0000 </r>
       <r>  -13.7414    1.0000 </r>
       <r>  -13.7399    1.0000 </r>
       <r>  -13.7123    1.0000 </r>
       <r>  -13.7112    1.0000 </r>
       <r>  -13.7021    1.0000 </r>
       <r>  -13.6803    1.0000 </r>
       <r>  -13.6572    1.0000 </r>
       <r>  -13.6551    1.0000 </r>
       <r>  -13.5965    1.0000 </r>
       <r>  -13.5327    1.0000 </r>
       <r>  -13.5323    1.0000 </r>
       <r>  -13.5206    1.0000 </r>
       <r>  -13.5170    1.0000 </r>
       <r>  -13.5018    1.0000 </r>
       <r>  -13.3575    1.0000 </r>
       <r>  -13.3334    1.0000 </r>
       <r>  -13.2537    1.0000 </r>
       <r>  -13.2219    1.0000 </r>
       <r>  -13.1077    1.0000 </r>
       <r>  -13.0681    1.0000 </r>
       <r>  -13.0637    1.0000 </r>
       <r>  -13.0620    1.0000 </r>
       <r>  -13.0604    1.0000 </r>
       <r>  -13.0326    1.0000 </r>
       <r>  -13.0262    1.0000 </r>
       <r>  -13.0229    1.0000 </r>
       <r>  -13.0162    1.0000 </r>
       <r>  -12.9709    1.0000 </r>
       <r>  -12.9229    1.0000 </r>
       <r>  -12.8940    1.0000 </r>
       <r>  -12.8925    1.0000 </r>
       <r>  -12.8890    1.0000 </r>
       <r>  -12.8886    1.0000 </r>
       <r>  -12.8796    1.0000 </r>
       <r>  -12.8781    1.0000 </r>
       <r>  -12.8770    1.0000 </r>
       <r>  -12.8746    1.0000 </r>
       <r>  -12.8656    1.0000 </r>
       <r>  -12.8597    1.0000 </r>
       <r>  -12.8560    1.0000 </r>
       <r>  -12.8504    1.0000 </r>
       <r>  -12.8500    1.0000 </r>
       <r>  -12.7182    1.0000 </r>
       <r>  -12.7154    1.0000 </r>
       <r>  -12.7144    1.0000 </r>
       <r>  -12.7119    1.0000 </r>
       <r>  -12.6816    1.0000 </r>
       <r>  -12.6087    1.0000 </r>
       <r>  -12.5980    1.0000 </r>
       <r>  -12.5764    1.0000 </r>
       <r>  -12.5731    1.0000 </r>
       <r>  -12.5512    1.0000 </r>
       <r>  -12.5328    1.0000 </r>
       <r>  -12.4982    1.0000 </r>
       <r>  -12.4351    1.0000 </r>
       <r>  -12.4283    1.0000 </r>
       <r>  -12.4232    1.0000 </r>
       <r>  -12.4217    1.0000 </r>
       <r>  -12.3419    1.0000 </r>
       <r>  -12.3381    1.0000 </r>
       <r>  -12.3212    1.0000 </r>
       <r>  -12.3170    1.0000 </r>
       <r>  -12.2463    1.0000 </r>
       <r>  -12.2452    1.0000 </r>
       <r>  -12.2367    1.0000 </r>
       <r>  -12.2323    1.0000 </r>
       <r>  -12.2191    1.0000 </r>
       <r>  -12.2176    1.0000 </r>
       <r>  -12.2081    1.0000 </r>
       <r>  -12.2053    1.0000 </r>
       <r>  -12.1776    1.0000 </r>
       <r>  -12.1753    1.0000 </r>
       <r>  -12.1701    1.0000 </r>
       <r>  -12.1699    1.0000 </r>
       <r>  -12.0965    1.0000 </r>
       <r>  -12.0961    1.0000 </r>
       <r>  -12.0909    1.0000 </r>
       <r>  -12.0880    1.0000 </r>
       <r>  -12.0842    1.0000 </r>
       <r>  -12.0829    1.0000 </r>
       <r>  -11.9507    1.0000 </r>
       <r>  -11.9478    1.0000 </r>
       <r>  -11.9464    1.0000 </r>
       <r>  -11.9433    1.0000 </r>
       <r>  -11.8162    1.0000 </r>
       <r>  -11.8150    1.0000 </r>
       <r>  -11.8075    1.0000 </r>
       <r>  -11.8070    1.0000 </r>
       <r>  -11.8041    1.0000 </r>
       <r>  -11.8035    1.0000 </r>
       <r>  -11.7852    1.0000 </r>
       <r>  -11.7849    1.0000 </r>
       <r>  -11.7796    1.0000 </r>
       <r>  -11.7793    1.0000 </r>
       <r>  -11.6687    1.0000 </r>
       <r>  -11.6681    1.0000 </r>
       <r>  -11.6645    1.0000 </r>
       <r>  -11.6580    1.0000 </r>
       <r>   -8.1622    1.0000 </r>
       <r>   -7.2497    1.0000 </r>
       <r>   -7.2351    1.0000 </r>
       <r>   -6.7831    1.0000 </r>
       <r>   -6.6995    1.0000 </r>
       <r>   -6.6786    1.0000 </r>
       <r>   -6.4258    1.0000 </r>
       <r>   -6.4020    1.0000 </r>
       <r>   -6.3172    1.0000 </r>
       <r>   -6.3086    1.0000 </r>
       <r>   -6.3055    1.0000 </r>
       <r>   -6.3037    1.0000 </r>
       <r>   -6.2978    1.0000 </r>
       <r>   -6.2835    1.0000 </r>
       <r>   -6.2755    1.0000 </r>
       <r>   -6.2748    1.0000 </r>
       <r>   -6.2685    1.0000 </r>
       <r>   -6.2683    1.0000 </r>
       <r>   -6.2154    1.0000 </r>
       <r>   -6.2131    1.0000 </r>
       <r>   -6.2108    1.0000 </r>
       <r>   -6.2072    1.0000 </r>
       <r>   -6.1950    1.0000 </r>
       <r>   -6.1919    1.0000 </r>
       <r>   -6.1587    1.0000 </r>
       <r>   -6.1584    1.0000 </r>
       <r>   -6.1524    1.0000 </r>
       <r>   -6.1472    1.0000 </r>
       <r>   -6.0721    1.0000 </r>
       <r>   -6.0709    1.0000 </r>
       <r>   -5.9351    1.0000 </r>
       <r>   -5.9277    1.0000 </r>
       <r>   -5.9107    1.0000 </r>
       <r>   -5.9034    1.0000 </r>
       <r>   -5.8365    1.0000 </r>
       <r>   -5.7894    1.0000 </r>
       <r>   -5.7812    1.0000 </r>
       <r>   -5.7693    1.0000 </r>
       <r>   -5.7685    1.0000 </r>
       <r>   -5.7654    1.0000 </r>
       <r>   -5.7613    1.0000 </r>
       <r>   -5.7587    1.0000 </r>
       <r>   -5.7585    1.0000 </r>
       <r>   -5.7581    1.0000 </r>
       <r>   -5.7561    1.0000 </r>
       <r>   -5.7505    1.0000 </r>
       <r>   -5.7348    1.0000 </r>
       <r>   -5.6802    1.0000 </r>
       <r>   -5.6517    1.0000 </r>
       <r>   -5.6390    1.0000 </r>
       <r>   -5.6239    1.0000 </r>
       <r>   -5.6231    1.0000 </r>
       <r>   -5.6209    1.0000 </r>
       <r>   -5.6188    1.0000 </r>
       <r>   -5.2293    1.0000 </r>
       <r>   -5.2268    1.0000 </r>
       <r>   -5.2245    1.0000 </r>
       <r>   -5.2241    1.0000 </r>
       <r>   -5.2237    1.0000 </r>
       <r>   -5.2196    1.0000 </r>
       <r>   -5.2190    1.0000 </r>
       <r>   -5.2189    1.0000 </r>
       <r>   -5.2180    1.0000 </r>
       <r>   -5.2173    1.0000 </r>
       <r>   -5.2171    1.0000 </r>
       <r>   -5.2165    1.0000 </r>
       <r>   -5.1064    1.0000 </r>
       <r>   -5.0952    1.0000 </r>
       <r>   -5.0949    1.0000 </r>
       <r>   -5.0909    1.0000 </r>
       <r>   -5.0892    1.0000 </r>
       <r>   -5.0876    1.0000 </r>
       <r>   -5.0864    1.0000 </r>
       <r>   -5.0844    1.0000 </r>
       <r>   -5.0084    1.0000 </r>
       <r>   -4.9190    1.0000 </r>
       <r>   -4.8269    1.0000 </r>
       <r>   -4.5973    1.0000 </r>
       <r>   -4.5428    1.0000 </r>
       <r>   -4.5347    1.0000 </r>
       <r>   -4.4751    1.0000 </r>
       <r>   -4.4724    1.0000 </r>
       <r>   -4.4717    1.0000 </r>
       <r>   -4.4710    1.0000 </r>
       <r>   -4.4706    1.0000 </r>
       <r>   -4.4693    1.0000 </r>
       <r>   -4.4679    1.0000 </r>
       <r>   -4.4677    1.0000 </r>
       <r>   -4.3433    1.0000 </r>
       <r>   -4.3414    1.0000 </r>
       <r>   -4.3401    1.0000 </r>
       <r>   -4.3373    1.0000 </r>
       <r>   -4.3118    1.0000 </r>
       <r>   -4.1905    1.0000 </r>
       <r>   -4.0919    1.0000 </r>
       <r>   -4.0876    1.0000 </r>
       <r>   -4.0874    1.0000 </r>
       <r>   -4.0841    1.0000 </r>
       <r>   -4.0828    1.0000 </r>
       <r>   -4.0746    1.0000 </r>
       <r>   -4.0745    1.0000 </r>
       <r>   -4.0713    1.0000 </r>
       <r>   -4.0701    1.0000 </r>
       <r>   -4.0354    1.0000 </r>
       <r>   -4.0246    1.0000 </r>
       <r>   -3.9505    1.0000 </r>
       <r>   -3.9498    1.0000 </r>
       <r>   -3.9469    1.0000 </r>
       <r>   -3.9458    1.0000 </r>
       <r>   -3.9074    1.0000 </r>
       <r>   -3.8632    1.0000 </r>
       <r>   -3.7743    1.0000 </r>
       <r>   -3.6225    1.0000 </r>
       <r>   -3.6202    1.0000 </r>
       <r>   -3.6153    1.0000 </r>
       <r>   -3.6139    1.0000 </r>
       <r>   -3.6046    1.0000 </r>
       <r>   -3.6034    1.0000 </r>
       <r>   -3.5981    1.0000 </r>
       <r>   -3.5976    1.0000 </r>
       <r>   -3.5945    1.0000 </r>
       <r>   -3.4793    1.0000 </r>
       <r>   -3.4784    1.0000 </r>
       <r>   -3.4772    1.0000 </r>
       <r>   -3.4747    1.0000 </r>
       <r>   -3.4688    1.0000 </r>
       <r>   -3.4679    1.0000 </r>
       <r>   -3.4673    1.0000 </r>
       <r>   -3.4655    1.0000 </r>
       <r>   -3.4650    1.0000 </r>
       <r>   -3.3890    1.0000 </r>
       <r>   -3.3575    1.0000 </r>
       <r>   -3.3422    1.0000 </r>
       <r>   -3.3388    1.0000 </r>
       <r>   -3.3366    1.0000 </r>
       <r>   -3.3143    1.0000 </r>
       <r>   -3.3070    1.0000 </r>
       <r>   -3.1464    1.0000 </r>
       <r>   -3.0895    1.0000 </r>
       <r>   -3.0773    1.0000 </r>
       <r>   -3.0727    1.0000 </r>
       <r>   -3.0721    1.0000 </r>
       <r>   -3.0660    1.0000 </r>
       <r>   -3.0026    1.0000 </r>
       <r>   -2.9994    1.0000 </r>
       <r>   -2.9864    1.0000 </r>
       <r>   -2.9393    1.0000 </r>
       <r>   -2.9382    1.0000 </r>
       <r>   -2.8454    1.0000 </r>
       <r>   -2.7636    1.0000 </r>
       <r>   -2.7601    1.0000 </r>
       <r>   -2.7516    1.0000 </r>
       <r>   -2.7276    1.0000 </r>
       <r>   -2.7234    1.0000 </r>
       <r>   -2.6736    1.0000 </r>
       <r>   -2.6722    1.0000 </r>
       <r>   -2.6687    1.0000 </r>
       <r>   -2.6496    1.0000 </r>
       <r>   -2.6132    1.0000 </r>
       <r>   -2.5456    1.0000 </r>
       <r>   -2.5432    1.0000 </r>
       <r>   -2.5424    1.0000 </r>
       <r>   -2.5146    1.0000 </r>
       <r>   -2.4622    1.0000 </r>
       <r>   -2.3910    1.0000 </r>
       <r>   -2.3858    1.0000 </r>
       <r>   -2.3772    1.0000 </r>
       <r>   -2.3746    1.0000 </r>
       <r>   -2.3730    1.0000 </r>
       <r>   -2.3716    1.0000 </r>
       <r>   -2.3715    1.0000 </r>
       <r>   -2.3704    1.0000 </r>
       <r>   -2.3699    1.0000 </r>
       <r>   -2.3680    1.0000 </r>
       <r>   -2.3659    1.0000 </r>
       <r>   -2.3415    1.0000 </r>
       <r>   -2.2702    1.0000 </r>
       <r>   -2.2636    1.0000 </r>
       <r>   -2.2567    1.0000 </r>
       <r>   -2.2455    1.0000 </r>
       <r>   -2.2415    1.0000 </r>
       <r>   -2.2399    1.0000 </r>
       <r>   -2.2385    1.0000 </r>
       <r>   -2.2356    1.0000 </r>
       <r>   -2.2060    1.0000 </r>
       <r>   -2.1941    1.0000 </r>
       <r>   -2.1932    1.0000 </r>
       <r>   -2.1629    1.0000 </r>
       <r>   -2.1501    1.0000 </r>
       <r>   -2.1430    1.0000 </r>
       <r>   -2.1242    1.0000 </r>
       <r>   -2.0976    1.0000 </r>
       <r>   -2.0910    1.0000 </r>
       <r>   -2.0907    1.0000 </r>
       <r>   -2.0854    1.0000 </r>
       <r>   -2.0852    1.0000 </r>
       <r>   -2.0577    1.0000 </r>
       <r>   -2.0573    1.0000 </r>
       <r>   -2.0510    1.0000 </r>
       <r>   -2.0507    1.0000 </r>
       <r>   -2.0079    1.0000 </r>
       <r>   -1.9626    1.0000 </r>
       <r>   -1.9430    1.0000 </r>
       <r>   -1.9427    1.0000 </r>
       <r>   -1.9344    1.0000 </r>
       <r>   -1.9313    1.0000 </r>
       <r>   -1.9301    1.0000 </r>
       <r>   -1.9062    1.0000 </r>
       <r>   -1.9051    1.0000 </r>
       <r>   -1.8975    1.0000 </r>
       <r>   -1.8958    1.0000 </r>
       <r>   -1.8629    1.0000 </r>
       <r>   -1.8603    1.0000 </r>
       <r>   -1.8598    1.0000 </r>
       <r>   -1.8589    1.0000 </r>
       <r>   -1.8582    1.0000 </r>
       <r>   -1.8576    1.0000 </r>
       <r>   -1.8564    1.0000 </r>
       <r>   -1.8550    1.0000 </r>
       <r>   -1.8518    1.0000 </r>
       <r>   -1.7785    1.0000 </r>
       <r>   -1.7784    1.0000 </r>
       <r>   -1.7777    1.0000 </r>
       <r>   -1.7775    1.0000 </r>
       <r>   -1.7742    1.0000 </r>
       <r>   -1.7739    1.0000 </r>
       <r>   -1.7727    1.0000 </r>
       <r>   -1.7726    1.0000 </r>
       <r>   -1.7456    1.0000 </r>
       <r>   -1.7423    1.0000 </r>
       <r>   -1.7412    1.0000 </r>
       <r>   -1.7400    1.0000 </r>
       <r>   -1.7111    1.0000 </r>
       <r>   -1.7053    1.0000 </r>
       <r>   -1.6626    1.0000 </r>
       <r>   -1.6465    1.0000 </r>
       <r>   -1.6454    1.0000 </r>
       <r>   -1.6447    1.0000 </r>
       <r>   -1.6415    1.0000 </r>
       <r>   -1.6228    1.0000 </r>
       <r>   -1.6094    1.0000 </r>
       <r>   -1.6076    1.0000 </r>
       <r>   -1.5848    1.0000 </r>
       <r>   -1.5837    1.0000 </r>
       <r>   -1.5794    1.0000 </r>
       <r>   -1.5574    1.0000 </r>
       <r>   -1.5551    1.0000 </r>
       <r>   -1.5499    1.0000 </r>
       <r>   -1.4509    1.0000 </r>
       <r>   -1.4443    1.0000 </r>
       <r>   -1.4408    1.0000 </r>
       <r>   -1.4340    1.0000 </r>
       <r>   -1.2547    1.0000 </r>
       <r>   -1.2519    1.0000 </r>
       <r>   -1.2356    1.0000 </r>
       <r>   -1.2350    1.0000 </r>
       <r>   -1.2262    1.0000 </r>
       <r>   -1.2238    1.0000 </r>
       <r>   -1.2206    1.0000 </r>
       <r>   -1.2067    1.0000 </r>
       <r>   -1.2063    1.0000 </r>
       <r>   -1.2059    1.0000 </r>
       <r>   -1.2057    1.0000 </r>
       <r>   -1.1918    1.0000 </r>
       <r>   -1.1880    1.0000 </r>
       <r>   -1.1828    1.0000 </r>
       <r>   -1.1710    1.0000 </r>
       <r>   -1.1487    1.0000 </r>
       <r>   -1.1159    1.0000 </r>
       <r>   -1.0886    1.0000 </r>
       <r>   -1.0882    1.0000 </r>
       <r>   -1.0829    1.0000 </r>
       <r>   -1.0772    1.0000 </r>
       <r>   -1.0538    1.0000 </r>
       <r>   -1.0092    1.0000 </r>
       <r>   -0.9289    1.0000 </r>
       <r>   -0.9138    1.0000 </r>
       <r>   -0.9105    1.0000 </r>
       <r>   -0.9087    1.0000 </r>
       <r>   -0.9006    1.0000 </r>
       <r>   -0.8549    1.0000 </r>
       <r>   -0.8441    1.0000 </r>
       <r>   -0.8218    1.0000 </r>
       <r>   -0.7760    1.0000 </r>
       <r>   -0.7081    1.0000 </r>
       <r>   -0.6858    1.0000 </r>
       <r>   -0.6845    1.0000 </r>
       <r>   -0.6527    1.0000 </r>
       <r>   -0.5970    1.0000 </r>
       <r>   -0.5948    1.0000 </r>
       <r>   -0.5911    1.0000 </r>
       <r>   -0.5227    1.0000 </r>
       <r>   -0.5178    1.0000 </r>
       <r>   -0.5175    1.0000 </r>
       <r>   -0.5149    1.0000 </r>
       <r>   -0.5139    1.0000 </r>
       <r>   -0.4616    1.0000 </r>
       <r>   -0.4578    1.0000 </r>
       <r>   -0.4576    1.0000 </r>
       <r>   -0.4566    1.0000 </r>
       <r>   -0.4533    1.0000 </r>
       <r>   -0.4528    1.0000 </r>
       <r>   -0.4528    1.0000 </r>
       <r>   -0.4487    1.0000 </r>
       <r>   -0.4030    1.0000 </r>
       <r>   -0.3878    1.0000 </r>
       <r>   -0.3820    1.0000 </r>
       <r>   -0.3548    1.0000 </r>
       <r>   -0.3520    1.0000 </r>
       <r>   -0.3492    1.0000 </r>
       <r>   -0.3464    1.0000 </r>
       <r>   -0.3445    1.0000 </r>
       <r>   -0.3289    1.0000 </r>
       <r>   -0.3266    1.0000 </r>
       <r>   -0.3255    1.0000 </r>
       <r>   -0.3222    1.0000 </r>
       <r>   -0.2755    1.0000 </r>
       <r>   -0.2629    1.0000 </r>
       <r>   -0.2572    1.0000 </r>
       <r>   -0.2565    1.0000 </r>
       <r>   -0.2564    1.0000 </r>
       <r>   -0.2539    1.0000 </r>
       <r>   -0.2461    1.0000 </r>
       <r>   -0.2274    1.0000 </r>
       <r>   -0.2244    1.0000 </r>
       <r>   -0.2153    1.0000 </r>
       <r>   -0.2091    1.0000 </r>
       <r>   -0.1406    1.0000 </r>
       <r>   -0.1396    1.0000 </r>
       <r>   -0.0450    1.0000 </r>
       <r>   -0.0062    1.0000 </r>
       <r>    0.0016    1.0000 </r>
       <r>    0.0083    1.0000 </r>
       <r>    0.0118    1.0000 </r>
       <r>    0.0182    1.0000 </r>
       <r>    0.0187    1.0000 </r>
       <r>    0.0345    1.0000 </r>
       <r>    0.0357    1.0000 </r>
       <r>    0.0744    1.0000 </r>
       <r>    0.1871    1.0000 </r>
       <r>    0.2885    1.0000 </r>
       <r>    0.3192    1.0000 </r>
       <r>    0.3434    1.0000 </r>
       <r>    0.3456    1.0000 </r>
       <r>    0.3487    1.0000 </r>
       <r>    0.3508    1.0000 </r>
       <r>    0.3747    1.0000 </r>
       <r>    0.3968    1.0000 </r>
       <r>    0.4529    1.0000 </r>
       <r>    0.4766    1.0000 </r>
       <r>    0.4807    1.0000 </r>
       <r>    0.4895    1.0000 </r>
       <r>    0.5095    1.0000 </r>
       <r>    0.5572    1.0000 </r>
       <r>    0.5588    1.0000 </r>
       <r>    0.5662    1.0000 </r>
       <r>    0.5866    1.0000 </r>
       <r>    0.5887    1.0000 </r>
       <r>    0.5968    1.0000 </r>
       <r>    0.6203    1.0000 </r>
       <r>    0.6359    1.0000 </r>
       <r>    0.6562    1.0000 </r>
       <r>    0.6937    1.0000 </r>
       <r>    0.7076    1.0000 </r>
       <r>    0.7338    1.0000 </r>
       <r>    0.7363    1.0000 </r>
       <r>    0.8551    1.0000 </r>
       <r>    0.8555    1.0000 </r>
       <r>    0.8569    1.0000 </r>
       <r>    0.8630    1.0000 </r>
       <r>    0.8640    1.0000 </r>
       <r>    0.8667    1.0000 </r>
       <r>    0.8686    1.0000 </r>
       <r>    0.8745    1.0000 </r>
       <r>    0.8765    1.0000 </r>
       <r>    0.8773    1.0000 </r>
       <r>    0.8835    1.0000 </r>
       <r>    0.8860    1.0000 </r>
       <r>    0.8955    1.0000 </r>
       <r>    0.8966    1.0000 </r>
       <r>    0.9057    1.0000 </r>
       <r>    0.9091    1.0000 </r>
       <r>    0.9947    1.0000 </r>
       <r>    0.9980    1.0000 </r>
       <r>    1.0595    1.0000 </r>
       <r>    1.0653    1.0000 </r>
       <r>    1.0778    1.0000 </r>
       <r>    1.0789    1.0000 </r>
       <r>    1.0942    1.0000 </r>
       <r>    1.0953    1.0000 </r>
       <r>    1.1084    1.0000 </r>
       <r>    1.1105    1.0000 </r>
       <r>    1.1180    1.0000 </r>
       <r>    1.2575    1.0000 </r>
       <r>    1.2632    1.0000 </r>
       <r>    1.3108    1.0000 </r>
       <r>    1.4357    1.0000 </r>
       <r>    1.4539    1.0000 </r>
       <r>    1.4551    1.0000 </r>
       <r>    1.4709    1.0000 </r>
       <r>    1.6004    1.0000 </r>
       <r>    1.6023    1.0000 </r>
       <r>    1.6054    1.0000 </r>
       <r>    1.6062    1.0000 </r>
       <r>    1.6163    1.0000 </r>
       <r>    1.6262    1.0000 </r>
       <r>    1.6572    1.0000 </r>
       <r>    1.6679    1.0000 </r>
       <r>    1.7136    1.0000 </r>
       <r>    1.7144    1.0000 </r>
       <r>    1.7687    1.0000 </r>
       <r>    1.7741    1.0000 </r>
       <r>    1.8449    1.0000 </r>
       <r>    1.8510    1.0000 </r>
       <r>    1.8532    1.0000 </r>
       <r>    1.8629    1.0000 </r>
       <r>    1.8651    1.0000 </r>
       <r>    1.8705    1.0000 </r>
       <r>    1.8781    1.0000 </r>
       <r>    1.8822    1.0000 </r>
       <r>    1.9904    1.0000 </r>
       <r>    2.0035    1.0000 </r>
       <r>    2.1887    1.0000 </r>
       <r>    2.1904    1.0000 </r>
       <r>    2.1968    1.0000 </r>
       <r>    2.1994    1.0000 </r>
       <r>    2.2082    1.0000 </r>
       <r>    2.2110    1.0000 </r>
       <r>    2.3792    1.0000 </r>
       <r>    2.3823    1.0000 </r>
       <r>    2.3889    1.0000 </r>
       <r>    2.3894    1.0000 </r>
       <r>    5.5466    0.0000 </r>
       <r>    6.6591    0.0000 </r>
       <r>    6.6756    0.0000 </r>
       <r>    6.6834    0.0000 </r>
       <r>    6.7936    0.0000 </r>
       <r>    6.8858    0.0000 </r>
       <r>    6.9413    0.0000 </r>
       <r>    7.0091    0.0000 </r>
       <r>    7.0223    0.0000 </r>
       <r>    7.0459    0.0000 </r>
       <r>    7.0550    0.0000 </r>
       <r>    7.0760    0.0000 </r>
       <r>    7.0867    0.0000 </r>
       <r>    7.1082    0.0000 </r>
       <r>    7.1173    0.0000 </r>
       <r>    7.1449    0.0000 </r>
       <r>    7.1464    0.0000 </r>
       <r>    7.2568    0.0000 </r>
       <r>    7.2657    0.0000 </r>
       <r>    7.2659    0.0000 </r>
       <r>    7.2866    0.0000 </r>
       <r>    7.2869    0.0000 </r>
       <r>    7.4417    0.0000 </r>
       <r>    7.4581    0.0000 </r>
       <r>    7.4663    0.0000 </r>
       <r>    7.4811    0.0000 </r>
       <r>    7.4892    0.0000 </r>
       <r>    7.5707    0.0000 </r>
       <r>    7.5752    0.0000 </r>
       <r>    7.6365    0.0000 </r>
       <r>    7.6476    0.0000 </r>
       <r>    7.6602    0.0000 </r>
       <r>    7.6646    0.0000 </r>
       <r>    7.6662    0.0000 </r>
       <r>    7.6679    0.0000 </r>
       <r>    7.6845    0.0000 </r>
       <r>    7.7172    0.0000 </r>
       <r>    7.7338    0.0000 </r>
       <r>    7.7361    0.0000 </r>
       <r>    7.7952    0.0000 </r>
       <r>    7.8471    0.0000 </r>
       <r>    7.8813    0.0000 </r>
       <r>    7.8993    0.0000 </r>
       <r>    7.9713    0.0000 </r>
       <r>    7.9781    0.0000 </r>
       <r>    8.0039    0.0000 </r>
       <r>    8.0061    0.0000 </r>
       <r>    8.0967    0.0000 </r>
       <r>    8.0997    0.0000 </r>
       <r>    8.1132    0.0000 </r>
       <r>    8.2083    0.0000 </r>
       <r>    8.2296    0.0000 </r>
       <r>    8.2533    0.0000 </r>
       <r>    8.2892    0.0000 </r>
       <r>    8.3390    0.0000 </r>
       <r>    8.3413    0.0000 </r>
       <r>    8.3683    0.0000 </r>
       <r>    8.4743    0.0000 </r>
       <r>    8.4822    0.0000 </r>
       <r>    8.4915    0.0000 </r>
       <r>    8.4944    0.0000 </r>
       <r>    8.4980    0.0000 </r>
       <r>    8.5093    0.0000 </r>
       <r>    8.5098    0.0000 </r>
       <r>    8.5107    0.0000 </r>
       <r>    8.5348    0.0000 </r>
       <r>    8.5701    0.0000 </r>
       <r>    8.6005    0.0000 </r>
       <r>    8.6274    0.0000 </r>
       <r>    8.7872    0.0000 </r>
       <r>    8.8300    0.0000 </r>
       <r>    8.9033    0.0000 </r>
       <r>    8.9110    0.0000 </r>
       <r>    8.9301    0.0000 </r>
       <r>    9.0005    0.0000 </r>
       <r>    9.0078    0.0000 </r>
       <r>    9.0120    0.0000 </r>
       <r>    9.0198    0.0000 </r>
       <r>    9.0204    0.0000 </r>
       <r>    9.0244    0.0000 </r>
       <r>    9.0310    0.0000 </r>
       <r>    9.1320    0.0000 </r>
       <r>    9.1443    0.0000 </r>
       <r>    9.1637    0.0000 </r>
       <r>    9.1658    0.0000 </r>
       <r>    9.1846    0.0000 </r>
       <r>    9.2086    0.0000 </r>
       <r>    9.2091    0.0000 </r>
       <r>    9.2132    0.0000 </r>
       <r>    9.3697    0.0000 </r>
       <r>    9.4068    0.0000 </r>
       <r>    9.4130    0.0000 </r>
       <r>    9.4322    0.0000 </r>
       <r>    9.4448    0.0000 </r>
       <r>    9.4492    0.0000 </r>
       <r>    9.5849    0.0000 </r>
       <r>    9.6024    0.0000 </r>
       <r>    9.6038    0.0000 </r>
       <r>    9.6063    0.0000 </r>
       <r>    9.6080    0.0000 </r>
       <r>    9.6393    0.0000 </r>
       <r>    9.6657    0.0000 </r>
       <r>    9.7115    0.0000 </r>
       <r>    9.7130    0.0000 </r>
       <r>    9.7139    0.0000 </r>
       <r>    9.7299    0.0000 </r>
       <r>    9.7695    0.0000 </r>
       <r>    9.7873    0.0000 </r>
       <r>    9.8361    0.0000 </r>
       <r>    9.8364    0.0000 </r>
       <r>    9.9239    0.0000 </r>
       <r>    9.9269    0.0000 </r>
       <r>    9.9646    0.0000 </r>
       <r>    9.9696    0.0000 </r>
       <r>    9.9723    0.0000 </r>
       <r>   10.0345    0.0000 </r>
       <r>   10.0716    0.0000 </r>
       <r>   10.1153    0.0000 </r>
       <r>   10.1336    0.0000 </r>
       <r>   10.3108    0.0000 </r>
       <r>   10.3470    0.0000 </r>
       <r>   10.4278    0.0000 </r>
       <r>   10.4281    0.0000 </r>
       <r>   10.5260    0.0000 </r>
       <r>   10.5271    0.0000 </r>
       <r>   10.5493    0.0000 </r>
       <r>   10.5540    0.0000 </r>
       <r>   10.8978    0.0000 </r>
       <r>   11.0001    0.0000 </r>
       <r>   11.2075    0.0000 </r>
       <r>   11.2112    0.0000 </r>
       <r>   11.2919    0.0000 </r>
       <r>   11.4113    0.0000 </r>
       <r>   11.4174    0.0000 </r>
       <r>   11.4359    0.0000 </r>
       <r>   11.4414    0.0000 </r>
       <r>   11.5065    0.0000 </r>
       <r>   11.5363    0.0000 </r>
       <r>   11.5536    0.0000 </r>
       <r>   11.5849    0.0000 </r>
       <r>   11.5930    0.0000 </r>
       <r>   11.5970    0.0000 </r>
       <r>   11.6105    0.0000 </r>
       <r>   11.6247    0.0000 </r>
       <r>   11.6642    0.0000 </r>
       <r>   11.7306    0.0000 </r>
       <r>   11.8120    0.0000 </r>
       <r>   11.8828    0.0000 </r>
       <r>   11.9144    0.0000 </r>
       <r>   11.9485    0.0000 </r>
       <r>   11.9785    0.0000 </r>
       <r>   12.0008    0.0000 </r>
      </set>
      <set comment="kpoint 7">
       <r>  -17.1658    1.0000 </r>
       <r>  -15.7429    1.0000 </r>
       <r>  -15.6886    1.0000 </r>
       <r>  -15.4121    1.0000 </r>
       <r>  -15.2833    1.0000 </r>
       <r>  -15.2747    1.0000 </r>
       <r>  -15.2420    1.0000 </r>
       <r>  -15.2042    1.0000 </r>
       <r>  -15.1416    1.0000 </r>
       <r>  -15.0834    1.0000 </r>
       <r>  -15.0470    1.0000 </r>
       <r>  -15.0342    1.0000 </r>
       <r>  -15.0150    1.0000 </r>
       <r>  -14.9841    1.0000 </r>
       <r>  -14.9839    1.0000 </r>
       <r>  -14.9063    1.0000 </r>
       <r>  -14.8987    1.0000 </r>
       <r>  -14.8522    1.0000 </r>
       <r>  -14.7599    1.0000 </r>
       <r>  -14.7556    1.0000 </r>
       <r>  -14.6146    1.0000 </r>
       <r>  -14.5661    1.0000 </r>
       <r>  -14.5389    1.0000 </r>
       <r>  -14.4665    1.0000 </r>
       <r>  -14.4634    1.0000 </r>
       <r>  -14.4594    1.0000 </r>
       <r>  -14.4579    1.0000 </r>
       <r>  -14.4218    1.0000 </r>
       <r>  -14.4023    1.0000 </r>
       <r>  -14.3957    1.0000 </r>
       <r>  -14.3845    1.0000 </r>
       <r>  -14.3350    1.0000 </r>
       <r>  -14.2492    1.0000 </r>
       <r>  -14.2468    1.0000 </r>
       <r>  -14.2427    1.0000 </r>
       <r>  -14.2404    1.0000 </r>
       <r>  -14.2072    1.0000 </r>
       <r>  -14.2065    1.0000 </r>
       <r>  -14.1682    1.0000 </r>
       <r>  -14.1493    1.0000 </r>
       <r>  -14.1057    1.0000 </r>
       <r>  -14.0340    1.0000 </r>
       <r>  -13.9977    1.0000 </r>
       <r>  -13.9974    1.0000 </r>
       <r>  -13.9392    1.0000 </r>
       <r>  -13.7793    1.0000 </r>
       <r>  -13.7420    1.0000 </r>
       <r>  -13.7396    1.0000 </r>
       <r>  -13.7117    1.0000 </r>
       <r>  -13.7115    1.0000 </r>
       <r>  -13.7021    1.0000 </r>
       <r>  -13.6803    1.0000 </r>
       <r>  -13.6572    1.0000 </r>
       <r>  -13.6551    1.0000 </r>
       <r>  -13.5965    1.0000 </r>
       <r>  -13.5353    1.0000 </r>
       <r>  -13.5303    1.0000 </r>
       <r>  -13.5187    1.0000 </r>
       <r>  -13.5180    1.0000 </r>
       <r>  -13.5018    1.0000 </r>
       <r>  -13.3575    1.0000 </r>
       <r>  -13.3334    1.0000 </r>
       <r>  -13.2538    1.0000 </r>
       <r>  -13.2219    1.0000 </r>
       <r>  -13.1078    1.0000 </r>
       <r>  -13.0683    1.0000 </r>
       <r>  -13.0646    1.0000 </r>
       <r>  -13.0615    1.0000 </r>
       <r>  -13.0599    1.0000 </r>
       <r>  -13.0327    1.0000 </r>
       <r>  -13.0261    1.0000 </r>
       <r>  -13.0227    1.0000 </r>
       <r>  -13.0163    1.0000 </r>
       <r>  -12.9709    1.0000 </r>
       <r>  -12.9229    1.0000 </r>
       <r>  -12.8943    1.0000 </r>
       <r>  -12.8913    1.0000 </r>
       <r>  -12.8906    1.0000 </r>
       <r>  -12.8887    1.0000 </r>
       <r>  -12.8790    1.0000 </r>
       <r>  -12.8788    1.0000 </r>
       <r>  -12.8763    1.0000 </r>
       <r>  -12.8747    1.0000 </r>
       <r>  -12.8656    1.0000 </r>
       <r>  -12.8598    1.0000 </r>
       <r>  -12.8561    1.0000 </r>
       <r>  -12.8504    1.0000 </r>
       <r>  -12.8500    1.0000 </r>
       <r>  -12.7182    1.0000 </r>
       <r>  -12.7152    1.0000 </r>
       <r>  -12.7148    1.0000 </r>
       <r>  -12.7115    1.0000 </r>
       <r>  -12.6817    1.0000 </r>
       <r>  -12.6086    1.0000 </r>
       <r>  -12.5983    1.0000 </r>
       <r>  -12.5764    1.0000 </r>
       <r>  -12.5728    1.0000 </r>
       <r>  -12.5512    1.0000 </r>
       <r>  -12.5328    1.0000 </r>
       <r>  -12.4981    1.0000 </r>
       <r>  -12.4351    1.0000 </r>
       <r>  -12.4293    1.0000 </r>
       <r>  -12.4228    1.0000 </r>
       <r>  -12.4217    1.0000 </r>
       <r>  -12.3418    1.0000 </r>
       <r>  -12.3383    1.0000 </r>
       <r>  -12.3213    1.0000 </r>
       <r>  -12.3170    1.0000 </r>
       <r>  -12.2463    1.0000 </r>
       <r>  -12.2448    1.0000 </r>
       <r>  -12.2367    1.0000 </r>
       <r>  -12.2323    1.0000 </r>
       <r>  -12.2190    1.0000 </r>
       <r>  -12.2180    1.0000 </r>
       <r>  -12.2081    1.0000 </r>
       <r>  -12.2052    1.0000 </r>
       <r>  -12.1765    1.0000 </r>
       <r>  -12.1760    1.0000 </r>
       <r>  -12.1702    1.0000 </r>
       <r>  -12.1699    1.0000 </r>
       <r>  -12.0961    1.0000 </r>
       <r>  -12.0953    1.0000 </r>
       <r>  -12.0880    1.0000 </r>
       <r>  -12.0872    1.0000 </r>
       <r>  -12.0871    1.0000 </r>
       <r>  -12.0842    1.0000 </r>
       <r>  -11.9509    1.0000 </r>
       <r>  -11.9476    1.0000 </r>
       <r>  -11.9465    1.0000 </r>
       <r>  -11.9432    1.0000 </r>
       <r>  -11.8176    1.0000 </r>
       <r>  -11.8137    1.0000 </r>
       <r>  -11.8082    1.0000 </r>
       <r>  -11.8070    1.0000 </r>
       <r>  -11.8042    1.0000 </r>
       <r>  -11.8035    1.0000 </r>
       <r>  -11.7850    1.0000 </r>
       <r>  -11.7848    1.0000 </r>
       <r>  -11.7795    1.0000 </r>
       <r>  -11.7793    1.0000 </r>
       <r>  -11.6719    1.0000 </r>
       <r>  -11.6656    1.0000 </r>
       <r>  -11.6616    1.0000 </r>
       <r>  -11.6602    1.0000 </r>
       <r>   -8.1622    1.0000 </r>
       <r>   -7.2497    1.0000 </r>
       <r>   -7.2351    1.0000 </r>
       <r>   -6.7830    1.0000 </r>
       <r>   -6.6995    1.0000 </r>
       <r>   -6.6786    1.0000 </r>
       <r>   -6.4259    1.0000 </r>
       <r>   -6.4020    1.0000 </r>
       <r>   -6.3172    1.0000 </r>
       <r>   -6.3087    1.0000 </r>
       <r>   -6.3056    1.0000 </r>
       <r>   -6.3037    1.0000 </r>
       <r>   -6.2979    1.0000 </r>
       <r>   -6.2835    1.0000 </r>
       <r>   -6.2754    1.0000 </r>
       <r>   -6.2746    1.0000 </r>
       <r>   -6.2685    1.0000 </r>
       <r>   -6.2683    1.0000 </r>
       <r>   -6.2156    1.0000 </r>
       <r>   -6.2131    1.0000 </r>
       <r>   -6.2109    1.0000 </r>
       <r>   -6.2069    1.0000 </r>
       <r>   -6.1949    1.0000 </r>
       <r>   -6.1919    1.0000 </r>
       <r>   -6.1593    1.0000 </r>
       <r>   -6.1584    1.0000 </r>
       <r>   -6.1495    1.0000 </r>
       <r>   -6.1489    1.0000 </r>
       <r>   -6.0744    1.0000 </r>
       <r>   -6.0692    1.0000 </r>
       <r>   -5.9351    1.0000 </r>
       <r>   -5.9277    1.0000 </r>
       <r>   -5.9108    1.0000 </r>
       <r>   -5.9033    1.0000 </r>
       <r>   -5.8366    1.0000 </r>
       <r>   -5.7898    1.0000 </r>
       <r>   -5.7819    1.0000 </r>
       <r>   -5.7694    1.0000 </r>
       <r>   -5.7684    1.0000 </r>
       <r>   -5.7655    1.0000 </r>
       <r>   -5.7614    1.0000 </r>
       <r>   -5.7588    1.0000 </r>
       <r>   -5.7586    1.0000 </r>
       <r>   -5.7580    1.0000 </r>
       <r>   -5.7560    1.0000 </r>
       <r>   -5.7504    1.0000 </r>
       <r>   -5.7348    1.0000 </r>
       <r>   -5.6802    1.0000 </r>
       <r>   -5.6516    1.0000 </r>
       <r>   -5.6390    1.0000 </r>
       <r>   -5.6244    1.0000 </r>
       <r>   -5.6223    1.0000 </r>
       <r>   -5.6212    1.0000 </r>
       <r>   -5.6183    1.0000 </r>
       <r>   -5.2292    1.0000 </r>
       <r>   -5.2269    1.0000 </r>
       <r>   -5.2244    1.0000 </r>
       <r>   -5.2240    1.0000 </r>
       <r>   -5.2236    1.0000 </r>
       <r>   -5.2197    1.0000 </r>
       <r>   -5.2190    1.0000 </r>
       <r>   -5.2190    1.0000 </r>
       <r>   -5.2179    1.0000 </r>
       <r>   -5.2173    1.0000 </r>
       <r>   -5.2170    1.0000 </r>
       <r>   -5.2167    1.0000 </r>
       <r>   -5.1064    1.0000 </r>
       <r>   -5.0949    1.0000 </r>
       <r>   -5.0928    1.0000 </r>
       <r>   -5.0909    1.0000 </r>
       <r>   -5.0890    1.0000 </r>
       <r>   -5.0885    1.0000 </r>
       <r>   -5.0864    1.0000 </r>
       <r>   -5.0845    1.0000 </r>
       <r>   -5.0084    1.0000 </r>
       <r>   -4.9190    1.0000 </r>
       <r>   -4.8269    1.0000 </r>
       <r>   -4.5974    1.0000 </r>
       <r>   -4.5428    1.0000 </r>
       <r>   -4.5347    1.0000 </r>
       <r>   -4.4753    1.0000 </r>
       <r>   -4.4726    1.0000 </r>
       <r>   -4.4719    1.0000 </r>
       <r>   -4.4708    1.0000 </r>
       <r>   -4.4705    1.0000 </r>
       <r>   -4.4694    1.0000 </r>
       <r>   -4.4678    1.0000 </r>
       <r>   -4.4676    1.0000 </r>
       <r>   -4.3448    1.0000 </r>
       <r>   -4.3423    1.0000 </r>
       <r>   -4.3397    1.0000 </r>
       <r>   -4.3374    1.0000 </r>
       <r>   -4.3118    1.0000 </r>
       <r>   -4.1905    1.0000 </r>
       <r>   -4.0919    1.0000 </r>
       <r>   -4.0876    1.0000 </r>
       <r>   -4.0874    1.0000 </r>
       <r>   -4.0841    1.0000 </r>
       <r>   -4.0828    1.0000 </r>
       <r>   -4.0745    1.0000 </r>
       <r>   -4.0745    1.0000 </r>
       <r>   -4.0713    1.0000 </r>
       <r>   -4.0701    1.0000 </r>
       <r>   -4.0354    1.0000 </r>
       <r>   -4.0246    1.0000 </r>
       <r>   -3.9506    1.0000 </r>
       <r>   -3.9501    1.0000 </r>
       <r>   -3.9470    1.0000 </r>
       <r>   -3.9458    1.0000 </r>
       <r>   -3.9074    1.0000 </r>
       <r>   -3.8632    1.0000 </r>
       <r>   -3.7743    1.0000 </r>
       <r>   -3.6225    1.0000 </r>
       <r>   -3.6202    1.0000 </r>
       <r>   -3.6153    1.0000 </r>
       <r>   -3.6139    1.0000 </r>
       <r>   -3.6044    1.0000 </r>
       <r>   -3.6035    1.0000 </r>
       <r>   -3.5981    1.0000 </r>
       <r>   -3.5977    1.0000 </r>
       <r>   -3.5945    1.0000 </r>
       <r>   -3.4812    1.0000 </r>
       <r>   -3.4788    1.0000 </r>
       <r>   -3.4748    1.0000 </r>
       <r>   -3.4725    1.0000 </r>
       <r>   -3.4688    1.0000 </r>
       <r>   -3.4679    1.0000 </r>
       <r>   -3.4674    1.0000 </r>
       <r>   -3.4655    1.0000 </r>
       <r>   -3.4650    1.0000 </r>
       <r>   -3.3891    1.0000 </r>
       <r>   -3.3574    1.0000 </r>
       <r>   -3.3421    1.0000 </r>
       <r>   -3.3384    1.0000 </r>
       <r>   -3.3384    1.0000 </r>
       <r>   -3.3143    1.0000 </r>
       <r>   -3.3071    1.0000 </r>
       <r>   -3.1464    1.0000 </r>
       <r>   -3.0895    1.0000 </r>
       <r>   -3.0774    1.0000 </r>
       <r>   -3.0726    1.0000 </r>
       <r>   -3.0722    1.0000 </r>
       <r>   -3.0659    1.0000 </r>
       <r>   -3.0039    1.0000 </r>
       <r>   -2.9982    1.0000 </r>
       <r>   -2.9863    1.0000 </r>
       <r>   -2.9397    1.0000 </r>
       <r>   -2.9363    1.0000 </r>
       <r>   -2.8454    1.0000 </r>
       <r>   -2.7636    1.0000 </r>
       <r>   -2.7601    1.0000 </r>
       <r>   -2.7516    1.0000 </r>
       <r>   -2.7276    1.0000 </r>
       <r>   -2.7234    1.0000 </r>
       <r>   -2.6736    1.0000 </r>
       <r>   -2.6722    1.0000 </r>
       <r>   -2.6688    1.0000 </r>
       <r>   -2.6496    1.0000 </r>
       <r>   -2.6130    1.0000 </r>
       <r>   -2.5456    1.0000 </r>
       <r>   -2.5451    1.0000 </r>
       <r>   -2.5423    1.0000 </r>
       <r>   -2.5145    1.0000 </r>
       <r>   -2.4623    1.0000 </r>
       <r>   -2.3908    1.0000 </r>
       <r>   -2.3857    1.0000 </r>
       <r>   -2.3772    1.0000 </r>
       <r>   -2.3748    1.0000 </r>
       <r>   -2.3728    1.0000 </r>
       <r>   -2.3715    1.0000 </r>
       <r>   -2.3715    1.0000 </r>
       <r>   -2.3704    1.0000 </r>
       <r>   -2.3700    1.0000 </r>
       <r>   -2.3679    1.0000 </r>
       <r>   -2.3659    1.0000 </r>
       <r>   -2.3427    1.0000 </r>
       <r>   -2.2702    1.0000 </r>
       <r>   -2.2621    1.0000 </r>
       <r>   -2.2569    1.0000 </r>
       <r>   -2.2436    1.0000 </r>
       <r>   -2.2413    1.0000 </r>
       <r>   -2.2399    1.0000 </r>
       <r>   -2.2376    1.0000 </r>
       <r>   -2.2350    1.0000 </r>
       <r>   -2.2059    1.0000 </r>
       <r>   -2.1946    1.0000 </r>
       <r>   -2.1932    1.0000 </r>
       <r>   -2.1632    1.0000 </r>
       <r>   -2.1501    1.0000 </r>
       <r>   -2.1430    1.0000 </r>
       <r>   -2.1242    1.0000 </r>
       <r>   -2.0975    1.0000 </r>
       <r>   -2.0911    1.0000 </r>
       <r>   -2.0908    1.0000 </r>
       <r>   -2.0854    1.0000 </r>
       <r>   -2.0853    1.0000 </r>
       <r>   -2.0576    1.0000 </r>
       <r>   -2.0572    1.0000 </r>
       <r>   -2.0509    1.0000 </r>
       <r>   -2.0507    1.0000 </r>
       <r>   -2.0080    1.0000 </r>
       <r>   -1.9627    1.0000 </r>
       <r>   -1.9443    1.0000 </r>
       <r>   -1.9419    1.0000 </r>
       <r>   -1.9337    1.0000 </r>
       <r>   -1.9324    1.0000 </r>
       <r>   -1.9309    1.0000 </r>
       <r>   -1.9063    1.0000 </r>
       <r>   -1.9052    1.0000 </r>
       <r>   -1.8973    1.0000 </r>
       <r>   -1.8958    1.0000 </r>
       <r>   -1.8629    1.0000 </r>
       <r>   -1.8603    1.0000 </r>
       <r>   -1.8598    1.0000 </r>
       <r>   -1.8590    1.0000 </r>
       <r>   -1.8581    1.0000 </r>
       <r>   -1.8576    1.0000 </r>
       <r>   -1.8564    1.0000 </r>
       <r>   -1.8550    1.0000 </r>
       <r>   -1.8521    1.0000 </r>
       <r>   -1.7787    1.0000 </r>
       <r>   -1.7785    1.0000 </r>
       <r>   -1.7776    1.0000 </r>
       <r>   -1.7774    1.0000 </r>
       <r>   -1.7742    1.0000 </r>
       <r>   -1.7739    1.0000 </r>
       <r>   -1.7726    1.0000 </r>
       <r>   -1.7726    1.0000 </r>
       <r>   -1.7446    1.0000 </r>
       <r>   -1.7438    1.0000 </r>
       <r>   -1.7418    1.0000 </r>
       <r>   -1.7388    1.0000 </r>
       <r>   -1.7111    1.0000 </r>
       <r>   -1.7053    1.0000 </r>
       <r>   -1.6625    1.0000 </r>
       <r>   -1.6486    1.0000 </r>
       <r>   -1.6461    1.0000 </r>
       <r>   -1.6439    1.0000 </r>
       <r>   -1.6412    1.0000 </r>
       <r>   -1.6229    1.0000 </r>
       <r>   -1.6094    1.0000 </r>
       <r>   -1.6079    1.0000 </r>
       <r>   -1.5845    1.0000 </r>
       <r>   -1.5838    1.0000 </r>
       <r>   -1.5794    1.0000 </r>
       <r>   -1.5574    1.0000 </r>
       <r>   -1.5550    1.0000 </r>
       <r>   -1.5500    1.0000 </r>
       <r>   -1.4509    1.0000 </r>
       <r>   -1.4443    1.0000 </r>
       <r>   -1.4409    1.0000 </r>
       <r>   -1.4316    1.0000 </r>
       <r>   -1.2545    1.0000 </r>
       <r>   -1.2528    1.0000 </r>
       <r>   -1.2354    1.0000 </r>
       <r>   -1.2345    1.0000 </r>
       <r>   -1.2263    1.0000 </r>
       <r>   -1.2238    1.0000 </r>
       <r>   -1.2206    1.0000 </r>
       <r>   -1.2068    1.0000 </r>
       <r>   -1.2065    1.0000 </r>
       <r>   -1.2060    1.0000 </r>
       <r>   -1.2058    1.0000 </r>
       <r>   -1.1911    1.0000 </r>
       <r>   -1.1882    1.0000 </r>
       <r>   -1.1829    1.0000 </r>
       <r>   -1.1712    1.0000 </r>
       <r>   -1.1485    1.0000 </r>
       <r>   -1.1157    1.0000 </r>
       <r>   -1.0907    1.0000 </r>
       <r>   -1.0854    1.0000 </r>
       <r>   -1.0831    1.0000 </r>
       <r>   -1.0809    1.0000 </r>
       <r>   -1.0538    1.0000 </r>
       <r>   -1.0093    1.0000 </r>
       <r>   -0.9288    1.0000 </r>
       <r>   -0.9165    1.0000 </r>
       <r>   -0.9092    1.0000 </r>
       <r>   -0.9073    1.0000 </r>
       <r>   -0.9007    1.0000 </r>
       <r>   -0.8549    1.0000 </r>
       <r>   -0.8441    1.0000 </r>
       <r>   -0.8218    1.0000 </r>
       <r>   -0.7760    1.0000 </r>
       <r>   -0.7081    1.0000 </r>
       <r>   -0.6858    1.0000 </r>
       <r>   -0.6846    1.0000 </r>
       <r>   -0.6527    1.0000 </r>
       <r>   -0.5969    1.0000 </r>
       <r>   -0.5948    1.0000 </r>
       <r>   -0.5912    1.0000 </r>
       <r>   -0.5227    1.0000 </r>
       <r>   -0.5178    1.0000 </r>
       <r>   -0.5174    1.0000 </r>
       <r>   -0.5149    1.0000 </r>
       <r>   -0.5139    1.0000 </r>
       <r>   -0.4616    1.0000 </r>
       <r>   -0.4578    1.0000 </r>
       <r>   -0.4577    1.0000 </r>
       <r>   -0.4567    1.0000 </r>
       <r>   -0.4533    1.0000 </r>
       <r>   -0.4528    1.0000 </r>
       <r>   -0.4528    1.0000 </r>
       <r>   -0.4487    1.0000 </r>
       <r>   -0.4030    1.0000 </r>
       <r>   -0.3838    1.0000 </r>
       <r>   -0.3834    1.0000 </r>
       <r>   -0.3548    1.0000 </r>
       <r>   -0.3520    1.0000 </r>
       <r>   -0.3492    1.0000 </r>
       <r>   -0.3463    1.0000 </r>
       <r>   -0.3445    1.0000 </r>
       <r>   -0.3302    1.0000 </r>
       <r>   -0.3268    1.0000 </r>
       <r>   -0.3252    1.0000 </r>
       <r>   -0.3214    1.0000 </r>
       <r>   -0.2756    1.0000 </r>
       <r>   -0.2629    1.0000 </r>
       <r>   -0.2591    1.0000 </r>
       <r>   -0.2565    1.0000 </r>
       <r>   -0.2550    1.0000 </r>
       <r>   -0.2531    1.0000 </r>
       <r>   -0.2460    1.0000 </r>
       <r>   -0.2263    1.0000 </r>
       <r>   -0.2222    1.0000 </r>
       <r>   -0.2153    1.0000 </r>
       <r>   -0.2091    1.0000 </r>
       <r>   -0.1406    1.0000 </r>
       <r>   -0.1396    1.0000 </r>
       <r>   -0.0450    1.0000 </r>
       <r>   -0.0069    1.0000 </r>
       <r>    0.0017    1.0000 </r>
       <r>    0.0098    1.0000 </r>
       <r>    0.0106    1.0000 </r>
       <r>    0.0177    1.0000 </r>
       <r>    0.0193    1.0000 </r>
       <r>    0.0343    1.0000 </r>
       <r>    0.0357    1.0000 </r>
       <r>    0.0744    1.0000 </r>
       <r>    0.1871    1.0000 </r>
       <r>    0.2884    1.0000 </r>
       <r>    0.3192    1.0000 </r>
       <r>    0.3433    1.0000 </r>
       <r>    0.3455    1.0000 </r>
       <r>    0.3488    1.0000 </r>
       <r>    0.3509    1.0000 </r>
       <r>    0.3746    1.0000 </r>
       <r>    0.3968    1.0000 </r>
       <r>    0.4530    1.0000 </r>
       <r>    0.4745    1.0000 </r>
       <r>    0.4795    1.0000 </r>
       <r>    0.4889    1.0000 </r>
       <r>    0.5105    1.0000 </r>
       <r>    0.5569    1.0000 </r>
       <r>    0.5587    1.0000 </r>
       <r>    0.5662    1.0000 </r>
       <r>    0.5868    1.0000 </r>
       <r>    0.5888    1.0000 </r>
       <r>    0.5968    1.0000 </r>
       <r>    0.6204    1.0000 </r>
       <r>    0.6359    1.0000 </r>
       <r>    0.6563    1.0000 </r>
       <r>    0.6940    1.0000 </r>
       <r>    0.7033    1.0000 </r>
       <r>    0.7339    1.0000 </r>
       <r>    0.7362    1.0000 </r>
       <r>    0.8551    1.0000 </r>
       <r>    0.8557    1.0000 </r>
       <r>    0.8570    1.0000 </r>
       <r>    0.8611    1.0000 </r>
       <r>    0.8654    1.0000 </r>
       <r>    0.8676    1.0000 </r>
       <r>    0.8686    1.0000 </r>
       <r>    0.8747    1.0000 </r>
       <r>    0.8760    1.0000 </r>
       <r>    0.8774    1.0000 </r>
       <r>    0.8836    1.0000 </r>
       <r>    0.8858    1.0000 </r>
       <r>    0.8954    1.0000 </r>
       <r>    0.8966    1.0000 </r>
       <r>    0.9057    1.0000 </r>
       <r>    0.9091    1.0000 </r>
       <r>    0.9938    1.0000 </r>
       <r>    1.0028    1.0000 </r>
       <r>    1.0589    1.0000 </r>
       <r>    1.0665    1.0000 </r>
       <r>    1.0775    1.0000 </r>
       <r>    1.0786    1.0000 </r>
       <r>    1.0942    1.0000 </r>
       <r>    1.0956    1.0000 </r>
       <r>    1.1087    1.0000 </r>
       <r>    1.1092    1.0000 </r>
       <r>    1.1181    1.0000 </r>
       <r>    1.2575    1.0000 </r>
       <r>    1.2631    1.0000 </r>
       <r>    1.3109    1.0000 </r>
       <r>    1.4347    1.0000 </r>
       <r>    1.4538    1.0000 </r>
       <r>    1.4565    1.0000 </r>
       <r>    1.4709    1.0000 </r>
       <r>    1.6004    1.0000 </r>
       <r>    1.6014    1.0000 </r>
       <r>    1.6062    1.0000 </r>
       <r>    1.6066    1.0000 </r>
       <r>    1.6161    1.0000 </r>
       <r>    1.6258    1.0000 </r>
       <r>    1.6572    1.0000 </r>
       <r>    1.6680    1.0000 </r>
       <r>    1.7137    1.0000 </r>
       <r>    1.7147    1.0000 </r>
       <r>    1.7692    1.0000 </r>
       <r>    1.7735    1.0000 </r>
       <r>    1.8453    1.0000 </r>
       <r>    1.8521    1.0000 </r>
       <r>    1.8538    1.0000 </r>
       <r>    1.8629    1.0000 </r>
       <r>    1.8647    1.0000 </r>
       <r>    1.8715    1.0000 </r>
       <r>    1.8783    1.0000 </r>
       <r>    1.8788    1.0000 </r>
       <r>    1.9903    1.0000 </r>
       <r>    2.0037    1.0000 </r>
       <r>    2.1889    1.0000 </r>
       <r>    2.1905    1.0000 </r>
       <r>    2.1954    1.0000 </r>
       <r>    2.2011    1.0000 </r>
       <r>    2.2080    1.0000 </r>
       <r>    2.2109    1.0000 </r>
       <r>    2.3798    1.0000 </r>
       <r>    2.3813    1.0000 </r>
       <r>    2.3880    1.0000 </r>
       <r>    2.3908    1.0000 </r>
       <r>    5.5466    0.0000 </r>
       <r>    6.6592    0.0000 </r>
       <r>    6.6756    0.0000 </r>
       <r>    6.6833    0.0000 </r>
       <r>    6.7936    0.0000 </r>
       <r>    6.8859    0.0000 </r>
       <r>    6.9413    0.0000 </r>
       <r>    7.0092    0.0000 </r>
       <r>    7.0223    0.0000 </r>
       <r>    7.0449    0.0000 </r>
       <r>    7.0555    0.0000 </r>
       <r>    7.0760    0.0000 </r>
       <r>    7.0867    0.0000 </r>
       <r>    7.1080    0.0000 </r>
       <r>    7.1169    0.0000 </r>
       <r>    7.1461    0.0000 </r>
       <r>    7.1469    0.0000 </r>
       <r>    7.2567    0.0000 </r>
       <r>    7.2654    0.0000 </r>
       <r>    7.2661    0.0000 </r>
       <r>    7.2865    0.0000 </r>
       <r>    7.2867    0.0000 </r>
       <r>    7.4420    0.0000 </r>
       <r>    7.4580    0.0000 </r>
       <r>    7.4659    0.0000 </r>
       <r>    7.4813    0.0000 </r>
       <r>    7.4893    0.0000 </r>
       <r>    7.5706    0.0000 </r>
       <r>    7.5754    0.0000 </r>
       <r>    7.6364    0.0000 </r>
       <r>    7.6473    0.0000 </r>
       <r>    7.6607    0.0000 </r>
       <r>    7.6654    0.0000 </r>
       <r>    7.6658    0.0000 </r>
       <r>    7.6682    0.0000 </r>
       <r>    7.6832    0.0000 </r>
       <r>    7.7171    0.0000 </r>
       <r>    7.7326    0.0000 </r>
       <r>    7.7358    0.0000 </r>
       <r>    7.7952    0.0000 </r>
       <r>    7.8470    0.0000 </r>
       <r>    7.8814    0.0000 </r>
       <r>    7.8994    0.0000 </r>
       <r>    7.9708    0.0000 </r>
       <r>    7.9780    0.0000 </r>
       <r>    8.0058    0.0000 </r>
       <r>    8.0065    0.0000 </r>
       <r>    8.0970    0.0000 </r>
       <r>    8.0996    0.0000 </r>
       <r>    8.1131    0.0000 </r>
       <r>    8.2082    0.0000 </r>
       <r>    8.2297    0.0000 </r>
       <r>    8.2534    0.0000 </r>
       <r>    8.2892    0.0000 </r>
       <r>    8.3390    0.0000 </r>
       <r>    8.3413    0.0000 </r>
       <r>    8.3683    0.0000 </r>
       <r>    8.4741    0.0000 </r>
       <r>    8.4829    0.0000 </r>
       <r>    8.4911    0.0000 </r>
       <r>    8.4956    0.0000 </r>
       <r>    8.4974    0.0000 </r>
       <r>    8.5094    0.0000 </r>
       <r>    8.5100    0.0000 </r>
       <r>    8.5114    0.0000 </r>
       <r>    8.5335    0.0000 </r>
       <r>    8.5702    0.0000 </r>
       <r>    8.6005    0.0000 </r>
       <r>    8.6275    0.0000 </r>
       <r>    8.7870    0.0000 </r>
       <r>    8.8302    0.0000 </r>
       <r>    8.9033    0.0000 </r>
       <r>    8.9110    0.0000 </r>
       <r>    8.9302    0.0000 </r>
       <r>    9.0003    0.0000 </r>
       <r>    9.0076    0.0000 </r>
       <r>    9.0120    0.0000 </r>
       <r>    9.0191    0.0000 </r>
       <r>    9.0207    0.0000 </r>
       <r>    9.0245    0.0000 </r>
       <r>    9.0313    0.0000 </r>
       <r>    9.1316    0.0000 </r>
       <r>    9.1441    0.0000 </r>
       <r>    9.1635    0.0000 </r>
       <r>    9.1674    0.0000 </r>
       <r>    9.1834    0.0000 </r>
       <r>    9.2090    0.0000 </r>
       <r>    9.2095    0.0000 </r>
       <r>    9.2130    0.0000 </r>
       <r>    9.3692    0.0000 </r>
       <r>    9.4068    0.0000 </r>
       <r>    9.4131    0.0000 </r>
       <r>    9.4320    0.0000 </r>
       <r>    9.4449    0.0000 </r>
       <r>    9.4494    0.0000 </r>
       <r>    9.5849    0.0000 </r>
       <r>    9.6007    0.0000 </r>
       <r>    9.6030    0.0000 </r>
       <r>    9.6075    0.0000 </r>
       <r>    9.6081    0.0000 </r>
       <r>    9.6389    0.0000 </r>
       <r>    9.6655    0.0000 </r>
       <r>    9.7116    0.0000 </r>
       <r>    9.7126    0.0000 </r>
       <r>    9.7145    0.0000 </r>
       <r>    9.7305    0.0000 </r>
       <r>    9.7691    0.0000 </r>
       <r>    9.7865    0.0000 </r>
       <r>    9.8362    0.0000 </r>
       <r>    9.8366    0.0000 </r>
       <r>    9.9241    0.0000 </r>
       <r>    9.9265    0.0000 </r>
       <r>    9.9646    0.0000 </r>
       <r>    9.9698    0.0000 </r>
       <r>    9.9722    0.0000 </r>
       <r>   10.0345    0.0000 </r>
       <r>   10.0722    0.0000 </r>
       <r>   10.1150    0.0000 </r>
       <r>   10.1337    0.0000 </r>
       <r>   10.3108    0.0000 </r>
       <r>   10.3473    0.0000 </r>
       <r>   10.4278    0.0000 </r>
       <r>   10.4279    0.0000 </r>
       <r>   10.5259    0.0000 </r>
       <r>   10.5267    0.0000 </r>
       <r>   10.5499    0.0000 </r>
       <r>   10.5544    0.0000 </r>
       <r>   10.8980    0.0000 </r>
       <r>   10.9993    0.0000 </r>
       <r>   11.2080    0.0000 </r>
       <r>   11.2115    0.0000 </r>
       <r>   11.2940    0.0000 </r>
       <r>   11.4155    0.0000 </r>
       <r>   11.4218    0.0000 </r>
       <r>   11.4357    0.0000 </r>
       <r>   11.4703    0.0000 </r>
       <r>   11.5058    0.0000 </r>
       <r>   11.5213    0.0000 </r>
       <r>   11.5576    0.0000 </r>
       <r>   11.5703    0.0000 </r>
       <r>   11.5916    0.0000 </r>
       <r>   11.5915    0.0000 </r>
       <r>   11.6086    0.0000 </r>
       <r>   11.6406    0.0000 </r>
       <r>   11.6694    0.0000 </r>
       <r>   11.7398    0.0000 </r>
       <r>   11.7921    0.0000 </r>
       <r>   11.8516    0.0000 </r>
       <r>   11.8929    0.0000 </r>
       <r>   11.9503    0.0000 </r>
       <r>   12.0095    0.0000 </r>
       <r>   12.0566    0.0000 </r>
      </set>
      <set comment="kpoint 8">
       <r>  -17.1658    1.0000 </r>
       <r>  -15.7429    1.0000 </r>
       <r>  -15.6886    1.0000 </r>
       <r>  -15.4120    1.0000 </r>
       <r>  -15.2834    1.0000 </r>
       <r>  -15.2743    1.0000 </r>
       <r>  -15.2425    1.0000 </r>
       <r>  -15.2041    1.0000 </r>
       <r>  -15.1418    1.0000 </r>
       <r>  -15.0834    1.0000 </r>
       <r>  -15.0470    1.0000 </r>
       <r>  -15.0328    1.0000 </r>
       <r>  -15.0163    1.0000 </r>
       <r>  -14.9843    1.0000 </r>
       <r>  -14.9836    1.0000 </r>
       <r>  -14.9062    1.0000 </r>
       <r>  -14.8988    1.0000 </r>
       <r>  -14.8523    1.0000 </r>
       <r>  -14.7588    1.0000 </r>
       <r>  -14.7565    1.0000 </r>
       <r>  -14.6146    1.0000 </r>
       <r>  -14.5661    1.0000 </r>
       <r>  -14.5389    1.0000 </r>
       <r>  -14.4665    1.0000 </r>
       <r>  -14.4629    1.0000 </r>
       <r>  -14.4601    1.0000 </r>
       <r>  -14.4577    1.0000 </r>
       <r>  -14.4218    1.0000 </r>
       <r>  -14.4023    1.0000 </r>
       <r>  -14.3957    1.0000 </r>
       <r>  -14.3846    1.0000 </r>
       <r>  -14.3349    1.0000 </r>
       <r>  -14.2490    1.0000 </r>
       <r>  -14.2455    1.0000 </r>
       <r>  -14.2446    1.0000 </r>
       <r>  -14.2400    1.0000 </r>
       <r>  -14.2072    1.0000 </r>
       <r>  -14.2066    1.0000 </r>
       <r>  -14.1682    1.0000 </r>
       <r>  -14.1493    1.0000 </r>
       <r>  -14.1057    1.0000 </r>
       <r>  -14.0340    1.0000 </r>
       <r>  -13.9989    1.0000 </r>
       <r>  -13.9962    1.0000 </r>
       <r>  -13.9392    1.0000 </r>
       <r>  -13.7793    1.0000 </r>
       <r>  -13.7411    1.0000 </r>
       <r>  -13.7396    1.0000 </r>
       <r>  -13.7125    1.0000 </r>
       <r>  -13.7115    1.0000 </r>
       <r>  -13.7019    1.0000 </r>
       <r>  -13.6801    1.0000 </r>
       <r>  -13.6574    1.0000 </r>
       <r>  -13.6553    1.0000 </r>
       <r>  -13.5965    1.0000 </r>
       <r>  -13.5318    1.0000 </r>
       <r>  -13.5313    1.0000 </r>
       <r>  -13.5212    1.0000 </r>
       <r>  -13.5178    1.0000 </r>
       <r>  -13.5018    1.0000 </r>
       <r>  -13.3575    1.0000 </r>
       <r>  -13.3334    1.0000 </r>
       <r>  -13.2538    1.0000 </r>
       <r>  -13.2219    1.0000 </r>
       <r>  -13.1077    1.0000 </r>
       <r>  -13.0682    1.0000 </r>
       <r>  -13.0643    1.0000 </r>
       <r>  -13.0615    1.0000 </r>
       <r>  -13.0603    1.0000 </r>
       <r>  -13.0327    1.0000 </r>
       <r>  -13.0262    1.0000 </r>
       <r>  -13.0228    1.0000 </r>
       <r>  -13.0163    1.0000 </r>
       <r>  -12.9709    1.0000 </r>
       <r>  -12.9229    1.0000 </r>
       <r>  -12.8940    1.0000 </r>
       <r>  -12.8925    1.0000 </r>
       <r>  -12.8888    1.0000 </r>
       <r>  -12.8885    1.0000 </r>
       <r>  -12.8800    1.0000 </r>
       <r>  -12.8782    1.0000 </r>
       <r>  -12.8776    1.0000 </r>
       <r>  -12.8744    1.0000 </r>
       <r>  -12.8656    1.0000 </r>
       <r>  -12.8598    1.0000 </r>
       <r>  -12.8561    1.0000 </r>
       <r>  -12.8504    1.0000 </r>
       <r>  -12.8500    1.0000 </r>
       <r>  -12.7179    1.0000 </r>
       <r>  -12.7151    1.0000 </r>
       <r>  -12.7149    1.0000 </r>
       <r>  -12.7116    1.0000 </r>
       <r>  -12.6817    1.0000 </r>
       <r>  -12.6085    1.0000 </r>
       <r>  -12.5983    1.0000 </r>
       <r>  -12.5762    1.0000 </r>
       <r>  -12.5728    1.0000 </r>
       <r>  -12.5514    1.0000 </r>
       <r>  -12.5330    1.0000 </r>
       <r>  -12.4982    1.0000 </r>
       <r>  -12.4351    1.0000 </r>
       <r>  -12.4293    1.0000 </r>
       <r>  -12.4232    1.0000 </r>
       <r>  -12.4217    1.0000 </r>
       <r>  -12.3417    1.0000 </r>
       <r>  -12.3380    1.0000 </r>
       <r>  -12.3212    1.0000 </r>
       <r>  -12.3169    1.0000 </r>
       <r>  -12.2458    1.0000 </r>
       <r>  -12.2451    1.0000 </r>
       <r>  -12.2365    1.0000 </r>
       <r>  -12.2323    1.0000 </r>
       <r>  -12.2192    1.0000 </r>
       <r>  -12.2185    1.0000 </r>
       <r>  -12.2082    1.0000 </r>
       <r>  -12.2056    1.0000 </r>
       <r>  -12.1772    1.0000 </r>
       <r>  -12.1746    1.0000 </r>
       <r>  -12.1701    1.0000 </r>
       <r>  -12.1699    1.0000 </r>
       <r>  -12.0951    1.0000 </r>
       <r>  -12.0939    1.0000 </r>
       <r>  -12.0918    1.0000 </r>
       <r>  -12.0880    1.0000 </r>
       <r>  -12.0847    1.0000 </r>
       <r>  -12.0842    1.0000 </r>
       <r>  -11.9509    1.0000 </r>
       <r>  -11.9478    1.0000 </r>
       <r>  -11.9465    1.0000 </r>
       <r>  -11.9432    1.0000 </r>
       <r>  -11.8169    1.0000 </r>
       <r>  -11.8143    1.0000 </r>
       <r>  -11.8079    1.0000 </r>
       <r>  -11.8073    1.0000 </r>
       <r>  -11.8040    1.0000 </r>
       <r>  -11.8033    1.0000 </r>
       <r>  -11.7852    1.0000 </r>
       <r>  -11.7848    1.0000 </r>
       <r>  -11.7797    1.0000 </r>
       <r>  -11.7794    1.0000 </r>
       <r>  -11.6679    1.0000 </r>
       <r>  -11.6676    1.0000 </r>
       <r>  -11.6651    1.0000 </r>
       <r>  -11.6586    1.0000 </r>
       <r>   -8.1622    1.0000 </r>
       <r>   -7.2496    1.0000 </r>
       <r>   -7.2351    1.0000 </r>
       <r>   -6.7830    1.0000 </r>
       <r>   -6.6995    1.0000 </r>
       <r>   -6.6787    1.0000 </r>
       <r>   -6.4258    1.0000 </r>
       <r>   -6.4020    1.0000 </r>
       <r>   -6.3171    1.0000 </r>
       <r>   -6.3085    1.0000 </r>
       <r>   -6.3055    1.0000 </r>
       <r>   -6.3036    1.0000 </r>
       <r>   -6.2978    1.0000 </r>
       <r>   -6.2835    1.0000 </r>
       <r>   -6.2755    1.0000 </r>
       <r>   -6.2748    1.0000 </r>
       <r>   -6.2687    1.0000 </r>
       <r>   -6.2684    1.0000 </r>
       <r>   -6.2156    1.0000 </r>
       <r>   -6.2131    1.0000 </r>
       <r>   -6.2109    1.0000 </r>
       <r>   -6.2071    1.0000 </r>
       <r>   -6.1949    1.0000 </r>
       <r>   -6.1918    1.0000 </r>
       <r>   -6.1580    1.0000 </r>
       <r>   -6.1578    1.0000 </r>
       <r>   -6.1522    1.0000 </r>
       <r>   -6.1473    1.0000 </r>
       <r>   -6.0738    1.0000 </r>
       <r>   -6.0705    1.0000 </r>
       <r>   -5.9349    1.0000 </r>
       <r>   -5.9276    1.0000 </r>
       <r>   -5.9110    1.0000 </r>
       <r>   -5.9035    1.0000 </r>
       <r>   -5.8366    1.0000 </r>
       <r>   -5.7887    1.0000 </r>
       <r>   -5.7836    1.0000 </r>
       <r>   -5.7691    1.0000 </r>
       <r>   -5.7684    1.0000 </r>
       <r>   -5.7655    1.0000 </r>
       <r>   -5.7613    1.0000 </r>
       <r>   -5.7588    1.0000 </r>
       <r>   -5.7586    1.0000 </r>
       <r>   -5.7582    1.0000 </r>
       <r>   -5.7560    1.0000 </r>
       <r>   -5.7505    1.0000 </r>
       <r>   -5.7348    1.0000 </r>
       <r>   -5.6802    1.0000 </r>
       <r>   -5.6516    1.0000 </r>
       <r>   -5.6391    1.0000 </r>
       <r>   -5.6239    1.0000 </r>
       <r>   -5.6224    1.0000 </r>
       <r>   -5.6210    1.0000 </r>
       <r>   -5.6184    1.0000 </r>
       <r>   -5.2293    1.0000 </r>
       <r>   -5.2268    1.0000 </r>
       <r>   -5.2244    1.0000 </r>
       <r>   -5.2241    1.0000 </r>
       <r>   -5.2237    1.0000 </r>
       <r>   -5.2196    1.0000 </r>
       <r>   -5.2190    1.0000 </r>
       <r>   -5.2189    1.0000 </r>
       <r>   -5.2179    1.0000 </r>
       <r>   -5.2174    1.0000 </r>
       <r>   -5.2170    1.0000 </r>
       <r>   -5.2166    1.0000 </r>
       <r>   -5.1064    1.0000 </r>
       <r>   -5.0949    1.0000 </r>
       <r>   -5.0935    1.0000 </r>
       <r>   -5.0913    1.0000 </r>
       <r>   -5.0884    1.0000 </r>
       <r>   -5.0876    1.0000 </r>
       <r>   -5.0868    1.0000 </r>
       <r>   -5.0828    1.0000 </r>
       <r>   -5.0085    1.0000 </r>
       <r>   -4.9190    1.0000 </r>
       <r>   -4.8269    1.0000 </r>
       <r>   -4.5974    1.0000 </r>
       <r>   -4.5428    1.0000 </r>
       <r>   -4.5347    1.0000 </r>
       <r>   -4.4752    1.0000 </r>
       <r>   -4.4725    1.0000 </r>
       <r>   -4.4719    1.0000 </r>
       <r>   -4.4710    1.0000 </r>
       <r>   -4.4705    1.0000 </r>
       <r>   -4.4694    1.0000 </r>
       <r>   -4.4679    1.0000 </r>
       <r>   -4.4676    1.0000 </r>
       <r>   -4.3449    1.0000 </r>
       <r>   -4.3422    1.0000 </r>
       <r>   -4.3406    1.0000 </r>
       <r>   -4.3384    1.0000 </r>
       <r>   -4.3118    1.0000 </r>
       <r>   -4.1904    1.0000 </r>
       <r>   -4.0919    1.0000 </r>
       <r>   -4.0876    1.0000 </r>
       <r>   -4.0873    1.0000 </r>
       <r>   -4.0840    1.0000 </r>
       <r>   -4.0827    1.0000 </r>
       <r>   -4.0747    1.0000 </r>
       <r>   -4.0745    1.0000 </r>
       <r>   -4.0713    1.0000 </r>
       <r>   -4.0701    1.0000 </r>
       <r>   -4.0354    1.0000 </r>
       <r>   -4.0246    1.0000 </r>
       <r>   -3.9501    1.0000 </r>
       <r>   -3.9500    1.0000 </r>
       <r>   -3.9476    1.0000 </r>
       <r>   -3.9463    1.0000 </r>
       <r>   -3.9074    1.0000 </r>
       <r>   -3.8632    1.0000 </r>
       <r>   -3.7743    1.0000 </r>
       <r>   -3.6224    1.0000 </r>
       <r>   -3.6200    1.0000 </r>
       <r>   -3.6151    1.0000 </r>
       <r>   -3.6137    1.0000 </r>
       <r>   -3.6046    1.0000 </r>
       <r>   -3.6034    1.0000 </r>
       <r>   -3.5983    1.0000 </r>
       <r>   -3.5978    1.0000 </r>
       <r>   -3.5946    1.0000 </r>
       <r>   -3.4801    1.0000 </r>
       <r>   -3.4795    1.0000 </r>
       <r>   -3.4743    1.0000 </r>
       <r>   -3.4716    1.0000 </r>
       <r>   -3.4688    1.0000 </r>
       <r>   -3.4680    1.0000 </r>
       <r>   -3.4673    1.0000 </r>
       <r>   -3.4655    1.0000 </r>
       <r>   -3.4650    1.0000 </r>
       <r>   -3.3886    1.0000 </r>
       <r>   -3.3580    1.0000 </r>
       <r>   -3.3423    1.0000 </r>
       <r>   -3.3401    1.0000 </r>
       <r>   -3.3378    1.0000 </r>
       <r>   -3.3143    1.0000 </r>
       <r>   -3.3069    1.0000 </r>
       <r>   -3.1464    1.0000 </r>
       <r>   -3.0895    1.0000 </r>
       <r>   -3.0773    1.0000 </r>
       <r>   -3.0726    1.0000 </r>
       <r>   -3.0722    1.0000 </r>
       <r>   -3.0659    1.0000 </r>
       <r>   -3.0032    1.0000 </r>
       <r>   -2.9987    1.0000 </r>
       <r>   -2.9864    1.0000 </r>
       <r>   -2.9383    1.0000 </r>
       <r>   -2.9361    1.0000 </r>
       <r>   -2.8454    1.0000 </r>
       <r>   -2.7636    1.0000 </r>
       <r>   -2.7602    1.0000 </r>
       <r>   -2.7516    1.0000 </r>
       <r>   -2.7277    1.0000 </r>
       <r>   -2.7234    1.0000 </r>
       <r>   -2.6736    1.0000 </r>
       <r>   -2.6722    1.0000 </r>
       <r>   -2.6688    1.0000 </r>
       <r>   -2.6496    1.0000 </r>
       <r>   -2.6131    1.0000 </r>
       <r>   -2.5476    1.0000 </r>
       <r>   -2.5450    1.0000 </r>
       <r>   -2.5424    1.0000 </r>
       <r>   -2.5146    1.0000 </r>
       <r>   -2.4623    1.0000 </r>
       <r>   -2.3907    1.0000 </r>
       <r>   -2.3858    1.0000 </r>
       <r>   -2.3772    1.0000 </r>
       <r>   -2.3747    1.0000 </r>
       <r>   -2.3729    1.0000 </r>
       <r>   -2.3716    1.0000 </r>
       <r>   -2.3715    1.0000 </r>
       <r>   -2.3703    1.0000 </r>
       <r>   -2.3700    1.0000 </r>
       <r>   -2.3680    1.0000 </r>
       <r>   -2.3659    1.0000 </r>
       <r>   -2.3425    1.0000 </r>
       <r>   -2.2702    1.0000 </r>
       <r>   -2.2632    1.0000 </r>
       <r>   -2.2567    1.0000 </r>
       <r>   -2.2428    1.0000 </r>
       <r>   -2.2411    1.0000 </r>
       <r>   -2.2399    1.0000 </r>
       <r>   -2.2357    1.0000 </r>
       <r>   -2.2347    1.0000 </r>
       <r>   -2.2058    1.0000 </r>
       <r>   -2.1945    1.0000 </r>
       <r>   -2.1932    1.0000 </r>
       <r>   -2.1631    1.0000 </r>
       <r>   -2.1501    1.0000 </r>
       <r>   -2.1429    1.0000 </r>
       <r>   -2.1241    1.0000 </r>
       <r>   -2.0976    1.0000 </r>
       <r>   -2.0910    1.0000 </r>
       <r>   -2.0906    1.0000 </r>
       <r>   -2.0853    1.0000 </r>
       <r>   -2.0852    1.0000 </r>
       <r>   -2.0578    1.0000 </r>
       <r>   -2.0575    1.0000 </r>
       <r>   -2.0511    1.0000 </r>
       <r>   -2.0508    1.0000 </r>
       <r>   -2.0079    1.0000 </r>
       <r>   -1.9620    1.0000 </r>
       <r>   -1.9422    1.0000 </r>
       <r>   -1.9420    1.0000 </r>
       <r>   -1.9372    1.0000 </r>
       <r>   -1.9329    1.0000 </r>
       <r>   -1.9322    1.0000 </r>
       <r>   -1.9062    1.0000 </r>
       <r>   -1.9045    1.0000 </r>
       <r>   -1.8974    1.0000 </r>
       <r>   -1.8958    1.0000 </r>
       <r>   -1.8629    1.0000 </r>
       <r>   -1.8603    1.0000 </r>
       <r>   -1.8598    1.0000 </r>
       <r>   -1.8590    1.0000 </r>
       <r>   -1.8581    1.0000 </r>
       <r>   -1.8576    1.0000 </r>
       <r>   -1.8564    1.0000 </r>
       <r>   -1.8550    1.0000 </r>
       <r>   -1.8517    1.0000 </r>
       <r>   -1.7786    1.0000 </r>
       <r>   -1.7784    1.0000 </r>
       <r>   -1.7776    1.0000 </r>
       <r>   -1.7775    1.0000 </r>
       <r>   -1.7742    1.0000 </r>
       <r>   -1.7739    1.0000 </r>
       <r>   -1.7726    1.0000 </r>
       <r>   -1.7726    1.0000 </r>
       <r>   -1.7455    1.0000 </r>
       <r>   -1.7421    1.0000 </r>
       <r>   -1.7418    1.0000 </r>
       <r>   -1.7394    1.0000 </r>
       <r>   -1.7111    1.0000 </r>
       <r>   -1.7053    1.0000 </r>
       <r>   -1.6625    1.0000 </r>
       <r>   -1.6484    1.0000 </r>
       <r>   -1.6456    1.0000 </r>
       <r>   -1.6444    1.0000 </r>
       <r>   -1.6432    1.0000 </r>
       <r>   -1.6228    1.0000 </r>
       <r>   -1.6088    1.0000 </r>
       <r>   -1.6081    1.0000 </r>
       <r>   -1.5848    1.0000 </r>
       <r>   -1.5835    1.0000 </r>
       <r>   -1.5792    1.0000 </r>
       <r>   -1.5575    1.0000 </r>
       <r>   -1.5552    1.0000 </r>
       <r>   -1.5501    1.0000 </r>
       <r>   -1.4510    1.0000 </r>
       <r>   -1.4443    1.0000 </r>
       <r>   -1.4400    1.0000 </r>
       <r>   -1.4304    1.0000 </r>
       <r>   -1.2547    1.0000 </r>
       <r>   -1.2517    1.0000 </r>
       <r>   -1.2355    1.0000 </r>
       <r>   -1.2348    1.0000 </r>
       <r>   -1.2262    1.0000 </r>
       <r>   -1.2238    1.0000 </r>
       <r>   -1.2205    1.0000 </r>
       <r>   -1.2070    1.0000 </r>
       <r>   -1.2065    1.0000 </r>
       <r>   -1.2061    1.0000 </r>
       <r>   -1.2060    1.0000 </r>
       <r>   -1.1917    1.0000 </r>
       <r>   -1.1881    1.0000 </r>
       <r>   -1.1832    1.0000 </r>
       <r>   -1.1712    1.0000 </r>
       <r>   -1.1487    1.0000 </r>
       <r>   -1.1160    1.0000 </r>
       <r>   -1.0887    1.0000 </r>
       <r>   -1.0864    1.0000 </r>
       <r>   -1.0853    1.0000 </r>
       <r>   -1.0826    1.0000 </r>
       <r>   -1.0538    1.0000 </r>
       <r>   -1.0093    1.0000 </r>
       <r>   -0.9293    1.0000 </r>
       <r>   -0.9152    1.0000 </r>
       <r>   -0.9095    1.0000 </r>
       <r>   -0.9080    1.0000 </r>
       <r>   -0.9006    1.0000 </r>
       <r>   -0.8549    1.0000 </r>
       <r>   -0.8441    1.0000 </r>
       <r>   -0.8218    1.0000 </r>
       <r>   -0.7760    1.0000 </r>
       <r>   -0.7081    1.0000 </r>
       <r>   -0.6858    1.0000 </r>
       <r>   -0.6846    1.0000 </r>
       <r>   -0.6527    1.0000 </r>
       <r>   -0.5968    1.0000 </r>
       <r>   -0.5946    1.0000 </r>
       <r>   -0.5912    1.0000 </r>
       <r>   -0.5227    1.0000 </r>
       <r>   -0.5178    1.0000 </r>
       <r>   -0.5174    1.0000 </r>
       <r>   -0.5149    1.0000 </r>
       <r>   -0.5139    1.0000 </r>
       <r>   -0.4615    1.0000 </r>
       <r>   -0.4577    1.0000 </r>
       <r>   -0.4575    1.0000 </r>
       <r>   -0.4566    1.0000 </r>
       <r>   -0.4533    1.0000 </r>
       <r>   -0.4528    1.0000 </r>
       <r>   -0.4528    1.0000 </r>
       <r>   -0.4487    1.0000 </r>
       <r>   -0.4030    1.0000 </r>
       <r>   -0.3849    1.0000 </r>
       <r>   -0.3799    1.0000 </r>
       <r>   -0.3547    1.0000 </r>
       <r>   -0.3521    1.0000 </r>
       <r>   -0.3493    1.0000 </r>
       <r>   -0.3464    1.0000 </r>
       <r>   -0.3445    1.0000 </r>
       <r>   -0.3295    1.0000 </r>
       <r>   -0.3262    1.0000 </r>
       <r>   -0.3250    1.0000 </r>
       <r>   -0.3228    1.0000 </r>
       <r>   -0.2756    1.0000 </r>
       <r>   -0.2628    1.0000 </r>
       <r>   -0.2585    1.0000 </r>
       <r>   -0.2565    1.0000 </r>
       <r>   -0.2556    1.0000 </r>
       <r>   -0.2530    1.0000 </r>
       <r>   -0.2460    1.0000 </r>
       <r>   -0.2248    1.0000 </r>
       <r>   -0.2205    1.0000 </r>
       <r>   -0.2151    1.0000 </r>
       <r>   -0.2089    1.0000 </r>
       <r>   -0.1407    1.0000 </r>
       <r>   -0.1397    1.0000 </r>
       <r>   -0.0450    1.0000 </r>
       <r>   -0.0051    1.0000 </r>
       <r>    0.0013    1.0000 </r>
       <r>    0.0079    1.0000 </r>
       <r>    0.0110    1.0000 </r>
       <r>    0.0184    1.0000 </r>
       <r>    0.0188    1.0000 </r>
       <r>    0.0342    1.0000 </r>
       <r>    0.0356    1.0000 </r>
       <r>    0.0745    1.0000 </r>
       <r>    0.1871    1.0000 </r>
       <r>    0.2883    1.0000 </r>
       <r>    0.3191    1.0000 </r>
       <r>    0.3433    1.0000 </r>
       <r>    0.3455    1.0000 </r>
       <r>    0.3487    1.0000 </r>
       <r>    0.3509    1.0000 </r>
       <r>    0.3746    1.0000 </r>
       <r>    0.3968    1.0000 </r>
       <r>    0.4530    1.0000 </r>
       <r>    0.4729    1.0000 </r>
       <r>    0.4776    1.0000 </r>
       <r>    0.4889    1.0000 </r>
       <r>    0.5110    1.0000 </r>
       <r>    0.5571    1.0000 </r>
       <r>    0.5588    1.0000 </r>
       <r>    0.5662    1.0000 </r>
       <r>    0.5866    1.0000 </r>
       <r>    0.5888    1.0000 </r>
       <r>    0.5967    1.0000 </r>
       <r>    0.6204    1.0000 </r>
       <r>    0.6359    1.0000 </r>
       <r>    0.6563    1.0000 </r>
       <r>    0.6939    1.0000 </r>
       <r>    0.6997    1.0000 </r>
       <r>    0.7341    1.0000 </r>
       <r>    0.7362    1.0000 </r>
       <r>    0.8554    1.0000 </r>
       <r>    0.8558    1.0000 </r>
       <r>    0.8572    1.0000 </r>
       <r>    0.8617    1.0000 </r>
       <r>    0.8647    1.0000 </r>
       <r>    0.8677    1.0000 </r>
       <r>    0.8687    1.0000 </r>
       <r>    0.8743    1.0000 </r>
       <r>    0.8763    1.0000 </r>
       <r>    0.8774    1.0000 </r>
       <r>    0.8834    1.0000 </r>
       <r>    0.8857    1.0000 </r>
       <r>    0.8953    1.0000 </r>
       <r>    0.8964    1.0000 </r>
       <r>    0.9057    1.0000 </r>
       <r>    0.9091    1.0000 </r>
       <r>    0.9940    1.0000 </r>
       <r>    1.0065    1.0000 </r>
       <r>    1.0598    1.0000 </r>
       <r>    1.0656    1.0000 </r>
       <r>    1.0770    1.0000 </r>
       <r>    1.0792    1.0000 </r>
       <r>    1.0944    1.0000 </r>
       <r>    1.0957    1.0000 </r>
       <r>    1.1077    1.0000 </r>
       <r>    1.1086    1.0000 </r>
       <r>    1.1182    1.0000 </r>
       <r>    1.2575    1.0000 </r>
       <r>    1.2630    1.0000 </r>
       <r>    1.3109    1.0000 </r>
       <r>    1.4347    1.0000 </r>
       <r>    1.4538    1.0000 </r>
       <r>    1.4573    1.0000 </r>
       <r>    1.4710    1.0000 </r>
       <r>    1.6006    1.0000 </r>
       <r>    1.6019    1.0000 </r>
       <r>    1.6064    1.0000 </r>
       <r>    1.6065    1.0000 </r>
       <r>    1.6161    1.0000 </r>
       <r>    1.6256    1.0000 </r>
       <r>    1.6571    1.0000 </r>
       <r>    1.6680    1.0000 </r>
       <r>    1.7135    1.0000 </r>
       <r>    1.7147    1.0000 </r>
       <r>    1.7689    1.0000 </r>
       <r>    1.7743    1.0000 </r>
       <r>    1.8453    1.0000 </r>
       <r>    1.8527    1.0000 </r>
       <r>    1.8541    1.0000 </r>
       <r>    1.8630    1.0000 </r>
       <r>    1.8656    1.0000 </r>
       <r>    1.8709    1.0000 </r>
       <r>    1.8768    1.0000 </r>
       <r>    1.8778    1.0000 </r>
       <r>    1.9904    1.0000 </r>
       <r>    2.0037    1.0000 </r>
       <r>    2.1889    1.0000 </r>
       <r>    2.1904    1.0000 </r>
       <r>    2.1961    1.0000 </r>
       <r>    2.2007    1.0000 </r>
       <r>    2.2081    1.0000 </r>
       <r>    2.2108    1.0000 </r>
       <r>    2.3787    1.0000 </r>
       <r>    2.3804    1.0000 </r>
       <r>    2.3897    1.0000 </r>
       <r>    2.3911    1.0000 </r>
       <r>    5.5466    0.0000 </r>
       <r>    6.6592    0.0000 </r>
       <r>    6.6756    0.0000 </r>
       <r>    6.6832    0.0000 </r>
       <r>    6.7936    0.0000 </r>
       <r>    6.8859    0.0000 </r>
       <r>    6.9411    0.0000 </r>
       <r>    7.0093    0.0000 </r>
       <r>    7.0223    0.0000 </r>
       <r>    7.0448    0.0000 </r>
       <r>    7.0547    0.0000 </r>
       <r>    7.0761    0.0000 </r>
       <r>    7.0868    0.0000 </r>
       <r>    7.1083    0.0000 </r>
       <r>    7.1176    0.0000 </r>
       <r>    7.1460    0.0000 </r>
       <r>    7.1471    0.0000 </r>
       <r>    7.2568    0.0000 </r>
       <r>    7.2654    0.0000 </r>
       <r>    7.2657    0.0000 </r>
       <r>    7.2866    0.0000 </r>
       <r>    7.2871    0.0000 </r>
       <r>    7.4420    0.0000 </r>
       <r>    7.4578    0.0000 </r>
       <r>    7.4658    0.0000 </r>
       <r>    7.4812    0.0000 </r>
       <r>    7.4893    0.0000 </r>
       <r>    7.5706    0.0000 </r>
       <r>    7.5754    0.0000 </r>
       <r>    7.6367    0.0000 </r>
       <r>    7.6476    0.0000 </r>
       <r>    7.6615    0.0000 </r>
       <r>    7.6645    0.0000 </r>
       <r>    7.6668    0.0000 </r>
       <r>    7.6675    0.0000 </r>
       <r>    7.6820    0.0000 </r>
       <r>    7.7171    0.0000 </r>
       <r>    7.7323    0.0000 </r>
       <r>    7.7346    0.0000 </r>
       <r>    7.7952    0.0000 </r>
       <r>    7.8468    0.0000 </r>
       <r>    7.8816    0.0000 </r>
       <r>    7.8994    0.0000 </r>
       <r>    7.9719    0.0000 </r>
       <r>    7.9788    0.0000 </r>
       <r>    8.0053    0.0000 </r>
       <r>    8.0073    0.0000 </r>
       <r>    8.0970    0.0000 </r>
       <r>    8.0998    0.0000 </r>
       <r>    8.1131    0.0000 </r>
       <r>    8.2082    0.0000 </r>
       <r>    8.2297    0.0000 </r>
       <r>    8.2534    0.0000 </r>
       <r>    8.2893    0.0000 </r>
       <r>    8.3390    0.0000 </r>
       <r>    8.3412    0.0000 </r>
       <r>    8.3682    0.0000 </r>
       <r>    8.4744    0.0000 </r>
       <r>    8.4827    0.0000 </r>
       <r>    8.4911    0.0000 </r>
       <r>    8.4951    0.0000 </r>
       <r>    8.4983    0.0000 </r>
       <r>    8.5093    0.0000 </r>
       <r>    8.5107    0.0000 </r>
       <r>    8.5120    0.0000 </r>
       <r>    8.5318    0.0000 </r>
       <r>    8.5704    0.0000 </r>
       <r>    8.6007    0.0000 </r>
       <r>    8.6270    0.0000 </r>
       <r>    8.7872    0.0000 </r>
       <r>    8.8301    0.0000 </r>
       <r>    8.9034    0.0000 </r>
       <r>    8.9111    0.0000 </r>
       <r>    8.9302    0.0000 </r>
       <r>    9.0003    0.0000 </r>
       <r>    9.0077    0.0000 </r>
       <r>    9.0119    0.0000 </r>
       <r>    9.0196    0.0000 </r>
       <r>    9.0206    0.0000 </r>
       <r>    9.0245    0.0000 </r>
       <r>    9.0310    0.0000 </r>
       <r>    9.1314    0.0000 </r>
       <r>    9.1440    0.0000 </r>
       <r>    9.1642    0.0000 </r>
       <r>    9.1667    0.0000 </r>
       <r>    9.1846    0.0000 </r>
       <r>    9.2084    0.0000 </r>
       <r>    9.2096    0.0000 </r>
       <r>    9.2129    0.0000 </r>
       <r>    9.3690    0.0000 </r>
       <r>    9.4069    0.0000 </r>
       <r>    9.4129    0.0000 </r>
       <r>    9.4321    0.0000 </r>
       <r>    9.4450    0.0000 </r>
       <r>    9.4492    0.0000 </r>
       <r>    9.5848    0.0000 </r>
       <r>    9.6010    0.0000 </r>
       <r>    9.6028    0.0000 </r>
       <r>    9.6058    0.0000 </r>
       <r>    9.6083    0.0000 </r>
       <r>    9.6386    0.0000 </r>
       <r>    9.6654    0.0000 </r>
       <r>    9.7115    0.0000 </r>
       <r>    9.7129    0.0000 </r>
       <r>    9.7138    0.0000 </r>
       <r>    9.7307    0.0000 </r>
       <r>    9.7693    0.0000 </r>
       <r>    9.7870    0.0000 </r>
       <r>    9.8363    0.0000 </r>
       <r>    9.8366    0.0000 </r>
       <r>    9.9240    0.0000 </r>
       <r>    9.9268    0.0000 </r>
       <r>    9.9644    0.0000 </r>
       <r>    9.9694    0.0000 </r>
       <r>    9.9720    0.0000 </r>
       <r>   10.0354    0.0000 </r>
       <r>   10.0721    0.0000 </r>
       <r>   10.1148    0.0000 </r>
       <r>   10.1340    0.0000 </r>
       <r>   10.3114    0.0000 </r>
       <r>   10.3474    0.0000 </r>
       <r>   10.4274    0.0000 </r>
       <r>   10.4277    0.0000 </r>
       <r>   10.5268    0.0000 </r>
       <r>   10.5272    0.0000 </r>
       <r>   10.5498    0.0000 </r>
       <r>   10.5544    0.0000 </r>
       <r>   10.8986    0.0000 </r>
       <r>   11.0004    0.0000 </r>
       <r>   11.2080    0.0000 </r>
       <r>   11.2112    0.0000 </r>
       <r>   11.2963    0.0000 </r>
       <r>   11.4124    0.0000 </r>
       <r>   11.4176    0.0000 </r>
       <r>   11.4324    0.0000 </r>
       <r>   11.4486    0.0000 </r>
       <r>   11.5165    0.0000 </r>
       <r>   11.5416    0.0000 </r>
       <r>   11.5568    0.0000 </r>
       <r>   11.5796    0.0000 </r>
       <r>   11.5888    0.0000 </r>
       <r>   11.5969    0.0000 </r>
       <r>   11.6126    0.0000 </r>
       <r>   11.6488    0.0000 </r>
       <r>   11.6675    0.0000 </r>
       <r>   11.7421    0.0000 </r>
       <r>   11.8250    0.0000 </r>
       <r>   11.8736    0.0000 </r>
       <r>   11.9222    0.0000 </r>
       <r>   11.9574    0.0000 </r>
       <r>   11.9756    0.0000 </r>
       <r>   12.0279    0.0000 </r>
      </set>
     </set>
    </set>
   </array>
  </eigenvalues>
  <separator name="orbital magnetization" >
   <v name="MAGDIPOLOUT">      0.00000000      0.00000000      0.00000000</v>
  </separator>
  <dos>
   <i name="efermi">      2.78726389 </i>
   <total>
    <array>
     <dimension dim="1">gridpoints</dimension>
     <dimension dim="2">spin</dimension>
     <field>energy</field>
     <field>total</field>
     <field>integrated</field>
     <set>
      <set comment="spin 1">
       <r>   -18.7780     0.0000     0.0000 </r>
       <r>   -18.6691     0.0000     0.0000 </r>
       <r>   -18.5603     0.0000     0.0000 </r>
       <r>   -18.4514     0.0000     0.0000 </r>
       <r>   -18.3426     0.0000     0.0000 </r>
       <r>   -18.2338     0.0000     0.0000 </r>
       <r>   -18.1249     0.0000     0.0000 </r>
       <r>   -18.0161     0.0000     0.0000 </r>
       <r>   -17.9072     0.0000     0.0000 </r>
       <r>   -17.7984     0.0000     0.0000 </r>
       <r>   -17.6895     0.0000     0.0000 </r>
       <r>   -17.5807     0.0000     0.0000 </r>
       <r>   -17.4718     0.0000     0.0000 </r>
       <r>   -17.3630     0.4555     0.0496 </r>
       <r>   -17.2541    15.4860     1.7352 </r>
       <r>   -17.1453     2.4327     2.0000 </r>
       <r>   -17.0364     0.0003     2.0000 </r>
       <r>   -16.9276     0.0000     2.0000 </r>
       <r>   -16.8187     0.0000     2.0000 </r>
       <r>   -16.7099     0.0000     2.0000 </r>
       <r>   -16.6011     0.0000     2.0000 </r>
       <r>   -16.4922     0.0000     2.0000 </r>
       <r>   -16.3834     0.0000     2.0000 </r>
       <r>   -16.2745     0.0000     2.0000 </r>
       <r>   -16.1657     0.0000     2.0000 </r>
       <r>   -16.0568     0.0000     2.0000 </r>
       <r>   -15.9480     0.0000     2.0000 </r>
       <r>   -15.8391     0.5065     2.0551 </r>
       <r>   -15.7303    22.2780     4.4800 </r>
       <r>   -15.6214    14.3602     6.0431 </r>
       <r>   -15.5126     4.0753     6.4867 </r>
       <r>   -15.4037    10.6761     7.6487 </r>
       <r>   -15.2949    23.8481    10.2445 </r>
       <r>   -15.1860    45.0212    15.1449 </r>
       <r>   -15.0772    44.3673    19.9741 </r>
       <r>   -14.9684    56.1395    26.0847 </r>
       <r>   -14.8595    60.5594    32.6764 </r>
       <r>   -14.7507    62.0584    39.4313 </r>
       <r>   -14.6418    36.5221    43.4066 </r>
       <r>   -14.5330    54.1544    49.3011 </r>
       <r>   -14.4241    69.7294    56.8909 </r>
       <r>   -14.3153    59.6988    63.3889 </r>
       <r>   -14.2064    75.9459    71.6554 </r>
       <r>   -14.0976    58.3800    78.0099 </r>
       <r>   -13.9887    35.1611    81.8370 </r>
       <r>   -13.8799    36.5004    85.8100 </r>
       <r>   -13.7710    69.0542    93.3263 </r>
       <r>   -13.6622   111.3087   105.4419 </r>
       <r>   -13.5533    67.2849   112.7656 </r>
       <r>   -13.4445    58.3149   119.1130 </r>
       <r>   -13.3357    63.9337   126.0720 </r>
       <r>   -13.2268    50.1271   131.5282 </r>
       <r>   -13.1180    40.7477   135.9634 </r>
       <r>   -13.0091    97.5925   146.5860 </r>
       <r>   -12.9003    87.8866   156.1522 </r>
       <r>   -12.7914   149.6537   172.4415 </r>
       <r>   -12.6826    59.5611   178.9245 </r>
       <r>   -12.5737    71.5269   186.7100 </r>
       <r>   -12.4649    82.5144   195.6914 </r>
       <r>   -12.3560    74.2802   203.7766 </r>
       <r>   -12.2472   164.5126   221.6832 </r>
       <r>   -12.1383   201.4737   243.6130 </r>
       <r>   -12.0295   117.5455   256.4074 </r>
       <r>   -11.9206    56.2371   262.5286 </r>
       <r>   -11.8118    63.5295   269.4436 </r>
       <r>   -11.7029    94.8375   279.7664 </r>
       <r>   -11.5941    55.9847   285.8601 </r>
       <r>   -11.4853    13.3966   287.3183 </r>
       <r>   -11.3764     6.2212   287.9954 </r>
       <r>   -11.2676     0.0419   288.0000 </r>
       <r>   -11.1587     0.0000   288.0000 </r>
       <r>   -11.0499     0.0000   288.0000 </r>
       <r>   -10.9410     0.0000   288.0000 </r>
       <r>   -10.8322     0.0000   288.0000 </r>
       <r>   -10.7233     0.0000   288.0000 </r>
       <r>   -10.6145     0.0000   288.0000 </r>
       <r>   -10.5056     0.0000   288.0000 </r>
       <r>   -10.3968     0.0000   288.0000 </r>
       <r>   -10.2879     0.0000   288.0000 </r>
       <r>   -10.1791     0.0000   288.0000 </r>
       <r>   -10.0702     0.0000   288.0000 </r>
       <r>    -9.9614     0.0000   288.0000 </r>
       <r>    -9.8526     0.0000   288.0000 </r>
       <r>    -9.7437     0.0000   288.0000 </r>
       <r>    -9.6349     0.0000   288.0000 </r>
       <r>    -9.5260     0.0000   288.0000 </r>
       <r>    -9.4172     0.0000   288.0000 </r>
       <r>    -9.3083     0.0000   288.0000 </r>
       <r>    -9.1995     0.0000   288.0000 </r>
       <r>    -9.0906     0.0000   288.0000 </r>
       <r>    -8.9818     0.0000   288.0000 </r>
       <r>    -8.8729     0.0000   288.0000 </r>
       <r>    -8.7641     0.0000   288.0000 </r>
       <r>    -8.6552     0.0000   288.0000 </r>
       <r>    -8.5464     0.0000   288.0000 </r>
       <r>    -8.4375     0.3975   288.0433 </r>
       <r>    -8.3287    15.2058   289.6984 </r>
       <r>    -8.2199     2.7708   290.0000 </r>
       <r>    -8.1110     0.0004   290.0000 </r>
       <r>    -8.0022     0.0000   290.0000 </r>
       <r>    -7.8933     0.0000   290.0000 </r>
       <r>    -7.7845     0.0000   290.0000 </r>
       <r>    -7.6756     0.0000   290.0000 </r>
       <r>    -7.5668     0.0000   290.0000 </r>
       <r>    -7.4579     0.0012   290.0001 </r>
       <r>    -7.3491     3.2360   290.3524 </r>
       <r>    -7.2402    29.2721   293.5385 </r>
       <r>    -7.1314     4.2389   293.9999 </r>
       <r>    -7.0225     0.0007   294.0000 </r>
       <r>    -6.9137     0.0047   294.0005 </r>
       <r>    -6.8048     5.1988   294.5664 </r>
       <r>    -6.6960    21.7076   296.9292 </r>
       <r>    -6.5872    22.4740   299.3754 </r>
       <r>    -6.4783    34.8259   303.1661 </r>
       <r>    -6.3695    42.0895   307.7474 </r>
       <r>    -6.2606   124.3242   321.2797 </r>
       <r>    -6.1518   132.0802   335.6562 </r>
       <r>    -6.0429    65.2882   342.7626 </r>
       <r>    -5.9341    41.4623   347.2756 </r>
       <r>    -5.8252    61.3719   353.9557 </r>
       <r>    -5.7164   173.5200   372.8428 </r>
       <r>    -5.6075   175.1932   391.9120 </r>
       <r>    -5.4987    88.5579   401.5512 </r>
       <r>    -5.3898    12.6570   402.9289 </r>
       <r>    -5.2810    13.7881   404.4297 </r>
       <r>    -5.1721   151.9389   420.9677 </r>
       <r>    -5.0633   109.0267   432.8349 </r>
       <r>    -4.9545    41.5097   437.3531 </r>
       <r>    -4.8456    27.8343   440.3828 </r>
       <r>    -4.7368    21.2797   442.6990 </r>
       <r>    -4.6279    15.8435   444.4235 </r>
       <r>    -4.5191    51.3874   450.0169 </r>
       <r>    -4.4102   151.4023   466.4965 </r>
       <r>    -4.3014    95.4421   476.8851 </r>
       <r>    -4.1925    32.4549   480.4177 </r>
       <r>    -4.0837    65.7671   487.5762 </r>
       <r>    -3.9748    95.4084   497.9611 </r>
       <r>    -3.8660    69.4170   505.5169 </r>
       <r>    -3.7571    22.9653   508.0166 </r>
       <r>    -3.6483    29.5311   511.2310 </r>
       <r>    -3.5394   121.7461   524.4826 </r>
       <r>    -3.4306   129.1907   538.5446 </r>
       <r>    -3.3218    81.9085   547.4601 </r>
       <r>    -3.2129    40.3734   551.8546 </r>
       <r>    -3.1041    76.2320   560.1522 </r>
       <r>    -2.9952   116.9380   572.8805 </r>
       <r>    -2.8864   141.4617   588.2781 </r>
       <r>    -2.7775   120.8666   601.4340 </r>
       <r>    -2.6687   126.6480   615.2193 </r>
       <r>    -2.5598    52.2178   620.9030 </r>
       <r>    -2.4510    63.9201   627.8605 </r>
       <r>    -2.3421   152.1169   644.4179 </r>
       <r>    -2.2333   125.0988   658.0345 </r>
       <r>    -2.1244   114.6044   670.5088 </r>
       <r>    -2.0156   149.0124   686.7283 </r>
       <r>    -1.9067   131.5549   701.0476 </r>
       <r>    -1.7979   180.3673   720.6800 </r>
       <r>    -1.6891   192.5921   741.6430 </r>
       <r>    -1.5802   188.3846   762.1480 </r>
       <r>    -1.4714   169.5336   780.6012 </r>
       <r>    -1.3625   101.9115   791.6939 </r>
       <r>    -1.2537    77.9903   800.1829 </r>
       <r>    -1.1448   191.3522   821.0110 </r>
       <r>    -1.0360   130.0985   835.1718 </r>
       <r>    -0.9271    83.2743   844.2359 </r>
       <r>    -0.8183   110.8442   856.3009 </r>
       <r>    -0.7094   110.9941   868.3823 </r>
       <r>    -0.6006   102.1727   879.5034 </r>
       <r>    -0.4917    79.2974   888.1347 </r>
       <r>    -0.3829   173.2758   906.9952 </r>
       <r>    -0.2740   181.0530   926.7022 </r>
       <r>    -0.1652    98.2248   937.3936 </r>
       <r>    -0.0564    46.8870   942.4971 </r>
       <r>     0.0525    82.5934   951.4871 </r>
       <r>     0.1613    50.8065   957.0173 </r>
       <r>     0.2702   126.6991   970.8080 </r>
       <r>     0.3790   128.9088   984.8393 </r>
       <r>     0.4879   111.0738   996.9293 </r>
       <r>     0.5967   100.8996  1007.9119 </r>
       <r>     0.7056    95.9571  1018.3565 </r>
       <r>     0.8144    71.1687  1026.1030 </r>
       <r>     0.9233   154.4142  1042.9105 </r>
       <r>     1.0321    91.4026  1052.8594 </r>
       <r>     1.1410    94.0214  1063.0933 </r>
       <r>     1.2498    81.3691  1071.9500 </r>
       <r>     1.3587    88.1682  1081.5468 </r>
       <r>     1.4675    70.2100  1089.1890 </r>
       <r>     1.5763    57.6846  1095.4677 </r>
       <r>     1.6852    73.8687  1103.5081 </r>
       <r>     1.7940    58.7431  1109.9021 </r>
       <r>     1.9029   116.1960  1122.5496 </r>
       <r>     2.0117    81.1048  1131.3776 </r>
       <r>     2.1206    47.8181  1136.5825 </r>
       <r>     2.2294    44.4676  1141.4226 </r>
       <r>     2.3383    22.2577  1143.8453 </r>
       <r>     2.4471    61.4264  1150.5313 </r>
       <r>     2.5560    12.9018  1151.9357 </r>
       <r>     2.6648     0.5911  1152.0000 </r>
       <r>     2.7737     0.0000  1152.0000 </r>
       <r>     2.8825     0.0000  1152.0000 </r>
       <r>     2.9914     0.0000  1152.0000 </r>
       <r>     3.1002     0.0000  1152.0000 </r>
       <r>     3.2090     0.0000  1152.0000 </r>
       <r>     3.3179     0.0000  1152.0000 </r>
       <r>     3.4267     0.0000  1152.0000 </r>
       <r>     3.5356     0.0000  1152.0000 </r>
       <r>     3.6444     0.0000  1152.0000 </r>
       <r>     3.7533     0.0000  1152.0000 </r>
       <r>     3.8621     0.0000  1152.0000 </r>
       <r>     3.9710     0.0000  1152.0000 </r>
       <r>     4.0798     0.0000  1152.0000 </r>
       <r>     4.1887     0.0000  1152.0000 </r>
       <r>     4.2975     0.0000  1152.0000 </r>
       <r>     4.4064     0.0000  1152.0000 </r>
       <r>     4.5152     0.0004  1152.0000 </r>
       <r>     4.6241     2.8468  1152.3099 </r>
       <r>     4.7329    15.1571  1153.9597 </r>
       <r>     4.8417     0.3701  1154.0000 </r>
       <r>     4.9506     0.0000  1154.0000 </r>
       <r>     5.0594     0.0000  1154.0000 </r>
       <r>     5.1683     0.0000  1154.0000 </r>
       <r>     5.2771     0.0000  1154.0000 </r>
       <r>     5.3860     0.0000  1154.0000 </r>
       <r>     5.4948     0.0000  1154.0000 </r>
       <r>     5.6037     0.0000  1154.0000 </r>
       <r>     5.7125     0.0000  1154.0000 </r>
       <r>     5.8214     0.3867  1154.0421 </r>
       <r>     5.9302    13.6693  1155.5299 </r>
       <r>     6.0391     4.3152  1155.9996 </r>
       <r>     6.1479     0.0033  1156.0000 </r>
       <r>     6.2568     0.0000  1156.0000 </r>
       <r>     6.3656     0.0032  1156.0004 </r>
       <r>     6.4744     3.4676  1156.3778 </r>
       <r>     6.5833    11.1614  1157.5927 </r>
       <r>     6.6921    38.0555  1161.7349 </r>
       <r>     6.8010     7.3580  1162.5358 </r>
       <r>     6.9098    21.2707  1164.8510 </r>
       <r>     7.0187    38.4176  1169.0327 </r>
       <r>     7.1275    69.7976  1176.6299 </r>
       <r>     7.2364    65.6303  1183.7735 </r>
       <r>     7.3452   101.2148  1194.7904 </r>
       <r>     7.4541    95.1853  1205.1510 </r>
       <r>     7.5629    46.9700  1210.2636 </r>
       <r>     7.6718    66.7027  1217.5239 </r>
       <r>     7.7806    92.8904  1227.6347 </r>
       <r>     7.8895    87.1561  1237.1214 </r>
       <r>     7.9983    83.7672  1246.2392 </r>
       <r>     8.1071    49.9052  1251.6712 </r>
       <r>     8.2160    75.2270  1259.8594 </r>
       <r>     8.3248    73.7427  1267.8861 </r>
       <r>     8.4337    56.5529  1274.0417 </r>
       <r>     8.5425    83.6689  1283.1487 </r>
       <r>     8.6514    67.0745  1290.4496 </r>
       <r>     8.7602    46.7069  1295.5335 </r>
       <r>     8.8691    23.1059  1298.0485 </r>
       <r>     8.9779    46.0281  1303.0585 </r>
       <r>     9.0868    70.0715  1310.6855 </r>
       <r>     9.1956    70.3413  1318.3419 </r>
       <r>     9.3045    99.5259  1329.1750 </r>
       <r>     9.4133    68.7092  1336.6538 </r>
       <r>     9.5222    42.3428  1341.2626 </r>
       <r>     9.6310    66.6661  1348.5190 </r>
       <r>     9.7398    71.2275  1356.2719 </r>
       <r>     9.8487    40.0074  1360.6266 </r>
       <r>     9.9575    39.6290  1364.9401 </r>
       <r>    10.0664    45.0796  1369.8468 </r>
       <r>    10.1752    85.3233  1379.1340 </r>
       <r>    10.2841    62.4651  1385.9331 </r>
       <r>    10.3929    56.8530  1392.1214 </r>
       <r>    10.5018    72.8778  1400.0539 </r>
       <r>    10.6106    64.6831  1407.0944 </r>
       <r>    10.7195    42.8882  1411.7626 </r>
       <r>    10.8283    73.0590  1419.7149 </r>
       <r>    10.9372    36.3908  1423.6759 </r>
       <r>    11.0460    14.1266  1425.2135 </r>
       <r>    11.1549     1.2783  1425.3527 </r>
       <r>    11.2637    23.6177  1427.9234 </r>
       <r>    11.3725    18.7651  1429.9659 </r>
       <r>    11.4814    34.3102  1433.7004 </r>
       <r>    11.5902    49.6405  1439.1036 </r>
       <r>    11.6991    53.2659  1444.9015 </r>
       <r>    11.8079    46.4529  1449.9577 </r>
       <r>    11.9168    28.0538  1453.0113 </r>
       <r>    12.0256    14.3859  1454.5771 </r>
       <r>    12.1345     7.5954  1455.4039 </r>
       <r>    12.2433     1.8892  1455.6095 </r>
       <r>    12.3522     1.5889  1455.7824 </r>
       <r>    12.4610     1.9413  1455.9937 </r>
       <r>    12.5699     0.0575  1456.0000 </r>
       <r>    12.6787     0.0000  1456.0000 </r>
       <r>    12.7876     0.0000  1456.0000 </r>
       <r>    12.8964     0.0000  1456.0000 </r>
       <r>    13.0052     0.0000  1456.0000 </r>
       <r>    13.1141     0.0000  1456.0000 </r>
       <r>    13.2229     0.0000  1456.0000 </r>
       <r>    13.3318     0.0000  1456.0000 </r>
       <r>    13.4406     0.0000  1456.0000 </r>
       <r>    13.5495     0.0000  1456.0000 </r>
       <r>    13.6583     0.0000  1456.0000 </r>
       <r>    13.7672     0.0000  1456.0000 </r>
       <r>    13.8760     0.0000  1456.0000 </r>
      </set>
      <set comment="spin 2">
       <r>   -18.7780     0.0000     0.0000 </r>
       <r>   -18.6691     0.0000     0.0000 </r>
       <r>   -18.5603     0.0000     0.0000 </r>
       <r>   -18.4514     0.0000     0.0000 </r>
       <r>   -18.3426     0.0000     0.0000 </r>
       <r>   -18.2338     0.0000     0.0000 </r>
       <r>   -18.1249     0.0000     0.0000 </r>
       <r>   -18.0161     0.0000     0.0000 </r>
       <r>   -17.9072     0.0000     0.0000 </r>
       <r>   -17.7984     0.0000     0.0000 </r>
       <r>   -17.6895     0.0000     0.0000 </r>
       <r>   -17.5807     0.0000     0.0000 </r>
       <r>   -17.4718     0.0000     0.0000 </r>
       <r>   -17.3630     0.0000     0.0000 </r>
       <r>   -17.2541     0.1158     0.0126 </r>
       <r>   -17.1453    13.1194     1.4406 </r>
       <r>   -17.0364     5.1370     1.9998 </r>
       <r>   -16.9276     0.0023     2.0000 </r>
       <r>   -16.8187     0.0000     2.0000 </r>
       <r>   -16.7099     0.0000     2.0000 </r>
       <r>   -16.6011     0.0000     2.0000 </r>
       <r>   -16.4922     0.0000     2.0000 </r>
       <r>   -16.3834     0.0000     2.0000 </r>
       <r>   -16.2745     0.0000     2.0000 </r>
       <r>   -16.1657     0.0000     2.0000 </r>
       <r>   -16.0568     0.0000     2.0000 </r>
       <r>   -15.9480     0.0000     2.0000 </r>
       <r>   -15.8391     0.0453     2.0049 </r>
       <r>   -15.7303    11.0043     3.2027 </r>
       <r>   -15.6214    25.0672     5.9312 </r>
       <r>   -15.5126     5.0150     6.4771 </r>
       <r>   -15.4037     9.9884     7.5643 </r>
       <r>   -15.2949    21.5110     9.9057 </r>
       <r>   -15.1860    47.2878    15.0528 </r>
       <r>   -15.0772    42.1912    19.6452 </r>
       <r>   -14.9684    58.7304    26.0378 </r>
       <r>   -14.8595    59.6996    32.5359 </r>
       <r>   -14.7507    61.9078    39.2743 </r>
       <r>   -14.6418    37.0581    43.3080 </r>
       <r>   -14.5330    52.4327    49.0151 </r>
       <r>   -14.4241    71.5577    56.8039 </r>
       <r>   -14.3153    59.3757    63.2668 </r>
       <r>   -14.2064    76.4119    71.5839 </r>
       <r>   -14.0976    58.0243    77.8997 </r>
       <r>   -13.9887    35.3511    81.7475 </r>
       <r>   -13.8799    36.5336    85.7241 </r>
       <r>   -13.7710    68.1534    93.1424 </r>
       <r>   -13.6622   112.3032   105.3662 </r>
       <r>   -13.5533    67.2213   112.6830 </r>
       <r>   -13.4445    58.8416   119.0877 </r>
       <r>   -13.3357    62.8874   125.9328 </r>
       <r>   -13.2268    50.5619   131.4363 </r>
       <r>   -13.1180    41.1770   135.9183 </r>
       <r>   -13.0091    97.3865   146.5185 </r>
       <r>   -12.9003    86.8099   155.9674 </r>
       <r>   -12.7914   151.1215   172.4165 </r>
       <r>   -12.6826    59.2193   178.8623 </r>
       <r>   -12.5737    71.6134   186.6572 </r>
       <r>   -12.4649    82.3315   195.6187 </r>
       <r>   -12.3560    74.4711   203.7246 </r>
       <r>   -12.2472   164.7618   221.6584 </r>
       <r>   -12.1383   201.3946   243.5795 </r>
       <r>   -12.0295   117.7350   256.3946 </r>
       <r>   -11.9206    56.1903   262.5107 </r>
       <r>   -11.8118    63.5313   269.4259 </r>
       <r>   -11.7029    94.9876   279.7650 </r>
       <r>   -11.5941    55.9632   285.8564 </r>
       <r>   -11.4853    13.4282   287.3180 </r>
       <r>   -11.3764     6.2235   287.9954 </r>
       <r>   -11.2676     0.0420   288.0000 </r>
       <r>   -11.1587     0.0000   288.0000 </r>
       <r>   -11.0499     0.0000   288.0000 </r>
       <r>   -10.9410     0.0000   288.0000 </r>
       <r>   -10.8322     0.0000   288.0000 </r>
       <r>   -10.7233     0.0000   288.0000 </r>
       <r>   -10.6145     0.0000   288.0000 </r>
       <r>   -10.5056     0.0000   288.0000 </r>
       <r>   -10.3968     0.0000   288.0000 </r>
       <r>   -10.2879     0.0000   288.0000 </r>
       <r>   -10.1791     0.0000   288.0000 </r>
       <r>   -10.0702     0.0000   288.0000 </r>
       <r>    -9.9614     0.0000   288.0000 </r>
       <r>    -9.8526     0.0000   288.0000 </r>
       <r>    -9.7437     0.0000   288.0000 </r>
       <r>    -9.6349     0.0000   288.0000 </r>
       <r>    -9.5260     0.0000   288.0000 </r>
       <r>    -9.4172     0.0000   288.0000 </r>
       <r>    -9.3083     0.0000   288.0000 </r>
       <r>    -9.1995     0.0000   288.0000 </r>
       <r>    -9.0906     0.0000   288.0000 </r>
       <r>    -8.9818     0.0000   288.0000 </r>
       <r>    -8.8729     0.0000   288.0000 </r>
       <r>    -8.7641     0.0000   288.0000 </r>
       <r>    -8.6552     0.0000   288.0000 </r>
       <r>    -8.5464     0.0000   288.0000 </r>
       <r>    -8.4375     0.0000   288.0000 </r>
       <r>    -8.3287     0.0001   288.0000 </r>
       <r>    -8.2199     1.2165   288.1324 </r>
       <r>    -8.1110    15.9950   289.8734 </r>
       <r>    -8.0022     1.1629   290.0000 </r>
       <r>    -7.8933     0.0000   290.0000 </r>
       <r>    -7.7845     0.0000   290.0000 </r>
       <r>    -7.6756     0.0000   290.0000 </r>
       <r>    -7.5668     0.0000   290.0000 </r>
       <r>    -7.4579     0.0000   290.0000 </r>
       <r>    -7.3491     0.7541   290.0821 </r>
       <r>    -7.2402    22.4171   292.5221 </r>
       <r>    -7.1314    13.5489   293.9969 </r>
       <r>    -7.0225     0.0288   294.0000 </r>
       <r>    -6.9137     0.0015   294.0002 </r>
       <r>    -6.8048     3.7220   294.4053 </r>
       <r>    -6.6960    21.7077   296.7681 </r>
       <r>    -6.5872    22.2787   299.1931 </r>
       <r>    -6.4783    34.2795   302.9243 </r>
       <r>    -6.3695    42.9224   307.5962 </r>
       <r>    -6.2606   124.2122   321.1163 </r>
       <r>    -6.1518   133.0482   335.5982 </r>
       <r>    -6.0429    65.4523   342.7225 </r>
       <r>    -5.9341    41.6183   347.2525 </r>
       <r>    -5.8252    59.9970   353.7829 </r>
       <r>    -5.7164   172.8432   372.5963 </r>
       <r>    -5.6075   176.8985   391.8512 </r>
       <r>    -5.4987    89.1106   401.5506 </r>
       <r>    -5.3898    12.2302   402.8818 </r>
       <r>    -5.2810    13.6370   404.3661 </r>
       <r>    -5.1721   150.9226   420.7935 </r>
       <r>    -5.0633   107.4884   432.4933 </r>
       <r>    -4.9545    43.2996   437.2063 </r>
       <r>    -4.8456    28.2747   440.2839 </r>
       <r>    -4.7368    22.1074   442.6902 </r>
       <r>    -4.6279    13.9584   444.2096 </r>
       <r>    -4.5191    50.8414   449.7435 </r>
       <r>    -4.4102   153.7007   466.4733 </r>
       <r>    -4.3014    84.7500   475.6980 </r>
       <r>    -4.1925    23.4330   478.2486 </r>
       <r>    -4.0837    73.0975   486.2051 </r>
       <r>    -3.9748   106.3612   497.7821 </r>
       <r>    -3.8660    70.1311   505.4157 </r>
       <r>    -3.7571    21.8800   507.7972 </r>
       <r>    -3.6483    27.7577   510.8186 </r>
       <r>    -3.5394   121.9517   524.0926 </r>
       <r>    -3.4306   128.4374   538.0726 </r>
       <r>    -3.3218    79.0192   546.6736 </r>
       <r>    -3.2129    45.4690   551.6227 </r>
       <r>    -3.1041    71.9331   559.4524 </r>
       <r>    -2.9952   121.7358   572.7029 </r>
       <r>    -2.8864   139.4946   587.8864 </r>
       <r>    -2.7775   111.5459   600.0278 </r>
       <r>    -2.6687   134.9380   614.7154 </r>
       <r>    -2.5598    54.2323   620.6184 </r>
       <r>    -2.4510    63.6190   627.5431 </r>
       <r>    -2.3421   151.0306   643.9823 </r>
       <r>    -2.2333   125.1054   657.5996 </r>
       <r>    -2.1244   116.4309   670.2727 </r>
       <r>    -2.0156   141.8088   685.7081 </r>
       <r>    -1.9067   131.1823   699.9869 </r>
       <r>    -1.7979   184.7177   720.0928 </r>
       <r>    -1.6891   191.5678   740.9443 </r>
       <r>    -1.5802   192.3467   761.8806 </r>
       <r>    -1.4714   168.7194   780.2452 </r>
       <r>    -1.3625   102.1784   791.3669 </r>
       <r>    -1.2537    76.3608   799.6786 </r>
       <r>    -1.1448   191.0417   820.4728 </r>
       <r>    -1.0360   130.4490   834.6717 </r>
       <r>    -0.9271    77.8135   843.1415 </r>
       <r>    -0.8183   118.4147   856.0305 </r>
       <r>    -0.7094   105.5474   867.5190 </r>
       <r>    -0.6006   105.9131   879.0473 </r>
       <r>    -0.4917    80.8242   887.8448 </r>
       <r>    -0.3829   169.1684   906.2582 </r>
       <r>    -0.2740   185.1434   926.4104 </r>
       <r>    -0.1652    99.7053   937.2630 </r>
       <r>    -0.0564    46.4631   942.3204 </r>
       <r>     0.0525    76.7031   950.6692 </r>
       <r>     0.1613    54.9553   956.6509 </r>
       <r>     0.2702   126.9333   970.4672 </r>
       <r>     0.3790   125.7977   984.1599 </r>
       <r>     0.4879   113.0530   996.4653 </r>
       <r>     0.5967   101.9305  1007.5601 </r>
       <r>     0.7056    95.6974  1017.9765 </r>
       <r>     0.8144    73.3468  1025.9600 </r>
       <r>     0.9233   154.2476  1042.7493 </r>
       <r>     1.0321    90.9648  1052.6506 </r>
       <r>     1.1410    93.8079  1062.8613 </r>
       <r>     1.2498    79.6874  1071.5350 </r>
       <r>     1.3587    90.9850  1081.4384 </r>
       <r>     1.4675    68.9200  1088.9401 </r>
       <r>     1.5763    57.4995  1095.1987 </r>
       <r>     1.6852    75.4852  1103.4150 </r>
       <r>     1.7940    58.6497  1109.7989 </r>
       <r>     1.9029   116.4444  1122.4734 </r>
       <r>     2.0117    80.6838  1131.2556 </r>
       <r>     2.1206    48.7332  1136.5600 </r>
       <r>     2.2294    44.1439  1141.3650 </r>
       <r>     2.3383    22.4575  1143.8094 </r>
       <r>     2.4471    61.6011  1150.5145 </r>
       <r>     2.5560    13.0539  1151.9353 </r>
       <r>     2.6648     0.5941  1152.0000 </r>
       <r>     2.7737     0.0000  1152.0000 </r>
       <r>     2.8825     0.0000  1152.0000 </r>
       <r>     2.9914     0.0000  1152.0000 </r>
       <r>     3.1002     0.0000  1152.0000 </r>
       <r>     3.2090     0.0000  1152.0000 </r>
       <r>     3.3179     0.0000  1152.0000 </r>
       <r>     3.4267     0.0000  1152.0000 </r>
       <r>     3.5356     0.0000  1152.0000 </r>
       <r>     3.6444     0.0000  1152.0000 </r>
       <r>     3.7533     0.0000  1152.0000 </r>
       <r>     3.8621     0.0000  1152.0000 </r>
       <r>     3.9710     0.0000  1152.0000 </r>
       <r>     4.0798     0.0000  1152.0000 </r>
       <r>     4.1887     0.0000  1152.0000 </r>
       <r>     4.2975     0.0000  1152.0000 </r>
       <r>     4.4064     0.0000  1152.0000 </r>
       <r>     4.5152     0.0000  1152.0000 </r>
       <r>     4.6241     0.0000  1152.0000 </r>
       <r>     4.7329     0.0000  1152.0000 </r>
       <r>     4.8417     0.0000  1152.0000 </r>
       <r>     4.9506     0.0000  1152.0000 </r>
       <r>     5.0594     0.0000  1152.0000 </r>
       <r>     5.1683     0.0000  1152.0000 </r>
       <r>     5.2771     0.0000  1152.0000 </r>
       <r>     5.3860     0.0000  1152.0000 </r>
       <r>     5.4948     1.1139  1152.1212 </r>
       <r>     5.6037    16.0678  1153.8702 </r>
       <r>     5.7125     1.1927  1154.0000 </r>
       <r>     5.8214     0.0000  1154.0000 </r>
       <r>     5.9302     0.0000  1154.0000 </r>
       <r>     6.0391     0.0000  1154.0000 </r>
       <r>     6.1479     0.0000  1154.0000 </r>
       <r>     6.2568     0.0000  1154.0000 </r>
       <r>     6.3656     0.0000  1154.0000 </r>
       <r>     6.4744     0.7570  1154.0824 </r>
       <r>     6.5833     8.2289  1154.9781 </r>
       <r>     6.6921    29.6155  1158.2016 </r>
       <r>     6.8010    35.5125  1162.0671 </r>
       <r>     6.9098    23.5392  1164.6292 </r>
       <r>     7.0187    36.2591  1168.5759 </r>
       <r>     7.1275    70.9261  1176.2960 </r>
       <r>     7.2364    63.6452  1183.2235 </r>
       <r>     7.3452   102.0303  1194.3292 </r>
       <r>     7.4541    92.8185  1204.4322 </r>
       <r>     7.5629    51.4757  1210.0352 </r>
       <r>     7.6718    64.7282  1217.0806 </r>
       <r>     7.7806    93.1765  1227.2225 </r>
       <r>     7.8895    87.0452  1236.6971 </r>
       <r>     7.9983    83.3406  1245.7685 </r>
       <r>     8.1071    49.0887  1251.1116 </r>
       <r>     8.2160    72.5025  1259.0033 </r>
       <r>     8.3248    78.2615  1267.5218 </r>
       <r>     8.4337    55.0995  1273.5192 </r>
       <r>     8.5425    84.5530  1282.7225 </r>
       <r>     8.6514    67.1081  1290.0270 </r>
       <r>     8.7602    46.2984  1295.0664 </r>
       <r>     8.8691    19.3808  1297.1759 </r>
       <r>     8.9779    44.7123  1302.0427 </r>
       <r>     9.0868    71.5288  1309.8284 </r>
       <r>     9.1956    71.2045  1317.5788 </r>
       <r>     9.3045    90.9174  1327.4748 </r>
       <r>     9.4133    71.3799  1335.2443 </r>
       <r>     9.5222    47.4550  1340.4096 </r>
       <r>     9.6310    59.3275  1346.8672 </r>
       <r>     9.7398    77.8739  1355.3435 </r>
       <r>     9.8487    44.4353  1360.1802 </r>
       <r>     9.9575    39.4861  1364.4781 </r>
       <r>    10.0664    43.6071  1369.2246 </r>
       <r>    10.1752    85.7493  1378.5581 </r>
       <r>    10.2841    62.8963  1385.4042 </r>
       <r>    10.3929    59.4655  1391.8768 </r>
       <r>    10.5018    71.8034  1399.6924 </r>
       <r>    10.6106    66.1124  1406.8885 </r>
       <r>    10.7195    43.1883  1411.5894 </r>
       <r>    10.8283    72.4748  1419.4780 </r>
       <r>    10.9372    36.2177  1423.4202 </r>
       <r>    11.0460    16.0593  1425.1682 </r>
       <r>    11.1549     1.6400  1425.3467 </r>
       <r>    11.2637    22.0558  1427.7474 </r>
       <r>    11.3725    18.4538  1429.7560 </r>
       <r>    11.4814    35.1272  1433.5795 </r>
       <r>    11.5902    53.1859  1439.3686 </r>
       <r>    11.6991    48.7096  1444.6705 </r>
       <r>    11.8079    42.7903  1449.3281 </r>
       <r>    11.9168    26.8583  1452.2515 </r>
       <r>    12.0256    20.6938  1454.5040 </r>
       <r>    12.1345     6.7760  1455.2415 </r>
       <r>    12.2433     0.8855  1455.3379 </r>
       <r>    12.3522     4.0891  1455.7830 </r>
       <r>    12.4610     1.9529  1455.9955 </r>
       <r>    12.5699     0.0411  1456.0000 </r>
       <r>    12.6787     0.0000  1456.0000 </r>
       <r>    12.7876     0.0000  1456.0000 </r>
       <r>    12.8964     0.0000  1456.0000 </r>
       <r>    13.0052     0.0000  1456.0000 </r>
       <r>    13.1141     0.0000  1456.0000 </r>
       <r>    13.2229     0.0000  1456.0000 </r>
       <r>    13.3318     0.0000  1456.0000 </r>
       <r>    13.4406     0.0000  1456.0000 </r>
       <r>    13.5495     0.0000  1456.0000 </r>
       <r>    13.6583     0.0000  1456.0000 </r>
       <r>    13.7672     0.0000  1456.0000 </r>
       <r>    13.8760     0.0000  1456.0000 </r>
      </set>
     </set>
    </array>
   </total>
  </dos>
 </calculation>
 <structure name="finalpos" >
  <crystal>
   <varray name="basis" >
    <v>      14.93631415       0.00000000       0.00000000 </v>
    <v>      -7.46815707      12.93522749      -0.00000000 </v>
    <v>       0.00000000       0.00000000      13.34127628 </v>
   </varray>
   <i name="volume">   2577.59623255 </i>
   <varray name="rec_basis" >
    <v>       0.06695092       0.03865413      -0.00000000 </v>
    <v>       0.00000000       0.07730827      -0.00000000 </v>
    <v>       0.00000000       0.00000000       0.07495535 </v>
   </varray>
  </crystal>
  <varray name="positions" >
   <v>       0.44444444       0.38888889       0.37500000 </v>
   <v>       0.11110578       0.05553988       0.12514209 </v>
   <v>       0.61111893       0.55556454       0.12533815 </v>
   <v>       0.44443410       0.05553988       0.12514209 </v>
   <v>       0.94445577       0.55556472       0.12511237 </v>
   <v>       0.77777778       0.05555556       0.12508750 </v>
   <v>       0.11111111       0.72222222       0.62490204 </v>
   <v>       0.44443410       0.72222755       0.62485791 </v>
   <v>       0.27776879       0.22221440       0.62466185 </v>
   <v>       0.77779345       0.72222755       0.62485791 </v>
   <v>       0.61111409       0.22221925       0.62484996 </v>
   <v>       0.94444599       0.22222938       0.62490241 </v>
   <v>       0.27776861       0.72222439       0.12511237 </v>
   <v>       0.11110516       0.22221925       0.12515004 </v>
   <v>       0.44444561       0.22221440       0.12533815 </v>
   <v>       0.61111409       0.72222817       0.12515004 </v>
   <v>       0.94445577       0.72222439       0.12511237 </v>
   <v>       0.77778339       0.22222938       0.12509759 </v>
   <v>       0.11110895       0.88887756       0.62488763 </v>
   <v>       0.44443273       0.88888303       0.62489877 </v>
   <v>       0.27776879       0.38888773       0.62466185 </v>
   <v>       0.61111893       0.38888773       0.62466185 </v>
   <v>       0.77778339       0.88888734       0.62490241 </v>
   <v>       0.94445030       0.38890061       0.62489877 </v>
   <v>       0.11110578       0.38889924       0.12514209 </v>
   <v>       0.27776861       0.88887756       0.12511237 </v>
   <v>       0.61110395       0.88888734       0.12509759 </v>
   <v>       0.44444444       0.38888889       0.12572567 </v>
   <v>       0.94445030       0.88888303       0.12510123 </v>
   <v>       0.77779345       0.38889924       0.12514209 </v>
   <v>       0.27776995       0.55556338       0.62481384 </v>
   <v>       0.11110578       0.05553988       0.62485791 </v>
   <v>       0.61111893       0.55556454       0.62466185 </v>
   <v>       0.44443410       0.05553988       0.62485791 </v>
   <v>       0.94445577       0.55556472       0.62488763 </v>
   <v>       0.11110895       0.55556472       0.12511237 </v>
   <v>       0.77777778       0.05555556       0.62491250 </v>
   <v>       0.27776995       0.05553990       0.12518616 </v>
   <v>       0.44444561       0.55556454       0.12533815 </v>
   <v>       0.77779343       0.55556338       0.12518616 </v>
   <v>       0.61110395       0.05554994       0.12509759 </v>
   <v>       0.44444561       0.55556454       0.62466185 </v>
   <v>       0.94444599       0.05554994       0.12509759 </v>
   <v>       0.27776861       0.72222439       0.62488763 </v>
   <v>       0.11110516       0.22221925       0.62484996 </v>
   <v>       0.44444561       0.22221440       0.62466185 </v>
   <v>       0.61111409       0.72222817       0.62484996 </v>
   <v>       0.94445577       0.72222439       0.62488763 </v>
   <v>       0.77778339       0.22222938       0.62490241 </v>
   <v>       0.11111111       0.72222222       0.12509796 </v>
   <v>       0.44443410       0.72222755       0.12514209 </v>
   <v>       0.27776879       0.22221440       0.12533815 </v>
   <v>       0.77779345       0.72222755       0.12514209 </v>
   <v>       0.61111409       0.22221925       0.12515004 </v>
   <v>       0.94444599       0.22222938       0.12509759 </v>
   <v>       0.11110578       0.38889924       0.62485791 </v>
   <v>       0.27776861       0.88887756       0.62488763 </v>
   <v>       0.61110395       0.88888734       0.62490241 </v>
   <v>       0.44444444       0.38888889       0.62427433 </v>
   <v>       0.94445030       0.88888303       0.62489877 </v>
   <v>       0.11110895       0.88887756       0.12511237 </v>
   <v>       0.77779345       0.38889924       0.62485791 </v>
   <v>       0.44443273       0.88888303       0.12510123 </v>
   <v>       0.27776879       0.38888773       0.12533815 </v>
   <v>       0.27776995       0.55556338       0.12518616 </v>
   <v>       0.61111893       0.38888773       0.12533815 </v>
   <v>       0.77778339       0.88888734       0.12509759 </v>
   <v>       0.94445030       0.38890061       0.12510123 </v>
   <v>       0.11110895       0.55556472       0.62488763 </v>
   <v>       0.27776995       0.05553990       0.62481384 </v>
   <v>       0.77779343       0.55556338       0.62481384 </v>
   <v>       0.61110395       0.05554994       0.62490241 </v>
   <v>       0.94444599       0.05554994       0.62490241 </v>
   <v>       0.05492459       0.11067225       0.37500000 </v>
   <v>       0.55597948       0.61195895       0.37500000 </v>
   <v>       0.38821178       0.10798614       0.37500000 </v>
   <v>       0.88997050       0.61165191       0.37500000 </v>
   <v>       0.72233166       0.11100168       0.37500000 </v>
   <v>       0.05555347       0.77777986       0.87500000 </v>
   <v>       0.38889499       0.77778040       0.87500000 </v>
   <v>       0.22222211       0.27777772       0.87500000 </v>
   <v>       0.72222208       0.77778036       0.87500000 </v>
   <v>       0.55555561       0.27777772       0.87500000 </v>
   <v>       0.88888780       0.27777560       0.87500000 </v>
   <v>       0.22203010       0.77768172       0.37500000 </v>
   <v>       0.05492459       0.27758567       0.37500000 </v>
   <v>       0.38321436       0.26642872       0.37500000 </v>
   <v>       0.55574766       0.77840874       0.37500000 </v>
   <v>       0.88973042       0.77847773       0.37500000 </v>
   <v>       0.72266108       0.27758567       0.37500000 </v>
   <v>       0.05555294       0.94444793       0.87500000 </v>
   <v>       0.38889499       0.94444793       0.87500000 </v>
   <v>       0.22222295       0.44443974       0.87500000 </v>
   <v>       0.55555250       0.44444291       0.87500000 </v>
   <v>       0.72222259       0.94444517       0.87500000 </v>
   <v>       0.88888540       0.44443834       0.87500000 </v>
   <v>       0.05485561       0.44458602       0.37500000 </v>
   <v>       0.22168142       0.94336284       0.37500000 </v>
   <v>       0.55571596       0.94452465       0.37500000 </v>
   <v>       0.38321436       0.45011897       0.37500000 </v>
   <v>       0.88880868       0.94452465       0.37500000 </v>
   <v>       0.72534720       0.44512155       0.37500000 </v>
   <v>       0.22222502       0.61110832       0.87500000 </v>
   <v>       0.05555297       0.11111126       0.87500000 </v>
   <v>       0.55555561       0.61111123       0.87500000 </v>
   <v>       0.38889360       0.11111654       0.87500000 </v>
   <v>       0.88888330       0.61110832       0.87500000 </v>
   <v>       0.05565162       0.61130323       0.37500000 </v>
   <v>       0.72222259       0.11111075       0.87500000 </v>
   <v>       0.21977436       0.10798614       0.37500000 </v>
   <v>       0.38821178       0.61355898       0.37500000 </v>
   <v>       0.72534720       0.61355898       0.37500000 </v>
   <v>       0.55574766       0.11067225       0.37500000 </v>
   <v>       0.38889360       0.61111039       0.87500000 </v>
   <v>       0.88867002       0.11100168       0.37500000 </v>
   <v>       0.22222639       0.77777986       0.87500000 </v>
   <v>       0.05555297       0.27777505       0.87500000 </v>
   <v>       0.38889042       0.27778084       0.87500000 </v>
   <v>       0.55555829       0.77778036       0.87500000 </v>
   <v>       0.88888540       0.77778040       0.87500000 </v>
   <v>       0.72222208       0.27777505       0.87500000 </v>
   <v>       0.05565162       0.77768172       0.37500000 </v>
   <v>       0.38874731       0.77847773       0.37500000 </v>
   <v>       0.22137438       0.27735386       0.37500000 </v>
   <v>       0.72266108       0.77840874       0.37500000 </v>
   <v>       0.55597948       0.27735386       0.37500000 </v>
   <v>       0.88880868       0.27761737       0.37500000 </v>
   <v>       0.05555294       0.44443834       0.87500000 </v>
   <v>       0.22222502       0.94445003       0.87500000 </v>
   <v>       0.55555773       0.94444553       0.87500000 </v>
   <v>       0.38889042       0.44444291       0.87500000 </v>
   <v>       0.88888780       0.94444553       0.87500000 </v>
   <v>       0.05485561       0.94360291       0.37500000 </v>
   <v>       0.72221679       0.44443974       0.87500000 </v>
   <v>       0.38874731       0.94360291       0.37500000 </v>
   <v>       0.21977436       0.44512155       0.37500000 </v>
   <v>       0.22168142       0.61165191       0.37500000 </v>
   <v>       0.56690462       0.45011897       0.37500000 </v>
   <v>       0.72233166       0.94466331       0.37500000 </v>
   <v>       0.88973042       0.44458602       0.37500000 </v>
   <v>       0.05555347       0.61110694       0.87500000 </v>
   <v>       0.22222295       0.11111654       0.87500000 </v>
   <v>       0.72221679       0.61111039       0.87500000 </v>
   <v>       0.55555829       0.11111126       0.87500000 </v>
   <v>       0.88888816       0.11111075       0.87500000 </v>
   <v>       0.10888702       0.05363429       0.37500000 </v>
   <v>       0.61662821       0.56151023       0.37500000 </v>
   <v>       0.44474727       0.05363429       0.37500000 </v>
   <v>       0.94505350       0.55569452       0.37500000 </v>
   <v>       0.77777778       0.05555556       0.37500000 </v>
   <v>       0.11111111       0.72222222       0.87500000 </v>
   <v>       0.44445789       0.72225917       0.87500000 </v>
   <v>       0.27773656       0.22218886       0.87500000 </v>
   <v>       0.77780129       0.72225917       0.87500000 </v>
   <v>       0.61113701       0.22219632       0.87500000 </v>
   <v>       0.94391959       0.22220602       0.87450068 </v>
   <v>       0.27763881       0.72269232       0.37500000 </v>
   <v>       0.10939752       0.22136543       0.37500000 </v>
   <v>       0.44488202       0.21670513       0.37500000 </v>
   <v>       0.61196791       0.72393582       0.37500000 </v>
   <v>       0.94505350       0.72269232       0.37500000 </v>
   <v>       0.77798832       0.22181380       0.37500000 </v>
   <v>       0.11109976       0.88887925       0.87500000 </v>
   <v>       0.44445802       0.88889568       0.87500000 </v>
   <v>       0.27773656       0.38888103       0.87500000 </v>
   <v>       0.61114447       0.38888103       0.87500000 </v>
   <v>       0.77778711       0.88891442       0.87500000 </v>
   <v>       0.94443766       0.38887531       0.87500000 </v>
   <v>       0.10888702       0.38858606       0.37500000 </v>
   <v>       0.27763881       0.88827983       0.37500000 </v>
   <v>       0.61151953       0.88950785       0.37500000 </v>
   <v>       0.94428960       0.88904373       0.37500000 </v>
   <v>       0.77969904       0.38858606       0.37500000 </v>
   <v>       0.27776270       0.55557063       0.87500000 </v>
   <v>       0.11107416       0.05553205       0.87500000 </v>
   <v>       0.61114447       0.55559678       0.87500000 </v>
   <v>       0.44445789       0.05553205       0.87500000 </v>
   <v>       0.94445408       0.55555385       0.87500000 </v>
   <v>       0.11064101       0.55569452       0.37500000 </v>
   <v>       0.77777778       0.05555556       0.87500000 </v>
   <v>       0.27665444       0.05330889       0.37500000 </v>
   <v>       0.44488202       0.56151023       0.37500000 </v>
   <v>       0.78002445       0.55667889       0.37500000 </v>
   <v>       0.61151953       0.05534502       0.37500000 </v>
   <v>       0.44445231       0.55559678       0.87500000 </v>
   <v>       0.94382548       0.05534502       0.37500000 </v>
   <v>       0.27777949       0.72223357       0.87500000 </v>
   <v>       0.11105932       0.22219632       0.87500000 </v>
   <v>       0.44445231       0.22218886       0.87500000 </v>
   <v>       0.61113701       0.72227402       0.87500000 </v>
   <v>       0.94445408       0.72223357       0.87500000 </v>
   <v>       0.77778711       0.22220602       0.87500000 </v>
   <v>       0.11111111       0.72222222       0.37500000 </v>
   <v>       0.44474727       0.72444631       0.37500000 </v>
   <v>       0.27182310       0.21670513       0.37500000 </v>
   <v>       0.77969904       0.72444631       0.37500000 </v>
   <v>       0.61196791       0.22136543       0.37500000 </v>
   <v>       0.94382548       0.22181380       0.37500000 </v>
   <v>       0.11107416       0.38887545       0.87500000 </v>
   <v>       0.27777949       0.88887925       0.87500000 </v>
   <v>       0.61112731       0.88891442       0.87500000 </v>
   <v>       0.44444444       0.38888889       0.87500000 </v>
   <v>       0.94443766       0.88889568       0.87500000 </v>
   <v>       0.11064101       0.88827983       0.37500000 </v>
   <v>       0.77780129       0.38887545       0.87500000 </v>
   <v>       0.44475413       0.88904373       0.37500000 </v>
   <v>       0.27182310       0.38845131       0.37500000 </v>
   <v>       0.27665444       0.55667889       0.37500000 </v>
   <v>       0.61662821       0.38845131       0.37500000 </v>
   <v>       0.77798832       0.88950785       0.37500000 </v>
   <v>       0.94428960       0.38857921       0.37500000 </v>
   <v>       0.11109976       0.55555385       0.87500000 </v>
   <v>       0.27776270       0.05552540       0.87500000 </v>
   <v>       0.77780793       0.55557063       0.87500000 </v>
   <v>       0.61112731       0.05554622       0.87500000 </v>
   <v>       0.94441891       0.05554622       0.87500000 </v>
   <v>       0.05546928       0.11103632       0.12487403 </v>
   <v>       0.55563492       0.61126984       0.12476730 </v>
   <v>       0.38882801       0.11092619       0.12483104 </v>
   <v>       0.88900701       0.61117017       0.12488859 </v>
   <v>       0.72223458       0.11109875       0.12491481 </v>
   <v>       0.05557215       0.77776118       0.62509033 </v>
   <v>       0.38885004       0.77781495       0.62510653 </v>
   <v>       0.22206349       0.27769841       0.62523270 </v>
   <v>       0.72229702       0.77786405       0.62512597 </v>
   <v>       0.55563492       0.27769841       0.62523270 </v>
   <v>       0.88889259       0.27778519       0.62508998 </v>
   <v>       0.22218903       0.77776118       0.12490967 </v>
   <v>       0.05546928       0.27776630       0.12487403 </v>
   <v>       0.38878395       0.27756790       0.12459556 </v>
   <v>       0.55556704       0.77786405       0.12487403 </v>
   <v>       0.88896491       0.77781495       0.12489347 </v>
   <v>       0.72229702       0.27776630       0.12487403 </v>
   <v>       0.05551838       0.94436842       0.62510653 </v>
   <v>       0.38885004       0.94436842       0.62510653 </v>
   <v>       0.22209818       0.44450532       0.62516896 </v>
   <v>       0.55576543       0.44454938       0.62540444 </v>
   <v>       0.72223458       0.94446917       0.62508519 </v>
   <v>       0.88896491       0.44448330       0.62510653 </v>
   <v>       0.05551838       0.44448330       0.12489347 </v>
   <v>       0.22216316       0.94432633       0.12488859 </v>
   <v>       0.55554814       0.94444074       0.12491002 </v>
   <v>       0.38878395       0.44454938       0.12459556 </v>
   <v>       0.88889259       0.94444074       0.12491002 </v>
   <v>       0.72240714       0.44450532       0.12483104 </v>
   <v>       0.22216316       0.61117017       0.62511141 </v>
   <v>       0.05546928       0.11103632       0.62512597 </v>
   <v>       0.55563492       0.61126984       0.62523270 </v>
   <v>       0.38882801       0.11092619       0.62516896 </v>
   <v>       0.88900701       0.61117017       0.62511141 </v>
   <v>       0.05557215       0.61114430       0.12490967 </v>
   <v>       0.72223458       0.11109875       0.62508519 </v>
   <v>       0.22209818       0.11092619       0.12483104 </v>
   <v>       0.38882801       0.61123515       0.12483104 </v>
   <v>       0.72240714       0.61123515       0.12483104 </v>
   <v>       0.55556704       0.11103632       0.12487403 </v>
   <v>       0.38882801       0.61123515       0.62516896 </v>
   <v>       0.88886417       0.11109875       0.12491481 </v>
   <v>       0.22218903       0.77776118       0.62509033 </v>
   <v>       0.05546928       0.27776630       0.62512597 </v>
   <v>       0.38878395       0.27756790       0.62540444 </v>
   <v>       0.55556704       0.77786405       0.62512597 </v>
   <v>       0.88896491       0.77781495       0.62510653 </v>
   <v>       0.72229702       0.27776630       0.62512597 </v>
   <v>       0.05557215       0.77776118       0.12490967 </v>
   <v>       0.38885004       0.77781495       0.12489347 </v>
   <v>       0.22206349       0.27769841       0.12476730 </v>
   <v>       0.72229702       0.77786405       0.12487403 </v>
   <v>       0.55563492       0.27769841       0.12476730 </v>
   <v>       0.88889259       0.27778519       0.12491002 </v>
   <v>       0.05551838       0.44448330       0.62510653 </v>
   <v>       0.22216316       0.94432633       0.62511141 </v>
   <v>       0.55554814       0.94444074       0.62508998 </v>
   <v>       0.38878395       0.44454938       0.62540444 </v>
   <v>       0.88889259       0.94444074       0.62508998 </v>
   <v>       0.05551838       0.94436842       0.12489347 </v>
   <v>       0.72240714       0.44450532       0.62516896 </v>
   <v>       0.38885004       0.94436842       0.12489347 </v>
   <v>       0.22209818       0.44450532       0.12483104 </v>
   <v>       0.22216316       0.61117017       0.12488859 </v>
   <v>       0.55576543       0.44454938       0.12459556 </v>
   <v>       0.72223458       0.94446917       0.12491481 </v>
   <v>       0.88896491       0.44448330       0.12489347 </v>
   <v>       0.05557215       0.61114430       0.62509033 </v>
   <v>       0.22209818       0.11092619       0.62516896 </v>
   <v>       0.72240714       0.61123515       0.62516896 </v>
   <v>       0.55556704       0.11103632       0.62512597 </v>
   <v>       0.88886417       0.11109875       0.62508519 </v>
  </varray>
 </structure>
</modeling>
