<?xml version="1.0" encoding="ISO-8859-1"?>
<modeling>
 <generator>
  <i name="program" type="string">vasp </i>
  <i name="version" type="string">6.4.2  </i>
  <i name="subversion" type="string">20Jul23 (build Nov 06 2023 14:01:30) complex                          parallel </i>
  <i name="platform" type="string">LinuxIFC </i>
  <i name="date" type="string">2024 11 15 </i>
  <i name="time" type="string">20:17:37 </i>
 </generator>
 <incar>
  <i type="int" name="IALGO">    38</i>
  <i type="string" name="ALGO">Fast</i>
  <i type="logical" name="ADDGRID"> T  </i>
  <i type="int" name="ISPIN">     2</i>
  <i type="int" name="NELM">   100</i>
  <i type="int" name="NELMIN">     4</i>
  <i type="int" name="IBRION">    -1</i>
  <i name="EDIFF">      0.00000100</i>
  <i name="ENCUT">    500.00000000</i>
  <i name="NUPDOWN">      1.00000000</i>
  <i name="NELECT">   1153.00000000</i>
  <i type="logical" name="LREAL"> F  </i>
  <i type="int" name="ISMEAR">     0</i>
  <i name="SIGMA">      0.05000000</i>
  <i type="logical" name="LWAVE"> F  </i>
  <i type="logical" name="LCHARG"> F  </i>
  <i type="string" name="GGA">PE</i>
  <i type="int" name="IVDW">    11</i>
 </incar>
 <primitive_cell>
  <structure name="primitive_cell" >
   <crystal>
    <varray name="basis" >
     <v>      14.93631415       0.00000000       0.00000000 </v>
     <v>      -7.46815707      12.93522749      -0.00000000 </v>
     <v>       0.00000000       0.00000000      13.34127628 </v>
    </varray>
    <i name="volume">   2577.59623255 </i>
    <varray name="rec_basis" >
     <v>       0.06695092       0.03865413      -0.00000000 </v>
     <v>       0.00000000       0.07730827      -0.00000000 </v>
     <v>       0.00000000       0.00000000       0.07495535 </v>
    </varray>
   </crystal>
   <varray name="positions" >
    <v>       0.44444444       0.38888889       0.37500000 </v>
    <v>       0.11110578       0.05553988       0.12514209 </v>
    <v>       0.61111893       0.55556454       0.12533815 </v>
    <v>       0.44443410       0.05553988       0.12514209 </v>
    <v>       0.94445577       0.55623423       0.12511237 </v>
    <v>       0.77777778       0.05555556       0.12508750 </v>
    <v>       0.11111111       0.72222222       0.62490204 </v>
    <v>       0.44443410       0.72222755       0.62485791 </v>
    <v>       0.27776879       0.22221440       0.62466185 </v>
    <v>       0.77779345       0.72222755       0.62485791 </v>
    <v>       0.61111409       0.22221925       0.62484996 </v>
    <v>       0.94444599       0.22222938       0.62490241 </v>
    <v>       0.27776861       0.72222439       0.12511237 </v>
    <v>       0.11110516       0.22221925       0.12515004 </v>
    <v>       0.44444561       0.22221440       0.12533815 </v>
    <v>       0.61111409       0.72222817       0.12515004 </v>
    <v>       0.94445577       0.72222439       0.12511237 </v>
    <v>       0.77778339       0.22222938       0.12509759 </v>
    <v>       0.11110895       0.88887756       0.62488763 </v>
    <v>       0.44443273       0.88888303       0.62489877 </v>
    <v>       0.27776879       0.38888773       0.62466185 </v>
    <v>       0.61111893       0.38888773       0.62466185 </v>
    <v>       0.77778339       0.88888734       0.62490241 </v>
    <v>       0.94445030       0.38890061       0.62489877 </v>
    <v>       0.11110578       0.38889924       0.12514209 </v>
    <v>       0.27776861       0.88887756       0.12511237 </v>
    <v>       0.61110395       0.88888734       0.12509759 </v>
    <v>       0.44444444       0.38888889       0.12572567 </v>
    <v>       0.94445030       0.88888303       0.12510123 </v>
    <v>       0.77779345       0.38889924       0.12514209 </v>
    <v>       0.27776995       0.55556338       0.62481384 </v>
    <v>       0.11110578       0.05553988       0.62485791 </v>
    <v>       0.61111893       0.55556454       0.62466185 </v>
    <v>       0.44443410       0.05553988       0.62485791 </v>
    <v>       0.94445577       0.55556472       0.62488763 </v>
    <v>       0.11110895       0.55556472       0.12511237 </v>
    <v>       0.77777778       0.05555556       0.62491250 </v>
    <v>       0.27776995       0.05553990       0.12518616 </v>
    <v>       0.44444561       0.55556454       0.12533815 </v>
    <v>       0.77779343       0.55556338       0.12518616 </v>
    <v>       0.61110395       0.05554994       0.12509759 </v>
    <v>       0.44444561       0.55556454       0.62466185 </v>
    <v>       0.94444599       0.05554994       0.12509759 </v>
    <v>       0.27776861       0.72222439       0.62488763 </v>
    <v>       0.11110516       0.22221925       0.62484996 </v>
    <v>       0.44444561       0.22221440       0.62466185 </v>
    <v>       0.61111409       0.72222817       0.62484996 </v>
    <v>       0.94445577       0.72222439       0.62488763 </v>
    <v>       0.77778339       0.22222938       0.62490241 </v>
    <v>       0.11111111       0.72222222       0.12509796 </v>
    <v>       0.44443410       0.72222755       0.12514209 </v>
    <v>       0.27776879       0.22221440       0.12533815 </v>
    <v>       0.77779345       0.72222755       0.12514209 </v>
    <v>       0.61111409       0.22221925       0.12515004 </v>
    <v>       0.94444599       0.22222938       0.12509759 </v>
    <v>       0.11110578       0.38889924       0.62485791 </v>
    <v>       0.27776861       0.88887756       0.62488763 </v>
    <v>       0.61110395       0.88888734       0.62490241 </v>
    <v>       0.44444444       0.38888889       0.62427433 </v>
    <v>       0.94445030       0.88888303       0.62489877 </v>
    <v>       0.11110895       0.88887756       0.12511237 </v>
    <v>       0.77779345       0.38889924       0.62485791 </v>
    <v>       0.44443273       0.88888303       0.12510123 </v>
    <v>       0.27776879       0.38888773       0.12533815 </v>
    <v>       0.27776995       0.55556338       0.12518616 </v>
    <v>       0.61111893       0.38888773       0.12533815 </v>
    <v>       0.77778339       0.88888734       0.12509759 </v>
    <v>       0.94445030       0.38890061       0.12510123 </v>
    <v>       0.11110895       0.55556472       0.62488763 </v>
    <v>       0.27776995       0.05553990       0.62481384 </v>
    <v>       0.77779343       0.55556338       0.62481384 </v>
    <v>       0.61110395       0.05554994       0.62490241 </v>
    <v>       0.94444599       0.05554994       0.62490241 </v>
    <v>       0.05492459       0.11067225       0.37500000 </v>
    <v>       0.55597948       0.61195895       0.37500000 </v>
    <v>       0.38821178       0.10798614       0.37500000 </v>
    <v>       0.88997050       0.61165191       0.37500000 </v>
    <v>       0.72233166       0.11100168       0.37500000 </v>
    <v>       0.05555347       0.77777986       0.87500000 </v>
    <v>       0.38889499       0.77778040       0.87500000 </v>
    <v>       0.22222211       0.27777772       0.87500000 </v>
    <v>       0.72222208       0.77778036       0.87500000 </v>
    <v>       0.55555561       0.27777772       0.87500000 </v>
    <v>       0.88888780       0.27777560       0.87500000 </v>
    <v>       0.22203010       0.77768172       0.37500000 </v>
    <v>       0.05492459       0.27758567       0.37500000 </v>
    <v>       0.38321436       0.26642872       0.37500000 </v>
    <v>       0.55574766       0.77840874       0.37500000 </v>
    <v>       0.88973042       0.77847773       0.37500000 </v>
    <v>       0.72266108       0.27758567       0.37500000 </v>
    <v>       0.05555294       0.94444793       0.87500000 </v>
    <v>       0.38889499       0.94444793       0.87500000 </v>
    <v>       0.22222295       0.44443974       0.87500000 </v>
    <v>       0.55555250       0.44444291       0.87500000 </v>
    <v>       0.72222259       0.94444517       0.87500000 </v>
    <v>       0.88888540       0.44443834       0.87500000 </v>
    <v>       0.05485561       0.44458602       0.37500000 </v>
    <v>       0.22168142       0.94336284       0.37500000 </v>
    <v>       0.55571596       0.94452465       0.37500000 </v>
    <v>       0.38321436       0.45011897       0.37500000 </v>
    <v>       0.88880868       0.94452465       0.37500000 </v>
    <v>       0.72534720       0.44512155       0.37500000 </v>
    <v>       0.22222502       0.61110832       0.87500000 </v>
    <v>       0.05555297       0.11111126       0.87500000 </v>
    <v>       0.55555561       0.61111123       0.87500000 </v>
    <v>       0.38889360       0.11111654       0.87500000 </v>
    <v>       0.88888330       0.61110832       0.87500000 </v>
    <v>       0.05565162       0.61130323       0.37500000 </v>
    <v>       0.72222259       0.11111075       0.87500000 </v>
    <v>       0.21977436       0.10798614       0.37500000 </v>
    <v>       0.38821178       0.61355898       0.37500000 </v>
    <v>       0.72534720       0.61355898       0.37500000 </v>
    <v>       0.55574766       0.11067225       0.37500000 </v>
    <v>       0.38889360       0.61111039       0.87500000 </v>
    <v>       0.88867002       0.11100168       0.37500000 </v>
    <v>       0.22222639       0.77777986       0.87500000 </v>
    <v>       0.05555297       0.27777505       0.87500000 </v>
    <v>       0.38889042       0.27778084       0.87500000 </v>
    <v>       0.55555829       0.77778036       0.87500000 </v>
    <v>       0.88888540       0.77778040       0.87500000 </v>
    <v>       0.72222208       0.27777505       0.87500000 </v>
    <v>       0.05565162       0.77768172       0.37500000 </v>
    <v>       0.38874731       0.77847773       0.37500000 </v>
    <v>       0.22137438       0.27735386       0.37500000 </v>
    <v>       0.72266108       0.77840874       0.37500000 </v>
    <v>       0.55597948       0.27735386       0.37500000 </v>
    <v>       0.88880868       0.27761737       0.37500000 </v>
    <v>       0.05555294       0.44443834       0.87500000 </v>
    <v>       0.22222502       0.94445003       0.87500000 </v>
    <v>       0.55555773       0.94444553       0.87500000 </v>
    <v>       0.38889042       0.44444291       0.87500000 </v>
    <v>       0.88888780       0.94444553       0.87500000 </v>
    <v>       0.05485561       0.94360291       0.37500000 </v>
    <v>       0.72221679       0.44443974       0.87500000 </v>
    <v>       0.38874731       0.94360291       0.37500000 </v>
    <v>       0.21977436       0.44512155       0.37500000 </v>
    <v>       0.22168142       0.61165191       0.37500000 </v>
    <v>       0.56690462       0.45011897       0.37500000 </v>
    <v>       0.72233166       0.94466331       0.37500000 </v>
    <v>       0.88973042       0.44458602       0.37500000 </v>
    <v>       0.05555347       0.61110694       0.87500000 </v>
    <v>       0.22222295       0.11111654       0.87500000 </v>
    <v>       0.72221679       0.61111039       0.87500000 </v>
    <v>       0.55555829       0.11111126       0.87500000 </v>
    <v>       0.88888816       0.11111075       0.87500000 </v>
    <v>       0.10888702       0.05363429       0.37500000 </v>
    <v>       0.61662821       0.56151023       0.37500000 </v>
    <v>       0.44474727       0.05363429       0.37500000 </v>
    <v>       0.94505350       0.55569452       0.37500000 </v>
    <v>       0.77777778       0.05555556       0.37500000 </v>
    <v>       0.11111111       0.72222222       0.87500000 </v>
    <v>       0.44445789       0.72225917       0.87500000 </v>
    <v>       0.27773656       0.22218886       0.87500000 </v>
    <v>       0.77780129       0.72225917       0.87500000 </v>
    <v>       0.61113701       0.22219632       0.87500000 </v>
    <v>       0.94441891       0.22220602       0.87500000 </v>
    <v>       0.27763881       0.72269232       0.37500000 </v>
    <v>       0.10939752       0.22136543       0.37500000 </v>
    <v>       0.44488202       0.21670513       0.37500000 </v>
    <v>       0.61196791       0.72393582       0.37500000 </v>
    <v>       0.94505350       0.72269232       0.37500000 </v>
    <v>       0.77798832       0.22181380       0.37500000 </v>
    <v>       0.11109976       0.88887925       0.87500000 </v>
    <v>       0.44445802       0.88889568       0.87500000 </v>
    <v>       0.27773656       0.38888103       0.87500000 </v>
    <v>       0.61114447       0.38888103       0.87500000 </v>
    <v>       0.77778711       0.88891442       0.87500000 </v>
    <v>       0.94443766       0.38887531       0.87500000 </v>
    <v>       0.10888702       0.38858606       0.37500000 </v>
    <v>       0.27763881       0.88827983       0.37500000 </v>
    <v>       0.61151953       0.88950785       0.37500000 </v>
    <v>       0.94428960       0.88904373       0.37500000 </v>
    <v>       0.77969904       0.38858606       0.37500000 </v>
    <v>       0.27776270       0.55557063       0.87500000 </v>
    <v>       0.11107416       0.05553205       0.87500000 </v>
    <v>       0.61114447       0.55559678       0.87500000 </v>
    <v>       0.44445789       0.05553205       0.87500000 </v>
    <v>       0.94445408       0.55555385       0.87500000 </v>
    <v>       0.11064101       0.55569452       0.37500000 </v>
    <v>       0.77777778       0.05555556       0.87500000 </v>
    <v>       0.27665444       0.05330889       0.37500000 </v>
    <v>       0.44488202       0.56151023       0.37500000 </v>
    <v>       0.78002445       0.55667889       0.37500000 </v>
    <v>       0.61151953       0.05534502       0.37500000 </v>
    <v>       0.44445231       0.55559678       0.87500000 </v>
    <v>       0.94382548       0.05534502       0.37500000 </v>
    <v>       0.27777949       0.72223357       0.87500000 </v>
    <v>       0.11105932       0.22219632       0.87500000 </v>
    <v>       0.44445231       0.22218886       0.87500000 </v>
    <v>       0.61113701       0.72227402       0.87500000 </v>
    <v>       0.94445408       0.72223357       0.87500000 </v>
    <v>       0.77778711       0.22220602       0.87500000 </v>
    <v>       0.11111111       0.72222222       0.37500000 </v>
    <v>       0.44474727       0.72444631       0.37500000 </v>
    <v>       0.27182310       0.21670513       0.37500000 </v>
    <v>       0.77969904       0.72444631       0.37500000 </v>
    <v>       0.61196791       0.22136543       0.37500000 </v>
    <v>       0.94382548       0.22181380       0.37500000 </v>
    <v>       0.11107416       0.38887545       0.87500000 </v>
    <v>       0.27777949       0.88887925       0.87500000 </v>
    <v>       0.61112731       0.88891442       0.87500000 </v>
    <v>       0.44444444       0.38888889       0.87500000 </v>
    <v>       0.94443766       0.88889568       0.87500000 </v>
    <v>       0.11064101       0.88827983       0.37500000 </v>
    <v>       0.77780129       0.38887545       0.87500000 </v>
    <v>       0.44475413       0.88904373       0.37500000 </v>
    <v>       0.27182310       0.38845131       0.37500000 </v>
    <v>       0.27665444       0.55667889       0.37500000 </v>
    <v>       0.61662821       0.38845131       0.37500000 </v>
    <v>       0.77798832       0.88950785       0.37500000 </v>
    <v>       0.94428960       0.38857921       0.37500000 </v>
    <v>       0.11109976       0.55555385       0.87500000 </v>
    <v>       0.27776270       0.05552540       0.87500000 </v>
    <v>       0.77780793       0.55557063       0.87500000 </v>
    <v>       0.61112731       0.05554622       0.87500000 </v>
    <v>       0.94441891       0.05554622       0.87500000 </v>
    <v>       0.05546928       0.11103632       0.12487403 </v>
    <v>       0.55563492       0.61126984       0.12476730 </v>
    <v>       0.38882801       0.11092619       0.12483104 </v>
    <v>       0.88900701       0.61117017       0.12488859 </v>
    <v>       0.72223458       0.11109875       0.12491481 </v>
    <v>       0.05557215       0.77776118       0.62509033 </v>
    <v>       0.38885004       0.77781495       0.62510653 </v>
    <v>       0.22206349       0.27769841       0.62523270 </v>
    <v>       0.72229702       0.77786405       0.62512597 </v>
    <v>       0.55563492       0.27769841       0.62523270 </v>
    <v>       0.88889259       0.27778519       0.62508998 </v>
    <v>       0.22218903       0.77776118       0.12490967 </v>
    <v>       0.05546928       0.27776630       0.12487403 </v>
    <v>       0.38878395       0.27756790       0.12459556 </v>
    <v>       0.55556704       0.77786405       0.12487403 </v>
    <v>       0.88896491       0.77781495       0.12489347 </v>
    <v>       0.72229702       0.27776630       0.12487403 </v>
    <v>       0.05551838       0.94436842       0.62510653 </v>
    <v>       0.38885004       0.94436842       0.62510653 </v>
    <v>       0.22209818       0.44450532       0.62516896 </v>
    <v>       0.55576543       0.44454938       0.62540444 </v>
    <v>       0.72223458       0.94446917       0.62508519 </v>
    <v>       0.88896491       0.44448330       0.62510653 </v>
    <v>       0.05551838       0.44448330       0.12489347 </v>
    <v>       0.22216316       0.94432633       0.12488859 </v>
    <v>       0.55554814       0.94444074       0.12491002 </v>
    <v>       0.38878395       0.44454938       0.12459556 </v>
    <v>       0.88889259       0.94444074       0.12491002 </v>
    <v>       0.72240714       0.44450532       0.12483104 </v>
    <v>       0.22216316       0.61117017       0.62511141 </v>
    <v>       0.05546928       0.11103632       0.62512597 </v>
    <v>       0.55563492       0.61126984       0.62523270 </v>
    <v>       0.38882801       0.11092619       0.62516896 </v>
    <v>       0.88900701       0.61117017       0.62511141 </v>
    <v>       0.05557215       0.61114430       0.12490967 </v>
    <v>       0.72223458       0.11109875       0.62508519 </v>
    <v>       0.22209818       0.11092619       0.12483104 </v>
    <v>       0.38882801       0.61123515       0.12483104 </v>
    <v>       0.72240714       0.61123515       0.12483104 </v>
    <v>       0.55556704       0.11103632       0.12487403 </v>
    <v>       0.38882801       0.61123515       0.62516896 </v>
    <v>       0.88886417       0.11109875       0.12491481 </v>
    <v>       0.22218903       0.77776118       0.62509033 </v>
    <v>       0.05546928       0.27776630       0.62512597 </v>
    <v>       0.38878395       0.27756790       0.62540444 </v>
    <v>       0.55556704       0.77786405       0.62512597 </v>
    <v>       0.88896491       0.77781495       0.62510653 </v>
    <v>       0.72229702       0.27776630       0.62512597 </v>
    <v>       0.05557215       0.77776118       0.12490967 </v>
    <v>       0.38885004       0.77781495       0.12489347 </v>
    <v>       0.22206349       0.27769841       0.12476730 </v>
    <v>       0.72229702       0.77786405       0.12487403 </v>
    <v>       0.55563492       0.27769841       0.12476730 </v>
    <v>       0.88889259       0.27778519       0.12491002 </v>
    <v>       0.05551838       0.44448330       0.62510653 </v>
    <v>       0.22216316       0.94432633       0.62511141 </v>
    <v>       0.55554814       0.94444074       0.62508998 </v>
    <v>       0.38878395       0.44454938       0.62540444 </v>
    <v>       0.88889259       0.94444074       0.62508998 </v>
    <v>       0.05551838       0.94436842       0.12489347 </v>
    <v>       0.72240714       0.44450532       0.62516896 </v>
    <v>       0.38885004       0.94436842       0.12489347 </v>
    <v>       0.22209818       0.44450532       0.12483104 </v>
    <v>       0.22216316       0.61117017       0.12488859 </v>
    <v>       0.55576543       0.44454938       0.12459556 </v>
    <v>       0.72223458       0.94446917       0.12491481 </v>
    <v>       0.88896491       0.44448330       0.12489347 </v>
    <v>       0.05557215       0.61114430       0.62509033 </v>
    <v>       0.22209818       0.11092619       0.62516896 </v>
    <v>       0.72240714       0.61123515       0.62516896 </v>
    <v>       0.55556704       0.11103632       0.62512597 </v>
    <v>       0.88886417       0.11109875       0.62508519 </v>
   </varray>
  </structure>
  <varray name="primitive_index" >
   <v type="int" >        1 </v>
   <v type="int" >        2 </v>
   <v type="int" >        3 </v>
   <v type="int" >        4 </v>
   <v type="int" >        5 </v>
   <v type="int" >        6 </v>
   <v type="int" >        7 </v>
   <v type="int" >        8 </v>
   <v type="int" >        9 </v>
   <v type="int" >       10 </v>
   <v type="int" >       11 </v>
   <v type="int" >       12 </v>
   <v type="int" >       13 </v>
   <v type="int" >       14 </v>
   <v type="int" >       15 </v>
   <v type="int" >       16 </v>
   <v type="int" >       17 </v>
   <v type="int" >       18 </v>
   <v type="int" >       19 </v>
   <v type="int" >       20 </v>
   <v type="int" >       21 </v>
   <v type="int" >       22 </v>
   <v type="int" >       23 </v>
   <v type="int" >       24 </v>
   <v type="int" >       25 </v>
   <v type="int" >       26 </v>
   <v type="int" >       27 </v>
   <v type="int" >       28 </v>
   <v type="int" >       29 </v>
   <v type="int" >       30 </v>
   <v type="int" >       31 </v>
   <v type="int" >       32 </v>
   <v type="int" >       33 </v>
   <v type="int" >       34 </v>
   <v type="int" >       35 </v>
   <v type="int" >       36 </v>
   <v type="int" >       37 </v>
   <v type="int" >       38 </v>
   <v type="int" >       39 </v>
   <v type="int" >       40 </v>
   <v type="int" >       41 </v>
   <v type="int" >       42 </v>
   <v type="int" >       43 </v>
   <v type="int" >       44 </v>
   <v type="int" >       45 </v>
   <v type="int" >       46 </v>
   <v type="int" >       47 </v>
   <v type="int" >       48 </v>
   <v type="int" >       49 </v>
   <v type="int" >       50 </v>
   <v type="int" >       51 </v>
   <v type="int" >       52 </v>
   <v type="int" >       53 </v>
   <v type="int" >       54 </v>
   <v type="int" >       55 </v>
   <v type="int" >       56 </v>
   <v type="int" >       57 </v>
   <v type="int" >       58 </v>
   <v type="int" >       59 </v>
   <v type="int" >       60 </v>
   <v type="int" >       61 </v>
   <v type="int" >       62 </v>
   <v type="int" >       63 </v>
   <v type="int" >       64 </v>
   <v type="int" >       65 </v>
   <v type="int" >       66 </v>
   <v type="int" >       67 </v>
   <v type="int" >       68 </v>
   <v type="int" >       69 </v>
   <v type="int" >       70 </v>
   <v type="int" >       71 </v>
   <v type="int" >       72 </v>
   <v type="int" >       73 </v>
   <v type="int" >       74 </v>
   <v type="int" >       75 </v>
   <v type="int" >       76 </v>
   <v type="int" >       77 </v>
   <v type="int" >       78 </v>
   <v type="int" >       79 </v>
   <v type="int" >       80 </v>
   <v type="int" >       81 </v>
   <v type="int" >       82 </v>
   <v type="int" >       83 </v>
   <v type="int" >       84 </v>
   <v type="int" >       85 </v>
   <v type="int" >       86 </v>
   <v type="int" >       87 </v>
   <v type="int" >       88 </v>
   <v type="int" >       89 </v>
   <v type="int" >       90 </v>
   <v type="int" >       91 </v>
   <v type="int" >       92 </v>
   <v type="int" >       93 </v>
   <v type="int" >       94 </v>
   <v type="int" >       95 </v>
   <v type="int" >       96 </v>
   <v type="int" >       97 </v>
   <v type="int" >       98 </v>
   <v type="int" >       99 </v>
   <v type="int" >      100 </v>
   <v type="int" >      101 </v>
   <v type="int" >      102 </v>
   <v type="int" >      103 </v>
   <v type="int" >      104 </v>
   <v type="int" >      105 </v>
   <v type="int" >      106 </v>
   <v type="int" >      107 </v>
   <v type="int" >      108 </v>
   <v type="int" >      109 </v>
   <v type="int" >      110 </v>
   <v type="int" >      111 </v>
   <v type="int" >      112 </v>
   <v type="int" >      113 </v>
   <v type="int" >      114 </v>
   <v type="int" >      115 </v>
   <v type="int" >      116 </v>
   <v type="int" >      117 </v>
   <v type="int" >      118 </v>
   <v type="int" >      119 </v>
   <v type="int" >      120 </v>
   <v type="int" >      121 </v>
   <v type="int" >      122 </v>
   <v type="int" >      123 </v>
   <v type="int" >      124 </v>
   <v type="int" >      125 </v>
   <v type="int" >      126 </v>
   <v type="int" >      127 </v>
   <v type="int" >      128 </v>
   <v type="int" >      129 </v>
   <v type="int" >      130 </v>
   <v type="int" >      131 </v>
   <v type="int" >      132 </v>
   <v type="int" >      133 </v>
   <v type="int" >      134 </v>
   <v type="int" >      135 </v>
   <v type="int" >      136 </v>
   <v type="int" >      137 </v>
   <v type="int" >      138 </v>
   <v type="int" >      139 </v>
   <v type="int" >      140 </v>
   <v type="int" >      141 </v>
   <v type="int" >      142 </v>
   <v type="int" >      143 </v>
   <v type="int" >      144 </v>
   <v type="int" >      145 </v>
   <v type="int" >      146 </v>
   <v type="int" >      147 </v>
   <v type="int" >      148 </v>
   <v type="int" >      149 </v>
   <v type="int" >      150 </v>
   <v type="int" >      151 </v>
   <v type="int" >      152 </v>
   <v type="int" >      153 </v>
   <v type="int" >      154 </v>
   <v type="int" >      155 </v>
   <v type="int" >      156 </v>
   <v type="int" >      157 </v>
   <v type="int" >      158 </v>
   <v type="int" >      159 </v>
   <v type="int" >      160 </v>
   <v type="int" >      161 </v>
   <v type="int" >      162 </v>
   <v type="int" >      163 </v>
   <v type="int" >      164 </v>
   <v type="int" >      165 </v>
   <v type="int" >      166 </v>
   <v type="int" >      167 </v>
   <v type="int" >      168 </v>
   <v type="int" >      169 </v>
   <v type="int" >      170 </v>
   <v type="int" >      171 </v>
   <v type="int" >      172 </v>
   <v type="int" >      173 </v>
   <v type="int" >      174 </v>
   <v type="int" >      175 </v>
   <v type="int" >      176 </v>
   <v type="int" >      177 </v>
   <v type="int" >      178 </v>
   <v type="int" >      179 </v>
   <v type="int" >      180 </v>
   <v type="int" >      181 </v>
   <v type="int" >      182 </v>
   <v type="int" >      183 </v>
   <v type="int" >      184 </v>
   <v type="int" >      185 </v>
   <v type="int" >      186 </v>
   <v type="int" >      187 </v>
   <v type="int" >      188 </v>
   <v type="int" >      189 </v>
   <v type="int" >      190 </v>
   <v type="int" >      191 </v>
   <v type="int" >      192 </v>
   <v type="int" >      193 </v>
   <v type="int" >      194 </v>
   <v type="int" >      195 </v>
   <v type="int" >      196 </v>
   <v type="int" >      197 </v>
   <v type="int" >      198 </v>
   <v type="int" >      199 </v>
   <v type="int" >      200 </v>
   <v type="int" >      201 </v>
   <v type="int" >      202 </v>
   <v type="int" >      203 </v>
   <v type="int" >      204 </v>
   <v type="int" >      205 </v>
   <v type="int" >      206 </v>
   <v type="int" >      207 </v>
   <v type="int" >      208 </v>
   <v type="int" >      209 </v>
   <v type="int" >      210 </v>
   <v type="int" >      211 </v>
   <v type="int" >      212 </v>
   <v type="int" >      213 </v>
   <v type="int" >      214 </v>
   <v type="int" >      215 </v>
   <v type="int" >      216 </v>
   <v type="int" >      217 </v>
   <v type="int" >      218 </v>
   <v type="int" >      219 </v>
   <v type="int" >      220 </v>
   <v type="int" >      221 </v>
   <v type="int" >      222 </v>
   <v type="int" >      223 </v>
   <v type="int" >      224 </v>
   <v type="int" >      225 </v>
   <v type="int" >      226 </v>
   <v type="int" >      227 </v>
   <v type="int" >      228 </v>
   <v type="int" >      229 </v>
   <v type="int" >      230 </v>
   <v type="int" >      231 </v>
   <v type="int" >      232 </v>
   <v type="int" >      233 </v>
   <v type="int" >      234 </v>
   <v type="int" >      235 </v>
   <v type="int" >      236 </v>
   <v type="int" >      237 </v>
   <v type="int" >      238 </v>
   <v type="int" >      239 </v>
   <v type="int" >      240 </v>
   <v type="int" >      241 </v>
   <v type="int" >      242 </v>
   <v type="int" >      243 </v>
   <v type="int" >      244 </v>
   <v type="int" >      245 </v>
   <v type="int" >      246 </v>
   <v type="int" >      247 </v>
   <v type="int" >      248 </v>
   <v type="int" >      249 </v>
   <v type="int" >      250 </v>
   <v type="int" >      251 </v>
   <v type="int" >      252 </v>
   <v type="int" >      253 </v>
   <v type="int" >      254 </v>
   <v type="int" >      255 </v>
   <v type="int" >      256 </v>
   <v type="int" >      257 </v>
   <v type="int" >      258 </v>
   <v type="int" >      259 </v>
   <v type="int" >      260 </v>
   <v type="int" >      261 </v>
   <v type="int" >      262 </v>
   <v type="int" >      263 </v>
   <v type="int" >      264 </v>
   <v type="int" >      265 </v>
   <v type="int" >      266 </v>
   <v type="int" >      267 </v>
   <v type="int" >      268 </v>
   <v type="int" >      269 </v>
   <v type="int" >      270 </v>
   <v type="int" >      271 </v>
   <v type="int" >      272 </v>
   <v type="int" >      273 </v>
   <v type="int" >      274 </v>
   <v type="int" >      275 </v>
   <v type="int" >      276 </v>
   <v type="int" >      277 </v>
   <v type="int" >      278 </v>
   <v type="int" >      279 </v>
   <v type="int" >      280 </v>
   <v type="int" >      281 </v>
   <v type="int" >      282 </v>
   <v type="int" >      283 </v>
   <v type="int" >      284 </v>
   <v type="int" >      285 </v>
   <v type="int" >      286 </v>
   <v type="int" >      287 </v>
   <v type="int" >      288 </v>
  </varray>
 </primitive_cell>
 <kpoints>
  <generation param="Gamma">
   <v type="int" name="divisions">       2        2        2 </v>
   <v name="usershift">      0.00000000       0.00000000       0.00000000 </v>
   <v name="genvec1">      0.50000000       0.00000000       0.00000000 </v>
   <v name="genvec2">      0.00000000       0.50000000      -0.00000000 </v>
   <v name="genvec3">      0.00000000      -0.00000000       0.50000000 </v>
   <v name="shift">      0.00000000       0.00000000       0.00000000 </v>
  </generation>
  <varray name="kpointlist" >
   <v>       0.00000000       0.00000000       0.00000000 </v>
   <v>       0.50000000       0.00000000       0.00000000 </v>
   <v>       0.00000000       0.50000000       0.00000000 </v>
   <v>       0.50000000       0.50000000       0.00000000 </v>
   <v>       0.00000000      -0.00000000       0.50000000 </v>
   <v>       0.50000000      -0.00000000       0.50000000 </v>
   <v>       0.00000000       0.50000000       0.50000000 </v>
   <v>       0.50000000       0.50000000       0.50000000 </v>
  </varray>
  <varray name="weights" >
   <v>       0.12500000 </v>
   <v>       0.12500000 </v>
   <v>       0.12500000 </v>
   <v>       0.12500000 </v>
   <v>       0.12500000 </v>
   <v>       0.12500000 </v>
   <v>       0.12500000 </v>
   <v>       0.12500000 </v>
  </varray>
 </kpoints>
 <parameters>
  <separator name="general" >
   <i type="string" name="SYSTEM">unknown system</i>
   <i type="logical" name="LCOMPAT"> F  </i>
  </separator>
  <separator name="electronic" >
   <i type="string" name="PREC">normal</i>
   <i name="ENMAX">    500.00000000</i>
   <i name="ENAUG">    627.11200000</i>
   <i name="EDIFF">      0.00000100</i>
   <i type="int" name="IALGO">    68</i>
   <i type="int" name="IWAVPR">    10</i>
   <i type="int" name="NBANDS">   728</i>
   <i type="int" name="NBANDSLOW">    -1</i>
   <i type="int" name="NBANDSHIGH">    -1</i>
   <i name="NELECT">   1153.00000000</i>
   <i type="int" name="TURBO">     0</i>
   <i type="int" name="IRESTART">     0</i>
   <i type="int" name="NREBOOT">     0</i>
   <i type="int" name="NMIN">     0</i>
   <i name="EREF">      0.00000000</i>
   <separator name="electronic smearing" >
    <i type="int" name="ISMEAR">     0</i>
    <i name="SIGMA">      0.05000000</i>
    <i name="KSPACING">      0.50000000</i>
    <i type="logical" name="KGAMMA"> T  </i>
    <i type="logical" name="KBLOWUP"> T  </i>
   </separator>
   <separator name="electronic projectors" >
    <i type="logical" name="LREAL"> F  </i>
    <v name="ROPT">      0.00000000      0.00000000      0.00000000</v>
    <i type="int" name="LMAXPAW">  -100</i>
    <i type="int" name="LMAXMIX">     2</i>
    <i type="logical" name="NLSPLINE"> F  </i>
   </separator>
   <separator name="electronic startup" >
    <i type="int" name="ISTART">     0</i>
    <i type="int" name="ICHARG">     2</i>
    <i type="int" name="INIWAV">     1</i>
   </separator>
   <separator name="electronic spin" >
    <i type="int" name="ISPIN">     2</i>
    <i type="logical" name="LNONCOLLINEAR"> F  </i>
    <v name="MAGMOM">      0.00347222      0.00347222      0.00347222      0.00347222      0.00347222      0.00347222      0.00347222      0.00347222      0.00347222      0.00347222      0.00347222      0.00347222      0.00347222      0.00347222      0.00347222      0.00347222      0.00347222      0.00347222      0.00347222      0.00347222
      0.00347222      0.00347222      0.00347222      0.00347222      0.00347222      0.00347222      0.00347222      0.00347222      0.00347222      0.00347222      0.00347222      0.00347222      0.00347222      0.00347222      0.00347222      0.00347222      0.00347222      0.00347222      0.00347222      0.00347222
      0.00347222      0.00347222      0.00347222      0.00347222      0.00347222      0.00347222      0.00347222      0.00347222      0.00347222      0.00347222      0.00347222      0.00347222      0.00347222      0.00347222      0.00347222      0.00347222      0.00347222      0.00347222      0.00347222      0.00347222
      0.00347222      0.00347222      0.00347222      0.00347222      0.00347222      0.00347222      0.00347222      0.00347222      0.00347222      0.00347222      0.00347222      0.00347222      0.00347222      0.00347222      0.00347222      0.00347222      0.00347222      0.00347222      0.00347222      0.00347222
      0.00347222      0.00347222      0.00347222      0.00347222      0.00347222      0.00347222      0.00347222      0.00347222      0.00347222      0.00347222      0.00347222      0.00347222      0.00347222      0.00347222      0.00347222      0.00347222      0.00347222      0.00347222      0.00347222      0.00347222
      0.00347222      0.00347222      0.00347222      0.00347222      0.00347222      0.00347222      0.00347222      0.00347222      0.00347222      0.00347222      0.00347222      0.00347222      0.00347222      0.00347222      0.00347222      0.00347222      0.00347222      0.00347222      0.00347222      0.00347222
      0.00347222      0.00347222      0.00347222      0.00347222      0.00347222      0.00347222      0.00347222      0.00347222      0.00347222      0.00347222      0.00347222      0.00347222      0.00347222      0.00347222      0.00347222      0.00347222      0.00347222      0.00347222      0.00347222      0.00347222
      0.00347222      0.00347222      0.00347222      0.00347222      0.00347222      0.00347222      0.00347222      0.00347222      0.00347222      0.00347222      0.00347222      0.00347222      0.00347222      0.00347222      0.00347222      0.00347222      0.00347222      0.00347222      0.00347222      0.00347222
      0.00347222      0.00347222      0.00347222      0.00347222      0.00347222      0.00347222      0.00347222      0.00347222      0.00347222      0.00347222      0.00347222      0.00347222      0.00347222      0.00347222      0.00347222      0.00347222      0.00347222      0.00347222      0.00347222      0.00347222
      0.00347222      0.00347222      0.00347222      0.00347222      0.00347222      0.00347222      0.00347222      0.00347222      0.00347222      0.00347222      0.00347222      0.00347222      0.00347222      0.00347222      0.00347222      0.00347222      0.00347222      0.00347222      0.00347222      0.00347222
      0.00347222      0.00347222      0.00347222      0.00347222      0.00347222      0.00347222      0.00347222      0.00347222      0.00347222      0.00347222      0.00347222      0.00347222      0.00347222      0.00347222      0.00347222      0.00347222      0.00347222      0.00347222      0.00347222      0.00347222
      0.00347222      0.00347222      0.00347222      0.00347222      0.00347222      0.00347222      0.00347222      0.00347222      0.00347222      0.00347222      0.00347222      0.00347222      0.00347222      0.00347222      0.00347222      0.00347222      0.00347222      0.00347222      0.00347222      0.00347222
      0.00347222      0.00347222      0.00347222      0.00347222      0.00347222      0.00347222      0.00347222      0.00347222      0.00347222      0.00347222      0.00347222      0.00347222      0.00347222      0.00347222      0.00347222      0.00347222      0.00347222      0.00347222      0.00347222      0.00347222
      0.00347222      0.00347222      0.00347222      0.00347222      0.00347222      0.00347222      0.00347222      0.00347222      0.00347222      0.00347222      0.00347222      0.00347222      0.00347222      0.00347222      0.00347222      0.00347222      0.00347222      0.00347222      0.00347222      0.00347222
      0.00347222      0.00347222      0.00347222      0.00347222      0.00347222      0.00347222      0.00347222      0.00347222</v>
    <i name="NUPDOWN">      1.00000000</i>
    <i type="logical" name="LSORBIT"> F  </i>
    <v name="SAXIS">      0.00000000      0.00000000      1.00000000</v>
    <i type="logical" name="LSPIRAL"> F  </i>
    <v name="QSPIRAL">      0.00000000      0.00000000      0.00000000</v>
    <i type="logical" name="LZEROZ"> F  </i>
   </separator>
   <separator name="electronic exchange-correlation" >
    <i type="logical" name="LASPH"> F  </i>
    <i type="logical" name="LMETAGGA"> F  </i>
   </separator>
   <separator name="electronic convergence" >
    <i type="int" name="NELM">   100</i>
    <i type="int" name="NELMDL">    -5</i>
    <i type="int" name="NELMIN">     4</i>
    <i name="ENINI">    500.00000000</i>
    <separator name="electronic convergence detail" >
     <i type="logical" name="LDIAG"> T  </i>
     <i type="logical" name="LSUBROT"> F  </i>
     <i name="WEIMIN">      0.00000000</i>
     <i name="EBREAK">      0.00000000</i>
     <i name="DEPER">      0.30000000</i>
     <i type="int" name="NRMM">     4</i>
     <i name="TIME">      0.40000000</i>
    </separator>
   </separator>
   <separator name="electronic mixer" >
    <i name="AMIX">      0.40000000</i>
    <i name="BMIX">      1.00000000</i>
    <i name="AMIN">      0.10000000</i>
    <i name="AMIX_MAG">      1.60000000</i>
    <i name="BMIX_MAG">      1.00000000</i>
    <separator name="electronic mixer details" >
     <i type="int" name="IMIX">     4</i>
     <i type="logical" name="MIXFIRST"> F  </i>
     <i type="int" name="MAXMIX">   -45</i>
     <i name="WC">    100.00000000</i>
     <i type="int" name="INIMIX">     1</i>
     <i type="int" name="MIXPRE">     1</i>
     <i type="int" name="MREMOVE">     5</i>
    </separator>
   </separator>
   <separator name="electronic dipolcorrection" >
    <i type="logical" name="LDIPOL"> F  </i>
    <i type="logical" name="LMONO"> F  </i>
    <i type="int" name="IDIPOL">     0</i>
    <i name="EPSILON">      1.00000000</i>
    <v name="DIPOL">   -100.00000000   -100.00000000   -100.00000000</v>
    <i name="EFIELD">      0.00000000</i>
   </separator>
  </separator>
  <separator name="grids" >
   <i type="int" name="NGX">    84</i>
   <i type="int" name="NGY">    84</i>
   <i type="int" name="NGZ">    80</i>
   <i type="int" name="NGXF">   168</i>
   <i type="int" name="NGYF">   168</i>
   <i type="int" name="NGZF">   160</i>
   <i type="logical" name="ADDGRID"> T  </i>
  </separator>
  <separator name="ionic" >
   <i type="int" name="NSW">     0</i>
   <i type="int" name="IBRION">    -1</i>
   <i type="int" name="MDALGO">     0</i>
   <i type="int" name="ISIF">     2</i>
   <i name="PSTRESS">      0.00000000</i>
   <i name="EDIFFG">      0.00001000</i>
   <i type="int" name="NFREE">     0</i>
   <i name="POTIM">      0.50000000</i>
   <i name="SMASS">     -3.00000000</i>
   <i name="SCALEE">      1.00000000</i>
  </separator>
  <separator name="ionic md" >
   <i name="TEBEG">      0.00010000</i>
   <i name="TEEND">      0.00010000</i>
   <i type="int" name="NBLOCK">     1</i>
   <i type="int" name="KBLOCK">     1</i>
   <i type="int" name="NPACO">   256</i>
   <i name="APACO">     10.00000000</i>
  </separator>
  <separator name="symmetry" >
   <i type="int" name="ISYM">     2</i>
   <i name="SYMPREC">      0.00001000</i>
  </separator>
  <separator name="dos" >
   <i type="int" name="LORBIT">     0</i>
   <v name="RWIGS">     -1.00000000     -1.00000000     -1.00000000</v>
   <i type="int" name="NEDOS">   301</i>
   <i name="EMIN">     10.00000000</i>
   <i name="EMAX">    -10.00000000</i>
   <i name="EFERMI">      0.00000000</i>
  </separator>
  <separator name="writing" >
   <i type="int" name="NWRITE">     2</i>
   <i type="logical" name="LWAVE"> F  </i>
   <i type="logical" name="LDOWNSAMPLE"> F  </i>
   <i type="logical" name="LCHARG"> F  </i>
   <i type="logical" name="LPARD"> F  </i>
   <i type="logical" name="LVTOT"> F  </i>
   <i type="logical" name="LVHAR"> F  </i>
   <i type="logical" name="LELF"> F  </i>
   <i type="logical" name="LOPTICS"> F  </i>
   <v name="STM">      0.00000000      0.00000000      0.00000000      0.00000000      0.00000000      0.00000000      0.00000000</v>
  </separator>
  <separator name="performance" >
   <i type="int" name="NPAR">     8</i>
   <i type="int" name="NSIM">     4</i>
   <i type="int" name="NBLK">    -1</i>
   <i type="logical" name="LPLANE"> T  </i>
   <i type="logical" name="LSCALAPACK"> T  </i>
   <i type="logical" name="LSCAAWARE"> T  </i>
   <i type="logical" name="LSCALU"> F  </i>
   <i type="logical" name="LASYNC"> F  </i>
   <i type="logical" name="LORBITALREAL"> F  </i>
  </separator>
  <separator name="miscellaneous" >
   <i type="int" name="IDIOT">     3</i>
   <i type="int" name="PHON_NSTRUCT">    -1</i>
   <i type="logical" name="LMUSIC"> F  </i>
   <v name="POMASS">     30.97400000     14.00100000     10.81100000</v>
   <v name="DARWINR">      0.00000000      0.00000000      0.00000000</v>
   <v name="DARWINV">      1.00000000      1.00000000      1.00000000</v>
   <i type="logical" name="LCORR"> T  </i>
  </separator>
  <i type="logical" name="GGA_COMPAT"> T  </i>
  <i type="logical" name="LBERRY"> F  </i>
  <i type="int" name="ICORELEVEL">     0</i>
  <i type="logical" name="LDAU"> F  </i>
  <i type="int" name="I_CONSTRAINED_M">     0</i>
  <separator name="electronic exchange-correlation" >
   <i type="string" name="GGA">PE</i>
   <i type="int" name="VOSKOWN">     0</i>
   <i type="logical" name="LHFCALC"> F  </i>
   <i type="string" name="PRECFOCK"></i>
   <i type="logical" name="LSYMGRAD"> F  </i>
   <i type="logical" name="LHFONE"> F  </i>
   <i type="logical" name="LRHFCALC"> F  </i>
   <i type="logical" name="LTHOMAS"> F  </i>
   <i type="logical" name="LMODELHF"> F  </i>
   <i type="logical" name="LFOCKACE"> F  </i>
   <i name="ENCUT4O">     -1.00000000</i>
   <i type="int" name="EXXOEP">     0</i>
   <i type="int" name="FOURORBIT">     0</i>
   <i name="AEXX">      0.00000000</i>
   <i name="HFALPHA">      0.00000000</i>
   <i name="MCALPHA">      0.00000000</i>
   <i name="ALDAX">      1.00000000</i>
   <i name="AGGAX">      1.00000000</i>
   <i name="ALDAC">      1.00000000</i>
   <i name="AGGAC">      1.00000000</i>
   <i type="int" name="NKREDX">     1</i>
   <i type="int" name="NKREDY">     1</i>
   <i type="int" name="NKREDZ">     1</i>
   <i type="logical" name="SHIFTRED"> F  </i>
   <i type="logical" name="ODDONLY"> F  </i>
   <i type="logical" name="EVENONLY"> F  </i>
   <i type="int" name="LMAXFOCK">     0</i>
   <i type="int" name="NMAXFOCKAE">     0</i>
   <i type="logical" name="LFOCKAEDFT"> F  </i>
   <i name="HFSCREEN">      0.00000000</i>
   <i name="HFSCREENC">      0.00000000</i>
   <i type="int" name="NBANDSGWLOW">     0</i>
  </separator>
  <separator name="vdW DFT" >
   <i type="logical" name="LUSE_VDW"> F  </i>
   <i type="int" name="IVDW_NL">     1</i>
   <i type="logical" name="LSPIN_VDW"> F  </i>
   <i name="Zab_VDW">     -0.84910000</i>
   <i name="PARAM1">      0.12340000</i>
   <i name="PARAM2">      1.00000000</i>
   <i name="PARAM3">      0.00000000</i>
  </separator>
  <separator name="model GW" >
   <i type="int" name="MODEL_GW">     0</i>
   <i name="MODEL_EPS0">      5.36999215</i>
   <i name="MODEL_ALPHA">      1.00000000</i>
  </separator>
  <separator name="linear response parameters" >
   <i type="logical" name="LEPSILON"> F  </i>
   <i type="logical" name="LRPA"> F  </i>
   <i type="logical" name="LNABLA"> F  </i>
   <i type="logical" name="LVEL"> F  </i>
   <i name="CSHIFT">      0.10000000</i>
   <i name="OMEGAMAX">     -1.00000000</i>
   <i name="DEG_THRESHOLD">      0.00200000</i>
   <i name="RTIME">     -0.10000000</i>
   <i name="WPLASMAI">      0.00000000</i>
   <v name="DFIELD">      0.00000000      0.00000000      0.00000000</v>
   <v name="WPLASMA">      0.00000000      0.00000000      0.00000000      0.00000000      0.00000000      0.00000000      0.00000000      0.00000000      0.00000000</v>
  </separator>
  <separator name="orbital magnetization" >
   <i type="logical" name="NUCIND"> F  </i>
   <v name="MAGPOS">      0.00000000      0.00000000      0.00000000</v>
   <i type="logical" name="LNICSALL"> T  </i>
   <i type="logical" name="ORBITALMAG"> F  </i>
   <i type="logical" name="LMAGBLOCH"> F  </i>
   <i type="logical" name="LCHIMAG"> F  </i>
   <i type="logical" name="LGAUGE"> T  </i>
   <i type="int" name="MAGATOM">     0</i>
   <v name="MAGDIPOL">      0.00000000      0.00000000      0.00000000</v>
   <v name="AVECCONST">      0.00000000      0.00000000      0.00000000</v>
  </separator>
  <separator name="response functions" >
   <i type="logical" name="LALL_IN_ONE"> F  </i>
   <i type="int" name="IALL_IN_ONE">    -1</i>
   <i type="int" name="NBANDS_WAVE">    -1</i>
   <i type="logical" name="LFINITE_TEMPERATURE"> F  </i>
   <i type="logical" name="LADDER"> F  </i>
   <i type="logical" name="LRPAFORCE"> F  </i>
   <i type="logical" name="LFXC"> F  </i>
   <i type="logical" name="LHARTREE"> T  </i>
   <i type="int" name="IBSE">     0</i>
   <v type="int" name="KPOINT">    -1     0     0     0</v>
   <i type="logical" name="LTCTC"> F  </i>
   <i type="logical" name="LTCTE"> F  </i>
   <i type="logical" name="LTETE"> F  </i>
   <i type="logical" name="LTRIPLET"> F  </i>
   <i type="logical" name="LFXCEPS"> F  </i>
   <i type="logical" name="LFXHEG"> F  </i>
   <i type="int" name="NATURALO">     2</i>
   <i type="logical" name="LHOLEGF"> F  </i>
   <i type="logical" name="L2ORDER"> F  </i>
   <i type="logical" name="LDMP1"> F  </i>
   <i type="logical" name="LMP2LT"> F  </i>
   <i type="logical" name="LSMP2LT"> F  </i>
   <i type="logical" name="LGWLF"> F  </i>
   <i name="ENCUTGW">     -1.60000002</i>
   <i name="ENCUTGWSOFT">     -1.60000002</i>
   <i name="ENCUTLF">     -1.00000000</i>
   <i type="logical" name="LESF_SPLINES"> F  </i>
   <i type="int" name="LMAXMP2">    -1</i>
   <i name="SCISSOR">      0.00000000</i>
   <i type="int" name="NOMEGA">     0</i>
   <i type="int" name="NOMEGAR">     0</i>
   <i type="int" name="NBANDSGW">    -1</i>
   <i type="int" name="NBANDSO">    -1</i>
   <i type="int" name="NBANDSV">    -1</i>
   <i type="int" name="NELMGW">     1</i>
   <i type="int" name="NELMHF">     1</i>
   <i type="int" name="DIM">     3</i>
   <i type="int" name="IESPILON">     4</i>
   <i type="int" name="ANTIRES">     0</i>
   <i name="OMEGAMAX">    -30.00000000</i>
   <i name="OMEGAMIN">    -30.00000000</i>
   <i name="OMEGATL">   -200.00000000</i>
   <i type="int" name="OMEGAGRID">     0</i>
   <i name="CSHIFT">     -0.10000000</i>
   <i type="logical" name="LSELFENERGY"> F  </i>
   <i type="logical" name="LSPECTRAL"> F  </i>
   <i type="logical" name="LSPECTRALGW"> F  </i>
   <i type="logical" name="LSINGLES"> F  </i>
   <i type="logical" name="LFERMIGW"> F  </i>
   <i type="logical" name="ODDONLYGW"> F  </i>
   <i type="logical" name="EVENONLYGW"> F  </i>
   <i type="int" name="NKREDLFX">     1</i>
   <i type="int" name="NKREDLFY">     1</i>
   <i type="int" name="NKREDLFZ">     1</i>
   <i type="int" name="MAXMEM">  2800</i>
   <i type="int" name="TELESCOPE">     0</i>
   <i type="int" name="NTAUPAR">    -1</i>
   <i type="int" name="NOMEGAPAR">    -1</i>
   <i name="DAMP_NEWTON">      0.80000001</i>
   <i name="LAMBDA">      1.00000000</i>
  </separator>
  <separator name="External order field" >
   <i name="OFIELD_KAPPA">      0.00000000</i>
   <v name="OFIELD_K">      0.00000000      0.00000000      0.00000000</v>
   <i name="OFIELD_Q6_NEAR">      0.00000000</i>
   <i name="OFIELD_Q6_FAR">      0.00000000</i>
   <i name="OFIELD_A">      0.00000000</i>
  </separator>
  <separator name="optional k-points parameters" >
   <i type="int" name="KPOINTS_OPT_MODE">     1</i>
   <i type="logical" name="LKPOINTS_OPT"> F  </i>
  </separator>
  <separator name="solvation model" >
   <i type="logical" name="LSOL"> F  </i>
  </separator>
 </parameters>
 <atominfo>
  <atoms>     288 </atoms>
  <types>       3 </types>
  <array name="atoms" >
   <dimension dim="1">ion</dimension>
   <field type="string">element</field>
   <field type="int">atomtype</field>
   <set>
    <rc><c>P </c><c>   1</c></rc>
    <rc><c>N </c><c>   2</c></rc>
    <rc><c>N </c><c>   2</c></rc>
    <rc><c>N </c><c>   2</c></rc>
    <rc><c>N </c><c>   2</c></rc>
    <rc><c>N </c><c>   2</c></rc>
    <rc><c>N </c><c>   2</c></rc>
    <rc><c>N </c><c>   2</c></rc>
    <rc><c>N </c><c>   2</c></rc>
    <rc><c>N </c><c>   2</c></rc>
    <rc><c>N </c><c>   2</c></rc>
    <rc><c>N </c><c>   2</c></rc>
    <rc><c>N </c><c>   2</c></rc>
    <rc><c>N </c><c>   2</c></rc>
    <rc><c>N </c><c>   2</c></rc>
    <rc><c>N </c><c>   2</c></rc>
    <rc><c>N </c><c>   2</c></rc>
    <rc><c>N </c><c>   2</c></rc>
    <rc><c>N </c><c>   2</c></rc>
    <rc><c>N </c><c>   2</c></rc>
    <rc><c>N </c><c>   2</c></rc>
    <rc><c>N </c><c>   2</c></rc>
    <rc><c>N </c><c>   2</c></rc>
    <rc><c>N </c><c>   2</c></rc>
    <rc><c>N </c><c>   2</c></rc>
    <rc><c>N </c><c>   2</c></rc>
    <rc><c>N </c><c>   2</c></rc>
    <rc><c>N </c><c>   2</c></rc>
    <rc><c>N </c><c>   2</c></rc>
    <rc><c>N </c><c>   2</c></rc>
    <rc><c>N </c><c>   2</c></rc>
    <rc><c>N </c><c>   2</c></rc>
    <rc><c>N </c><c>   2</c></rc>
    <rc><c>N </c><c>   2</c></rc>
    <rc><c>N </c><c>   2</c></rc>
    <rc><c>N </c><c>   2</c></rc>
    <rc><c>N </c><c>   2</c></rc>
    <rc><c>N </c><c>   2</c></rc>
    <rc><c>N </c><c>   2</c></rc>
    <rc><c>N </c><c>   2</c></rc>
    <rc><c>N </c><c>   2</c></rc>
    <rc><c>N </c><c>   2</c></rc>
    <rc><c>N </c><c>   2</c></rc>
    <rc><c>N </c><c>   2</c></rc>
    <rc><c>N </c><c>   2</c></rc>
    <rc><c>N </c><c>   2</c></rc>
    <rc><c>N </c><c>   2</c></rc>
    <rc><c>N </c><c>   2</c></rc>
    <rc><c>N </c><c>   2</c></rc>
    <rc><c>N </c><c>   2</c></rc>
    <rc><c>N </c><c>   2</c></rc>
    <rc><c>N </c><c>   2</c></rc>
    <rc><c>N </c><c>   2</c></rc>
    <rc><c>N </c><c>   2</c></rc>
    <rc><c>N </c><c>   2</c></rc>
    <rc><c>N </c><c>   2</c></rc>
    <rc><c>N </c><c>   2</c></rc>
    <rc><c>N </c><c>   2</c></rc>
    <rc><c>N </c><c>   2</c></rc>
    <rc><c>N </c><c>   2</c></rc>
    <rc><c>N </c><c>   2</c></rc>
    <rc><c>N </c><c>   2</c></rc>
    <rc><c>N </c><c>   2</c></rc>
    <rc><c>N </c><c>   2</c></rc>
    <rc><c>N </c><c>   2</c></rc>
    <rc><c>N </c><c>   2</c></rc>
    <rc><c>N </c><c>   2</c></rc>
    <rc><c>N </c><c>   2</c></rc>
    <rc><c>N </c><c>   2</c></rc>
    <rc><c>N </c><c>   2</c></rc>
    <rc><c>N </c><c>   2</c></rc>
    <rc><c>N </c><c>   2</c></rc>
    <rc><c>N </c><c>   2</c></rc>
    <rc><c>N </c><c>   2</c></rc>
    <rc><c>N </c><c>   2</c></rc>
    <rc><c>N </c><c>   2</c></rc>
    <rc><c>N </c><c>   2</c></rc>
    <rc><c>N </c><c>   2</c></rc>
    <rc><c>N </c><c>   2</c></rc>
    <rc><c>N </c><c>   2</c></rc>
    <rc><c>N </c><c>   2</c></rc>
    <rc><c>N </c><c>   2</c></rc>
    <rc><c>N </c><c>   2</c></rc>
    <rc><c>N </c><c>   2</c></rc>
    <rc><c>N </c><c>   2</c></rc>
    <rc><c>N </c><c>   2</c></rc>
    <rc><c>N </c><c>   2</c></rc>
    <rc><c>N </c><c>   2</c></rc>
    <rc><c>N </c><c>   2</c></rc>
    <rc><c>N </c><c>   2</c></rc>
    <rc><c>N </c><c>   2</c></rc>
    <rc><c>N </c><c>   2</c></rc>
    <rc><c>N </c><c>   2</c></rc>
    <rc><c>N </c><c>   2</c></rc>
    <rc><c>N </c><c>   2</c></rc>
    <rc><c>N </c><c>   2</c></rc>
    <rc><c>N </c><c>   2</c></rc>
    <rc><c>N </c><c>   2</c></rc>
    <rc><c>N </c><c>   2</c></rc>
    <rc><c>N </c><c>   2</c></rc>
    <rc><c>N </c><c>   2</c></rc>
    <rc><c>N </c><c>   2</c></rc>
    <rc><c>N </c><c>   2</c></rc>
    <rc><c>N </c><c>   2</c></rc>
    <rc><c>N </c><c>   2</c></rc>
    <rc><c>N </c><c>   2</c></rc>
    <rc><c>N </c><c>   2</c></rc>
    <rc><c>N </c><c>   2</c></rc>
    <rc><c>N </c><c>   2</c></rc>
    <rc><c>N </c><c>   2</c></rc>
    <rc><c>N </c><c>   2</c></rc>
    <rc><c>N </c><c>   2</c></rc>
    <rc><c>N </c><c>   2</c></rc>
    <rc><c>N </c><c>   2</c></rc>
    <rc><c>N </c><c>   2</c></rc>
    <rc><c>N </c><c>   2</c></rc>
    <rc><c>N </c><c>   2</c></rc>
    <rc><c>N </c><c>   2</c></rc>
    <rc><c>N </c><c>   2</c></rc>
    <rc><c>N </c><c>   2</c></rc>
    <rc><c>N </c><c>   2</c></rc>
    <rc><c>N </c><c>   2</c></rc>
    <rc><c>N </c><c>   2</c></rc>
    <rc><c>N </c><c>   2</c></rc>
    <rc><c>N </c><c>   2</c></rc>
    <rc><c>N </c><c>   2</c></rc>
    <rc><c>N </c><c>   2</c></rc>
    <rc><c>N </c><c>   2</c></rc>
    <rc><c>N </c><c>   2</c></rc>
    <rc><c>N </c><c>   2</c></rc>
    <rc><c>N </c><c>   2</c></rc>
    <rc><c>N </c><c>   2</c></rc>
    <rc><c>N </c><c>   2</c></rc>
    <rc><c>N </c><c>   2</c></rc>
    <rc><c>N </c><c>   2</c></rc>
    <rc><c>N </c><c>   2</c></rc>
    <rc><c>N </c><c>   2</c></rc>
    <rc><c>N </c><c>   2</c></rc>
    <rc><c>N </c><c>   2</c></rc>
    <rc><c>N </c><c>   2</c></rc>
    <rc><c>N </c><c>   2</c></rc>
    <rc><c>N </c><c>   2</c></rc>
    <rc><c>N </c><c>   2</c></rc>
    <rc><c>N </c><c>   2</c></rc>
    <rc><c>N </c><c>   2</c></rc>
    <rc><c>B </c><c>   3</c></rc>
    <rc><c>B </c><c>   3</c></rc>
    <rc><c>B </c><c>   3</c></rc>
    <rc><c>B </c><c>   3</c></rc>
    <rc><c>B </c><c>   3</c></rc>
    <rc><c>B </c><c>   3</c></rc>
    <rc><c>B </c><c>   3</c></rc>
    <rc><c>B </c><c>   3</c></rc>
    <rc><c>B </c><c>   3</c></rc>
    <rc><c>B </c><c>   3</c></rc>
    <rc><c>B </c><c>   3</c></rc>
    <rc><c>B </c><c>   3</c></rc>
    <rc><c>B </c><c>   3</c></rc>
    <rc><c>B </c><c>   3</c></rc>
    <rc><c>B </c><c>   3</c></rc>
    <rc><c>B </c><c>   3</c></rc>
    <rc><c>B </c><c>   3</c></rc>
    <rc><c>B </c><c>   3</c></rc>
    <rc><c>B </c><c>   3</c></rc>
    <rc><c>B </c><c>   3</c></rc>
    <rc><c>B </c><c>   3</c></rc>
    <rc><c>B </c><c>   3</c></rc>
    <rc><c>B </c><c>   3</c></rc>
    <rc><c>B </c><c>   3</c></rc>
    <rc><c>B </c><c>   3</c></rc>
    <rc><c>B </c><c>   3</c></rc>
    <rc><c>B </c><c>   3</c></rc>
    <rc><c>B </c><c>   3</c></rc>
    <rc><c>B </c><c>   3</c></rc>
    <rc><c>B </c><c>   3</c></rc>
    <rc><c>B </c><c>   3</c></rc>
    <rc><c>B </c><c>   3</c></rc>
    <rc><c>B </c><c>   3</c></rc>
    <rc><c>B </c><c>   3</c></rc>
    <rc><c>B </c><c>   3</c></rc>
    <rc><c>B </c><c>   3</c></rc>
    <rc><c>B </c><c>   3</c></rc>
    <rc><c>B </c><c>   3</c></rc>
    <rc><c>B </c><c>   3</c></rc>
    <rc><c>B </c><c>   3</c></rc>
    <rc><c>B </c><c>   3</c></rc>
    <rc><c>B </c><c>   3</c></rc>
    <rc><c>B </c><c>   3</c></rc>
    <rc><c>B </c><c>   3</c></rc>
    <rc><c>B </c><c>   3</c></rc>
    <rc><c>B </c><c>   3</c></rc>
    <rc><c>B </c><c>   3</c></rc>
    <rc><c>B </c><c>   3</c></rc>
    <rc><c>B </c><c>   3</c></rc>
    <rc><c>B </c><c>   3</c></rc>
    <rc><c>B </c><c>   3</c></rc>
    <rc><c>B </c><c>   3</c></rc>
    <rc><c>B </c><c>   3</c></rc>
    <rc><c>B </c><c>   3</c></rc>
    <rc><c>B </c><c>   3</c></rc>
    <rc><c>B </c><c>   3</c></rc>
    <rc><c>B </c><c>   3</c></rc>
    <rc><c>B </c><c>   3</c></rc>
    <rc><c>B </c><c>   3</c></rc>
    <rc><c>B </c><c>   3</c></rc>
    <rc><c>B </c><c>   3</c></rc>
    <rc><c>B </c><c>   3</c></rc>
    <rc><c>B </c><c>   3</c></rc>
    <rc><c>B </c><c>   3</c></rc>
    <rc><c>B </c><c>   3</c></rc>
    <rc><c>B </c><c>   3</c></rc>
    <rc><c>B </c><c>   3</c></rc>
    <rc><c>B </c><c>   3</c></rc>
    <rc><c>B </c><c>   3</c></rc>
    <rc><c>B </c><c>   3</c></rc>
    <rc><c>B </c><c>   3</c></rc>
    <rc><c>B </c><c>   3</c></rc>
    <rc><c>B </c><c>   3</c></rc>
    <rc><c>B </c><c>   3</c></rc>
    <rc><c>B </c><c>   3</c></rc>
    <rc><c>B </c><c>   3</c></rc>
    <rc><c>B </c><c>   3</c></rc>
    <rc><c>B </c><c>   3</c></rc>
    <rc><c>B </c><c>   3</c></rc>
    <rc><c>B </c><c>   3</c></rc>
    <rc><c>B </c><c>   3</c></rc>
    <rc><c>B </c><c>   3</c></rc>
    <rc><c>B </c><c>   3</c></rc>
    <rc><c>B </c><c>   3</c></rc>
    <rc><c>B </c><c>   3</c></rc>
    <rc><c>B </c><c>   3</c></rc>
    <rc><c>B </c><c>   3</c></rc>
    <rc><c>B </c><c>   3</c></rc>
    <rc><c>B </c><c>   3</c></rc>
    <rc><c>B </c><c>   3</c></rc>
    <rc><c>B </c><c>   3</c></rc>
    <rc><c>B </c><c>   3</c></rc>
    <rc><c>B </c><c>   3</c></rc>
    <rc><c>B </c><c>   3</c></rc>
    <rc><c>B </c><c>   3</c></rc>
    <rc><c>B </c><c>   3</c></rc>
    <rc><c>B </c><c>   3</c></rc>
    <rc><c>B </c><c>   3</c></rc>
    <rc><c>B </c><c>   3</c></rc>
    <rc><c>B </c><c>   3</c></rc>
    <rc><c>B </c><c>   3</c></rc>
    <rc><c>B </c><c>   3</c></rc>
    <rc><c>B </c><c>   3</c></rc>
    <rc><c>B </c><c>   3</c></rc>
    <rc><c>B </c><c>   3</c></rc>
    <rc><c>B </c><c>   3</c></rc>
    <rc><c>B </c><c>   3</c></rc>
    <rc><c>B </c><c>   3</c></rc>
    <rc><c>B </c><c>   3</c></rc>
    <rc><c>B </c><c>   3</c></rc>
    <rc><c>B </c><c>   3</c></rc>
    <rc><c>B </c><c>   3</c></rc>
    <rc><c>B </c><c>   3</c></rc>
    <rc><c>B </c><c>   3</c></rc>
    <rc><c>B </c><c>   3</c></rc>
    <rc><c>B </c><c>   3</c></rc>
    <rc><c>B </c><c>   3</c></rc>
    <rc><c>B </c><c>   3</c></rc>
    <rc><c>B </c><c>   3</c></rc>
    <rc><c>B </c><c>   3</c></rc>
    <rc><c>B </c><c>   3</c></rc>
    <rc><c>B </c><c>   3</c></rc>
    <rc><c>B </c><c>   3</c></rc>
    <rc><c>B </c><c>   3</c></rc>
    <rc><c>B </c><c>   3</c></rc>
    <rc><c>B </c><c>   3</c></rc>
    <rc><c>B </c><c>   3</c></rc>
    <rc><c>B </c><c>   3</c></rc>
    <rc><c>B </c><c>   3</c></rc>
    <rc><c>B </c><c>   3</c></rc>
    <rc><c>B </c><c>   3</c></rc>
    <rc><c>B </c><c>   3</c></rc>
    <rc><c>B </c><c>   3</c></rc>
    <rc><c>B </c><c>   3</c></rc>
    <rc><c>B </c><c>   3</c></rc>
    <rc><c>B </c><c>   3</c></rc>
    <rc><c>B </c><c>   3</c></rc>
    <rc><c>B </c><c>   3</c></rc>
    <rc><c>B </c><c>   3</c></rc>
    <rc><c>B </c><c>   3</c></rc>
    <rc><c>B </c><c>   3</c></rc>
    <rc><c>B </c><c>   3</c></rc>
    <rc><c>B </c><c>   3</c></rc>
   </set>
  </array>
  <array name="atomtypes" >
   <dimension dim="1">type</dimension>
   <field type="int">atomspertype</field>
   <field type="string">element</field>
   <field>mass</field>
   <field>valence</field>
   <field type="string">pseudopotential</field>
   <set>
    <rc><c>   1</c><c>P </c><c>     30.97400000</c><c>      5.00000000</c><c>  PAW_PBE P 06Sep2000                   </c></rc>
    <rc><c> 144</c><c>N </c><c>     14.00100000</c><c>      5.00000000</c><c>  PAW_PBE N 08Apr2002                   </c></rc>
    <rc><c> 143</c><c>B </c><c>     10.81100000</c><c>      3.00000000</c><c>  PAW_PBE B 06Sep2000                   </c></rc>
   </set>
  </array>
 </atominfo>
 <structure name="initialpos" >
  <crystal>
   <varray name="basis" >
    <v>      14.93631415       0.00000000       0.00000000 </v>
    <v>      -7.46815707      12.93522749      -0.00000000 </v>
    <v>       0.00000000       0.00000000      13.34127628 </v>
   </varray>
   <i name="volume">   2577.59623255 </i>
   <varray name="rec_basis" >
    <v>       0.06695092       0.03865413      -0.00000000 </v>
    <v>       0.00000000       0.07730827      -0.00000000 </v>
    <v>       0.00000000       0.00000000       0.07495535 </v>
   </varray>
  </crystal>
  <varray name="positions" >
   <v>       0.44444444       0.38888889       0.37500000 </v>
   <v>       0.11110578       0.05553988       0.12514209 </v>
   <v>       0.61111893       0.55556454       0.12533815 </v>
   <v>       0.44443410       0.05553988       0.12514209 </v>
   <v>       0.94445577       0.55623423       0.12511237 </v>
   <v>       0.77777778       0.05555556       0.12508750 </v>
   <v>       0.11111111       0.72222222       0.62490204 </v>
   <v>       0.44443410       0.72222755       0.62485791 </v>
   <v>       0.27776879       0.22221440       0.62466185 </v>
   <v>       0.77779345       0.72222755       0.62485791 </v>
   <v>       0.61111409       0.22221925       0.62484996 </v>
   <v>       0.94444599       0.22222938       0.62490241 </v>
   <v>       0.27776861       0.72222439       0.12511237 </v>
   <v>       0.11110516       0.22221925       0.12515004 </v>
   <v>       0.44444561       0.22221440       0.12533815 </v>
   <v>       0.61111409       0.72222817       0.12515004 </v>
   <v>       0.94445577       0.72222439       0.12511237 </v>
   <v>       0.77778339       0.22222938       0.12509759 </v>
   <v>       0.11110895       0.88887756       0.62488763 </v>
   <v>       0.44443273       0.88888303       0.62489877 </v>
   <v>       0.27776879       0.38888773       0.62466185 </v>
   <v>       0.61111893       0.38888773       0.62466185 </v>
   <v>       0.77778339       0.88888734       0.62490241 </v>
   <v>       0.94445030       0.38890061       0.62489877 </v>
   <v>       0.11110578       0.38889924       0.12514209 </v>
   <v>       0.27776861       0.88887756       0.12511237 </v>
   <v>       0.61110395       0.88888734       0.12509759 </v>
   <v>       0.44444444       0.38888889       0.12572567 </v>
   <v>       0.94445030       0.88888303       0.12510123 </v>
   <v>       0.77779345       0.38889924       0.12514209 </v>
   <v>       0.27776995       0.55556338       0.62481384 </v>
   <v>       0.11110578       0.05553988       0.62485791 </v>
   <v>       0.61111893       0.55556454       0.62466185 </v>
   <v>       0.44443410       0.05553988       0.62485791 </v>
   <v>       0.94445577       0.55556472       0.62488763 </v>
   <v>       0.11110895       0.55556472       0.12511237 </v>
   <v>       0.77777778       0.05555556       0.62491250 </v>
   <v>       0.27776995       0.05553990       0.12518616 </v>
   <v>       0.44444561       0.55556454       0.12533815 </v>
   <v>       0.77779343       0.55556338       0.12518616 </v>
   <v>       0.61110395       0.05554994       0.12509759 </v>
   <v>       0.44444561       0.55556454       0.62466185 </v>
   <v>       0.94444599       0.05554994       0.12509759 </v>
   <v>       0.27776861       0.72222439       0.62488763 </v>
   <v>       0.11110516       0.22221925       0.62484996 </v>
   <v>       0.44444561       0.22221440       0.62466185 </v>
   <v>       0.61111409       0.72222817       0.62484996 </v>
   <v>       0.94445577       0.72222439       0.62488763 </v>
   <v>       0.77778339       0.22222938       0.62490241 </v>
   <v>       0.11111111       0.72222222       0.12509796 </v>
   <v>       0.44443410       0.72222755       0.12514209 </v>
   <v>       0.27776879       0.22221440       0.12533815 </v>
   <v>       0.77779345       0.72222755       0.12514209 </v>
   <v>       0.61111409       0.22221925       0.12515004 </v>
   <v>       0.94444599       0.22222938       0.12509759 </v>
   <v>       0.11110578       0.38889924       0.62485791 </v>
   <v>       0.27776861       0.88887756       0.62488763 </v>
   <v>       0.61110395       0.88888734       0.62490241 </v>
   <v>       0.44444444       0.38888889       0.62427433 </v>
   <v>       0.94445030       0.88888303       0.62489877 </v>
   <v>       0.11110895       0.88887756       0.12511237 </v>
   <v>       0.77779345       0.38889924       0.62485791 </v>
   <v>       0.44443273       0.88888303       0.12510123 </v>
   <v>       0.27776879       0.38888773       0.12533815 </v>
   <v>       0.27776995       0.55556338       0.12518616 </v>
   <v>       0.61111893       0.38888773       0.12533815 </v>
   <v>       0.77778339       0.88888734       0.12509759 </v>
   <v>       0.94445030       0.38890061       0.12510123 </v>
   <v>       0.11110895       0.55556472       0.62488763 </v>
   <v>       0.27776995       0.05553990       0.62481384 </v>
   <v>       0.77779343       0.55556338       0.62481384 </v>
   <v>       0.61110395       0.05554994       0.62490241 </v>
   <v>       0.94444599       0.05554994       0.62490241 </v>
   <v>       0.05492459       0.11067225       0.37500000 </v>
   <v>       0.55597948       0.61195895       0.37500000 </v>
   <v>       0.38821178       0.10798614       0.37500000 </v>
   <v>       0.88997050       0.61165191       0.37500000 </v>
   <v>       0.72233166       0.11100168       0.37500000 </v>
   <v>       0.05555347       0.77777986       0.87500000 </v>
   <v>       0.38889499       0.77778040       0.87500000 </v>
   <v>       0.22222211       0.27777772       0.87500000 </v>
   <v>       0.72222208       0.77778036       0.87500000 </v>
   <v>       0.55555561       0.27777772       0.87500000 </v>
   <v>       0.88888780       0.27777560       0.87500000 </v>
   <v>       0.22203010       0.77768172       0.37500000 </v>
   <v>       0.05492459       0.27758567       0.37500000 </v>
   <v>       0.38321436       0.26642872       0.37500000 </v>
   <v>       0.55574766       0.77840874       0.37500000 </v>
   <v>       0.88973042       0.77847773       0.37500000 </v>
   <v>       0.72266108       0.27758567       0.37500000 </v>
   <v>       0.05555294       0.94444793       0.87500000 </v>
   <v>       0.38889499       0.94444793       0.87500000 </v>
   <v>       0.22222295       0.44443974       0.87500000 </v>
   <v>       0.55555250       0.44444291       0.87500000 </v>
   <v>       0.72222259       0.94444517       0.87500000 </v>
   <v>       0.88888540       0.44443834       0.87500000 </v>
   <v>       0.05485561       0.44458602       0.37500000 </v>
   <v>       0.22168142       0.94336284       0.37500000 </v>
   <v>       0.55571596       0.94452465       0.37500000 </v>
   <v>       0.38321436       0.45011897       0.37500000 </v>
   <v>       0.88880868       0.94452465       0.37500000 </v>
   <v>       0.72534720       0.44512155       0.37500000 </v>
   <v>       0.22222502       0.61110832       0.87500000 </v>
   <v>       0.05555297       0.11111126       0.87500000 </v>
   <v>       0.55555561       0.61111123       0.87500000 </v>
   <v>       0.38889360       0.11111654       0.87500000 </v>
   <v>       0.88888330       0.61110832       0.87500000 </v>
   <v>       0.05565162       0.61130323       0.37500000 </v>
   <v>       0.72222259       0.11111075       0.87500000 </v>
   <v>       0.21977436       0.10798614       0.37500000 </v>
   <v>       0.38821178       0.61355898       0.37500000 </v>
   <v>       0.72534720       0.61355898       0.37500000 </v>
   <v>       0.55574766       0.11067225       0.37500000 </v>
   <v>       0.38889360       0.61111039       0.87500000 </v>
   <v>       0.88867002       0.11100168       0.37500000 </v>
   <v>       0.22222639       0.77777986       0.87500000 </v>
   <v>       0.05555297       0.27777505       0.87500000 </v>
   <v>       0.38889042       0.27778084       0.87500000 </v>
   <v>       0.55555829       0.77778036       0.87500000 </v>
   <v>       0.88888540       0.77778040       0.87500000 </v>
   <v>       0.72222208       0.27777505       0.87500000 </v>
   <v>       0.05565162       0.77768172       0.37500000 </v>
   <v>       0.38874731       0.77847773       0.37500000 </v>
   <v>       0.22137438       0.27735386       0.37500000 </v>
   <v>       0.72266108       0.77840874       0.37500000 </v>
   <v>       0.55597948       0.27735386       0.37500000 </v>
   <v>       0.88880868       0.27761737       0.37500000 </v>
   <v>       0.05555294       0.44443834       0.87500000 </v>
   <v>       0.22222502       0.94445003       0.87500000 </v>
   <v>       0.55555773       0.94444553       0.87500000 </v>
   <v>       0.38889042       0.44444291       0.87500000 </v>
   <v>       0.88888780       0.94444553       0.87500000 </v>
   <v>       0.05485561       0.94360291       0.37500000 </v>
   <v>       0.72221679       0.44443974       0.87500000 </v>
   <v>       0.38874731       0.94360291       0.37500000 </v>
   <v>       0.21977436       0.44512155       0.37500000 </v>
   <v>       0.22168142       0.61165191       0.37500000 </v>
   <v>       0.56690462       0.45011897       0.37500000 </v>
   <v>       0.72233166       0.94466331       0.37500000 </v>
   <v>       0.88973042       0.44458602       0.37500000 </v>
   <v>       0.05555347       0.61110694       0.87500000 </v>
   <v>       0.22222295       0.11111654       0.87500000 </v>
   <v>       0.72221679       0.61111039       0.87500000 </v>
   <v>       0.55555829       0.11111126       0.87500000 </v>
   <v>       0.88888816       0.11111075       0.87500000 </v>
   <v>       0.10888702       0.05363429       0.37500000 </v>
   <v>       0.61662821       0.56151023       0.37500000 </v>
   <v>       0.44474727       0.05363429       0.37500000 </v>
   <v>       0.94505350       0.55569452       0.37500000 </v>
   <v>       0.77777778       0.05555556       0.37500000 </v>
   <v>       0.11111111       0.72222222       0.87500000 </v>
   <v>       0.44445789       0.72225917       0.87500000 </v>
   <v>       0.27773656       0.22218886       0.87500000 </v>
   <v>       0.77780129       0.72225917       0.87500000 </v>
   <v>       0.61113701       0.22219632       0.87500000 </v>
   <v>       0.94441891       0.22220602       0.87500000 </v>
   <v>       0.27763881       0.72269232       0.37500000 </v>
   <v>       0.10939752       0.22136543       0.37500000 </v>
   <v>       0.44488202       0.21670513       0.37500000 </v>
   <v>       0.61196791       0.72393582       0.37500000 </v>
   <v>       0.94505350       0.72269232       0.37500000 </v>
   <v>       0.77798832       0.22181380       0.37500000 </v>
   <v>       0.11109976       0.88887925       0.87500000 </v>
   <v>       0.44445802       0.88889568       0.87500000 </v>
   <v>       0.27773656       0.38888103       0.87500000 </v>
   <v>       0.61114447       0.38888103       0.87500000 </v>
   <v>       0.77778711       0.88891442       0.87500000 </v>
   <v>       0.94443766       0.38887531       0.87500000 </v>
   <v>       0.10888702       0.38858606       0.37500000 </v>
   <v>       0.27763881       0.88827983       0.37500000 </v>
   <v>       0.61151953       0.88950785       0.37500000 </v>
   <v>       0.94428960       0.88904373       0.37500000 </v>
   <v>       0.77969904       0.38858606       0.37500000 </v>
   <v>       0.27776270       0.55557063       0.87500000 </v>
   <v>       0.11107416       0.05553205       0.87500000 </v>
   <v>       0.61114447       0.55559678       0.87500000 </v>
   <v>       0.44445789       0.05553205       0.87500000 </v>
   <v>       0.94445408       0.55555385       0.87500000 </v>
   <v>       0.11064101       0.55569452       0.37500000 </v>
   <v>       0.77777778       0.05555556       0.87500000 </v>
   <v>       0.27665444       0.05330889       0.37500000 </v>
   <v>       0.44488202       0.56151023       0.37500000 </v>
   <v>       0.78002445       0.55667889       0.37500000 </v>
   <v>       0.61151953       0.05534502       0.37500000 </v>
   <v>       0.44445231       0.55559678       0.87500000 </v>
   <v>       0.94382548       0.05534502       0.37500000 </v>
   <v>       0.27777949       0.72223357       0.87500000 </v>
   <v>       0.11105932       0.22219632       0.87500000 </v>
   <v>       0.44445231       0.22218886       0.87500000 </v>
   <v>       0.61113701       0.72227402       0.87500000 </v>
   <v>       0.94445408       0.72223357       0.87500000 </v>
   <v>       0.77778711       0.22220602       0.87500000 </v>
   <v>       0.11111111       0.72222222       0.37500000 </v>
   <v>       0.44474727       0.72444631       0.37500000 </v>
   <v>       0.27182310       0.21670513       0.37500000 </v>
   <v>       0.77969904       0.72444631       0.37500000 </v>
   <v>       0.61196791       0.22136543       0.37500000 </v>
   <v>       0.94382548       0.22181380       0.37500000 </v>
   <v>       0.11107416       0.38887545       0.87500000 </v>
   <v>       0.27777949       0.88887925       0.87500000 </v>
   <v>       0.61112731       0.88891442       0.87500000 </v>
   <v>       0.44444444       0.38888889       0.87500000 </v>
   <v>       0.94443766       0.88889568       0.87500000 </v>
   <v>       0.11064101       0.88827983       0.37500000 </v>
   <v>       0.77780129       0.38887545       0.87500000 </v>
   <v>       0.44475413       0.88904373       0.37500000 </v>
   <v>       0.27182310       0.38845131       0.37500000 </v>
   <v>       0.27665444       0.55667889       0.37500000 </v>
   <v>       0.61662821       0.38845131       0.37500000 </v>
   <v>       0.77798832       0.88950785       0.37500000 </v>
   <v>       0.94428960       0.38857921       0.37500000 </v>
   <v>       0.11109976       0.55555385       0.87500000 </v>
   <v>       0.27776270       0.05552540       0.87500000 </v>
   <v>       0.77780793       0.55557063       0.87500000 </v>
   <v>       0.61112731       0.05554622       0.87500000 </v>
   <v>       0.94441891       0.05554622       0.87500000 </v>
   <v>       0.05546928       0.11103632       0.12487403 </v>
   <v>       0.55563492       0.61126984       0.12476730 </v>
   <v>       0.38882801       0.11092619       0.12483104 </v>
   <v>       0.88900701       0.61117017       0.12488859 </v>
   <v>       0.72223458       0.11109875       0.12491481 </v>
   <v>       0.05557215       0.77776118       0.62509033 </v>
   <v>       0.38885004       0.77781495       0.62510653 </v>
   <v>       0.22206349       0.27769841       0.62523270 </v>
   <v>       0.72229702       0.77786405       0.62512597 </v>
   <v>       0.55563492       0.27769841       0.62523270 </v>
   <v>       0.88889259       0.27778519       0.62508998 </v>
   <v>       0.22218903       0.77776118       0.12490967 </v>
   <v>       0.05546928       0.27776630       0.12487403 </v>
   <v>       0.38878395       0.27756790       0.12459556 </v>
   <v>       0.55556704       0.77786405       0.12487403 </v>
   <v>       0.88896491       0.77781495       0.12489347 </v>
   <v>       0.72229702       0.27776630       0.12487403 </v>
   <v>       0.05551838       0.94436842       0.62510653 </v>
   <v>       0.38885004       0.94436842       0.62510653 </v>
   <v>       0.22209818       0.44450532       0.62516896 </v>
   <v>       0.55576543       0.44454938       0.62540444 </v>
   <v>       0.72223458       0.94446917       0.62508519 </v>
   <v>       0.88896491       0.44448330       0.62510653 </v>
   <v>       0.05551838       0.44448330       0.12489347 </v>
   <v>       0.22216316       0.94432633       0.12488859 </v>
   <v>       0.55554814       0.94444074       0.12491002 </v>
   <v>       0.38878395       0.44454938       0.12459556 </v>
   <v>       0.88889259       0.94444074       0.12491002 </v>
   <v>       0.72240714       0.44450532       0.12483104 </v>
   <v>       0.22216316       0.61117017       0.62511141 </v>
   <v>       0.05546928       0.11103632       0.62512597 </v>
   <v>       0.55563492       0.61126984       0.62523270 </v>
   <v>       0.38882801       0.11092619       0.62516896 </v>
   <v>       0.88900701       0.61117017       0.62511141 </v>
   <v>       0.05557215       0.61114430       0.12490967 </v>
   <v>       0.72223458       0.11109875       0.62508519 </v>
   <v>       0.22209818       0.11092619       0.12483104 </v>
   <v>       0.38882801       0.61123515       0.12483104 </v>
   <v>       0.72240714       0.61123515       0.12483104 </v>
   <v>       0.55556704       0.11103632       0.12487403 </v>
   <v>       0.38882801       0.61123515       0.62516896 </v>
   <v>       0.88886417       0.11109875       0.12491481 </v>
   <v>       0.22218903       0.77776118       0.62509033 </v>
   <v>       0.05546928       0.27776630       0.62512597 </v>
   <v>       0.38878395       0.27756790       0.62540444 </v>
   <v>       0.55556704       0.77786405       0.62512597 </v>
   <v>       0.88896491       0.77781495       0.62510653 </v>
   <v>       0.72229702       0.27776630       0.62512597 </v>
   <v>       0.05557215       0.77776118       0.12490967 </v>
   <v>       0.38885004       0.77781495       0.12489347 </v>
   <v>       0.22206349       0.27769841       0.12476730 </v>
   <v>       0.72229702       0.77786405       0.12487403 </v>
   <v>       0.55563492       0.27769841       0.12476730 </v>
   <v>       0.88889259       0.27778519       0.12491002 </v>
   <v>       0.05551838       0.44448330       0.62510653 </v>
   <v>       0.22216316       0.94432633       0.62511141 </v>
   <v>       0.55554814       0.94444074       0.62508998 </v>
   <v>       0.38878395       0.44454938       0.62540444 </v>
   <v>       0.88889259       0.94444074       0.62508998 </v>
   <v>       0.05551838       0.94436842       0.12489347 </v>
   <v>       0.72240714       0.44450532       0.62516896 </v>
   <v>       0.38885004       0.94436842       0.12489347 </v>
   <v>       0.22209818       0.44450532       0.12483104 </v>
   <v>       0.22216316       0.61117017       0.12488859 </v>
   <v>       0.55576543       0.44454938       0.12459556 </v>
   <v>       0.72223458       0.94446917       0.12491481 </v>
   <v>       0.88896491       0.44448330       0.12489347 </v>
   <v>       0.05557215       0.61114430       0.62509033 </v>
   <v>       0.22209818       0.11092619       0.62516896 </v>
   <v>       0.72240714       0.61123515       0.62516896 </v>
   <v>       0.55556704       0.11103632       0.62512597 </v>
   <v>       0.88886417       0.11109875       0.62508519 </v>
  </varray>
 </structure>
 <calculation>
  <scstep>
   <time name="dav">    8.32    8.32</time>
   <time name="total">    8.54    8.54</time>
   <energy>
    <i name="alphaZ">   2866.36594071 </i>
    <i name="ewald"> -35860.82055162 </i>
    <i name="hartreedc"> -13235.41498478 </i>
    <i name="XCdc">   3913.00042218 </i>
    <i name="pawpsdc">  35870.55371313 </i>
    <i name="pawaedc"> -35911.58316637 </i>
    <i name="eentropy">     -0.04284821 </i>
    <i name="bandstr">     62.64402308 </i>
    <i name="atom">  48446.24376545 </i>
    <i name="e_fr_energy">   6150.94631356 </i>
    <i name="e_wo_entrp">   6150.98916177 </i>
    <i name="e_0_energy">   6150.96773767 </i>
   </energy>
  </scstep>
  <scstep>
   <time name="dav">    9.65    9.65</time>
   <time name="total">    9.66    9.66</time>
   <energy>
    <i name="e_fr_energy">  -2175.98319683 </i>
    <i name="e_wo_entrp">  -2175.96687375 </i>
    <i name="e_0_energy">  -2175.97503529 </i>
   </energy>
  </scstep>
  <scstep>
   <time name="dav">    9.17    9.17</time>
   <time name="total">    9.18    9.18</time>
   <energy>
    <i name="e_fr_energy">  -2778.35811297 </i>
    <i name="e_wo_entrp">  -2778.34584598 </i>
    <i name="e_0_energy">  -2778.35197947 </i>
   </energy>
  </scstep>
  <scstep>
   <time name="dav">    9.16    9.15</time>
   <time name="total">    9.16    9.16</time>
   <energy>
    <i name="e_fr_energy">  -2792.06912599 </i>
    <i name="e_wo_entrp">  -2792.05862968 </i>
    <i name="e_0_energy">  -2792.06387784 </i>
   </energy>
  </scstep>
  <scstep>
   <time name="dav">    9.20    9.20</time>
   <time name="total">    9.46    9.45</time>
   <energy>
    <i name="e_fr_energy">  -2792.43920167 </i>
    <i name="e_wo_entrp">  -2792.42877727 </i>
    <i name="e_0_energy">  -2792.43398947 </i>
   </energy>
  </scstep>
  <scstep>
   <time name="diag">    0.64    0.64</time>
   <time name="diis">    5.00    5.00</time>
   <time name="orth">    0.27    0.27</time>
   <time name="total">    6.40    6.40</time>
   <energy>
    <i name="e_fr_energy">  -2547.78378452 </i>
    <i name="e_wo_entrp">  -2547.78378452 </i>
    <i name="e_0_energy">  -2547.78378452 </i>
   </energy>
  </scstep>
  <scstep>
   <time name="diag">    0.64    0.64</time>
   <time name="diis">    5.20    5.20</time>
   <time name="orth">    0.28    0.27</time>
   <time name="total">    6.58    6.58</time>
   <energy>
    <i name="e_fr_energy">  -2533.08000256 </i>
    <i name="e_wo_entrp">  -2533.08000256 </i>
    <i name="e_0_energy">  -2533.08000256 </i>
   </energy>
  </scstep>
  <scstep>
   <time name="diag">    0.65    0.65</time>
   <time name="diis">    5.25    5.24</time>
   <time name="orth">    0.27    0.27</time>
   <time name="total">    6.64    6.64</time>
   <energy>
    <i name="e_fr_energy">  -2530.01812534 </i>
    <i name="e_wo_entrp">  -2530.01812534 </i>
    <i name="e_0_energy">  -2530.01812534 </i>
   </energy>
  </scstep>
  <scstep>
   <time name="diag">    0.64    0.64</time>
   <time name="diis">    5.35    5.35</time>
   <time name="orth">    0.28    0.28</time>
   <time name="total">    6.75    6.74</time>
   <energy>
    <i name="e_fr_energy">  -2526.12900600 </i>
    <i name="e_wo_entrp">  -2526.12900600 </i>
    <i name="e_0_energy">  -2526.12900600 </i>
   </energy>
  </scstep>
  <scstep>
   <time name="diag">    0.64    0.64</time>
   <time name="diis">    5.57    5.56</time>
   <time name="orth">    0.27    0.27</time>
   <time name="total">    6.95    6.94</time>
   <energy>
    <i name="e_fr_energy">  -2526.20157294 </i>
    <i name="e_wo_entrp">  -2526.20157294 </i>
    <i name="e_0_energy">  -2526.20157294 </i>
   </energy>
  </scstep>
  <scstep>
   <time name="diag">    0.67    0.67</time>
   <time name="diis">    5.59    5.58</time>
   <time name="orth">    0.27    0.27</time>
   <time name="total">    6.98    6.97</time>
   <energy>
    <i name="e_fr_energy">  -2526.22327964 </i>
    <i name="e_wo_entrp">  -2526.22327964 </i>
    <i name="e_0_energy">  -2526.22327964 </i>
   </energy>
  </scstep>
  <scstep>
   <time name="diag">    0.63    0.63</time>
   <time name="diis">    5.57    5.57</time>
   <time name="orth">    0.27    0.27</time>
   <time name="total">    6.92    6.92</time>
   <energy>
    <i name="e_fr_energy">  -2526.19597219 </i>
    <i name="e_wo_entrp">  -2526.19597219 </i>
    <i name="e_0_energy">  -2526.19597219 </i>
   </energy>
  </scstep>
  <scstep>
   <time name="diag">    0.62    0.62</time>
   <time name="diis">    5.71    5.71</time>
   <time name="orth">    0.27    0.27</time>
   <time name="total">    7.05    7.05</time>
   <energy>
    <i name="e_fr_energy">  -2526.19488190 </i>
    <i name="e_wo_entrp">  -2526.19488190 </i>
    <i name="e_0_energy">  -2526.19488190 </i>
   </energy>
  </scstep>
  <scstep>
   <time name="diag">    0.63    0.63</time>
   <time name="diis">    5.87    5.87</time>
   <time name="orth">    0.27    0.27</time>
   <time name="total">    7.23    7.23</time>
   <energy>
    <i name="e_fr_energy">  -2526.19516111 </i>
    <i name="e_wo_entrp">  -2526.19516111 </i>
    <i name="e_0_energy">  -2526.19516111 </i>
   </energy>
  </scstep>
  <scstep>
   <time name="diag">    0.64    0.64</time>
   <time name="diis">    5.92    5.92</time>
   <time name="orth">    0.28    0.28</time>
   <time name="total">    7.29    7.28</time>
   <energy>
    <i name="e_fr_energy">  -2526.19524774 </i>
    <i name="e_wo_entrp">  -2526.19524774 </i>
    <i name="e_0_energy">  -2526.19524774 </i>
   </energy>
  </scstep>
  <scstep>
   <time name="diag">    0.65    0.65</time>
   <time name="diis">    5.82    5.81</time>
   <time name="orth">    0.28    0.27</time>
   <time name="total">    7.19    7.19</time>
   <energy>
    <i name="e_fr_energy">  -2526.19521713 </i>
    <i name="e_wo_entrp">  -2526.19521713 </i>
    <i name="e_0_energy">  -2526.19521713 </i>
   </energy>
  </scstep>
  <scstep>
   <time name="diag">    0.63    0.63</time>
   <time name="diis">    5.79    5.79</time>
   <time name="orth">    0.27    0.27</time>
   <time name="total">    7.14    7.13</time>
   <energy>
    <i name="e_fr_energy">  -2526.19520896 </i>
    <i name="e_wo_entrp">  -2526.19520896 </i>
    <i name="e_0_energy">  -2526.19520896 </i>
   </energy>
  </scstep>
  <scstep>
   <time name="diag">    0.62    0.62</time>
   <time name="diis">    5.53    5.52</time>
   <time name="orth">    0.27    0.27</time>
   <time name="total">    6.89    6.88</time>
   <energy>
    <i name="e_fr_energy">  -2526.19520931 </i>
    <i name="e_wo_entrp">  -2526.19520931 </i>
    <i name="e_0_energy">  -2526.19520931 </i>
   </energy>
  </scstep>
  <scstep>
   <time name="diag">    0.63    0.63</time>
   <time name="diis">    4.50    4.50</time>
   <time name="orth">    0.27    0.27</time>
   <time name="total">    5.62    5.62</time>
   <energy>
    <i name="alphaZ">   2866.36594071 </i>
    <i name="ewald"> -35860.82055162 </i>
    <i name="hartreedc"> -16414.55194828 </i>
    <i name="XCdc">   4103.41376684 </i>
    <i name="pawpsdc"> 140225.03973911 </i>
    <i name="pawaedc">-140325.61828957 </i>
    <i name="eentropy">     -0.00000000 </i>
    <i name="bandstr">  -5566.26763159 </i>
    <i name="atom">  48446.24376545 </i>
    <i name="e_fr_energy">  -2526.19520895 </i>
    <i name="e_wo_entrp">  -2526.19520895 </i>
    <i name="e_0_energy">  -2526.19520895 </i>
   </energy>
  </scstep>
  <structure>
   <crystal>
    <varray name="basis" >
     <v>      14.93631415       0.00000000       0.00000000 </v>
     <v>      -7.46815707      12.93522749      -0.00000000 </v>
     <v>       0.00000000       0.00000000      13.34127628 </v>
    </varray>
    <i name="volume">   2577.59623255 </i>
    <varray name="rec_basis" >
     <v>       0.06695092       0.03865413      -0.00000000 </v>
     <v>       0.00000000       0.07730827      -0.00000000 </v>
     <v>       0.00000000       0.00000000       0.07495535 </v>
    </varray>
   </crystal>
   <varray name="positions" >
    <v>       0.44444444       0.38888889       0.37500000 </v>
    <v>       0.11110578       0.05553988       0.12514209 </v>
    <v>       0.61111893       0.55556454       0.12533815 </v>
    <v>       0.44443410       0.05553988       0.12514209 </v>
    <v>       0.94445577       0.55623423       0.12511237 </v>
    <v>       0.77777778       0.05555556       0.12508750 </v>
    <v>       0.11111111       0.72222222       0.62490204 </v>
    <v>       0.44443410       0.72222755       0.62485791 </v>
    <v>       0.27776879       0.22221440       0.62466185 </v>
    <v>       0.77779345       0.72222755       0.62485791 </v>
    <v>       0.61111409       0.22221925       0.62484996 </v>
    <v>       0.94444599       0.22222938       0.62490241 </v>
    <v>       0.27776861       0.72222439       0.12511237 </v>
    <v>       0.11110516       0.22221925       0.12515004 </v>
    <v>       0.44444561       0.22221440       0.12533815 </v>
    <v>       0.61111409       0.72222817       0.12515004 </v>
    <v>       0.94445577       0.72222439       0.12511237 </v>
    <v>       0.77778339       0.22222938       0.12509759 </v>
    <v>       0.11110895       0.88887756       0.62488763 </v>
    <v>       0.44443273       0.88888303       0.62489877 </v>
    <v>       0.27776879       0.38888773       0.62466185 </v>
    <v>       0.61111893       0.38888773       0.62466185 </v>
    <v>       0.77778339       0.88888734       0.62490241 </v>
    <v>       0.94445030       0.38890061       0.62489877 </v>
    <v>       0.11110578       0.38889924       0.12514209 </v>
    <v>       0.27776861       0.88887756       0.12511237 </v>
    <v>       0.61110395       0.88888734       0.12509759 </v>
    <v>       0.44444444       0.38888889       0.12572567 </v>
    <v>       0.94445030       0.88888303       0.12510123 </v>
    <v>       0.77779345       0.38889924       0.12514209 </v>
    <v>       0.27776995       0.55556338       0.62481384 </v>
    <v>       0.11110578       0.05553988       0.62485791 </v>
    <v>       0.61111893       0.55556454       0.62466185 </v>
    <v>       0.44443410       0.05553988       0.62485791 </v>
    <v>       0.94445577       0.55556472       0.62488763 </v>
    <v>       0.11110895       0.55556472       0.12511237 </v>
    <v>       0.77777778       0.05555556       0.62491250 </v>
    <v>       0.27776995       0.05553990       0.12518616 </v>
    <v>       0.44444561       0.55556454       0.12533815 </v>
    <v>       0.77779343       0.55556338       0.12518616 </v>
    <v>       0.61110395       0.05554994       0.12509759 </v>
    <v>       0.44444561       0.55556454       0.62466185 </v>
    <v>       0.94444599       0.05554994       0.12509759 </v>
    <v>       0.27776861       0.72222439       0.62488763 </v>
    <v>       0.11110516       0.22221925       0.62484996 </v>
    <v>       0.44444561       0.22221440       0.62466185 </v>
    <v>       0.61111409       0.72222817       0.62484996 </v>
    <v>       0.94445577       0.72222439       0.62488763 </v>
    <v>       0.77778339       0.22222938       0.62490241 </v>
    <v>       0.11111111       0.72222222       0.12509796 </v>
    <v>       0.44443410       0.72222755       0.12514209 </v>
    <v>       0.27776879       0.22221440       0.12533815 </v>
    <v>       0.77779345       0.72222755       0.12514209 </v>
    <v>       0.61111409       0.22221925       0.12515004 </v>
    <v>       0.94444599       0.22222938       0.12509759 </v>
    <v>       0.11110578       0.38889924       0.62485791 </v>
    <v>       0.27776861       0.88887756       0.62488763 </v>
    <v>       0.61110395       0.88888734       0.62490241 </v>
    <v>       0.44444444       0.38888889       0.62427433 </v>
    <v>       0.94445030       0.88888303       0.62489877 </v>
    <v>       0.11110895       0.88887756       0.12511237 </v>
    <v>       0.77779345       0.38889924       0.62485791 </v>
    <v>       0.44443273       0.88888303       0.12510123 </v>
    <v>       0.27776879       0.38888773       0.12533815 </v>
    <v>       0.27776995       0.55556338       0.12518616 </v>
    <v>       0.61111893       0.38888773       0.12533815 </v>
    <v>       0.77778339       0.88888734       0.12509759 </v>
    <v>       0.94445030       0.38890061       0.12510123 </v>
    <v>       0.11110895       0.55556472       0.62488763 </v>
    <v>       0.27776995       0.05553990       0.62481384 </v>
    <v>       0.77779343       0.55556338       0.62481384 </v>
    <v>       0.61110395       0.05554994       0.62490241 </v>
    <v>       0.94444599       0.05554994       0.62490241 </v>
    <v>       0.05492459       0.11067225       0.37500000 </v>
    <v>       0.55597948       0.61195895       0.37500000 </v>
    <v>       0.38821178       0.10798614       0.37500000 </v>
    <v>       0.88997050       0.61165191       0.37500000 </v>
    <v>       0.72233166       0.11100168       0.37500000 </v>
    <v>       0.05555347       0.77777986       0.87500000 </v>
    <v>       0.38889499       0.77778040       0.87500000 </v>
    <v>       0.22222211       0.27777772       0.87500000 </v>
    <v>       0.72222208       0.77778036       0.87500000 </v>
    <v>       0.55555561       0.27777772       0.87500000 </v>
    <v>       0.88888780       0.27777560       0.87500000 </v>
    <v>       0.22203010       0.77768172       0.37500000 </v>
    <v>       0.05492459       0.27758567       0.37500000 </v>
    <v>       0.38321436       0.26642872       0.37500000 </v>
    <v>       0.55574766       0.77840874       0.37500000 </v>
    <v>       0.88973042       0.77847773       0.37500000 </v>
    <v>       0.72266108       0.27758567       0.37500000 </v>
    <v>       0.05555294       0.94444793       0.87500000 </v>
    <v>       0.38889499       0.94444793       0.87500000 </v>
    <v>       0.22222295       0.44443974       0.87500000 </v>
    <v>       0.55555250       0.44444291       0.87500000 </v>
    <v>       0.72222259       0.94444517       0.87500000 </v>
    <v>       0.88888540       0.44443834       0.87500000 </v>
    <v>       0.05485561       0.44458602       0.37500000 </v>
    <v>       0.22168142       0.94336284       0.37500000 </v>
    <v>       0.55571596       0.94452465       0.37500000 </v>
    <v>       0.38321436       0.45011897       0.37500000 </v>
    <v>       0.88880868       0.94452465       0.37500000 </v>
    <v>       0.72534720       0.44512155       0.37500000 </v>
    <v>       0.22222502       0.61110832       0.87500000 </v>
    <v>       0.05555297       0.11111126       0.87500000 </v>
    <v>       0.55555561       0.61111123       0.87500000 </v>
    <v>       0.38889360       0.11111654       0.87500000 </v>
    <v>       0.88888330       0.61110832       0.87500000 </v>
    <v>       0.05565162       0.61130323       0.37500000 </v>
    <v>       0.72222259       0.11111075       0.87500000 </v>
    <v>       0.21977436       0.10798614       0.37500000 </v>
    <v>       0.38821178       0.61355898       0.37500000 </v>
    <v>       0.72534720       0.61355898       0.37500000 </v>
    <v>       0.55574766       0.11067225       0.37500000 </v>
    <v>       0.38889360       0.61111039       0.87500000 </v>
    <v>       0.88867002       0.11100168       0.37500000 </v>
    <v>       0.22222639       0.77777986       0.87500000 </v>
    <v>       0.05555297       0.27777505       0.87500000 </v>
    <v>       0.38889042       0.27778084       0.87500000 </v>
    <v>       0.55555829       0.77778036       0.87500000 </v>
    <v>       0.88888540       0.77778040       0.87500000 </v>
    <v>       0.72222208       0.27777505       0.87500000 </v>
    <v>       0.05565162       0.77768172       0.37500000 </v>
    <v>       0.38874731       0.77847773       0.37500000 </v>
    <v>       0.22137438       0.27735386       0.37500000 </v>
    <v>       0.72266108       0.77840874       0.37500000 </v>
    <v>       0.55597948       0.27735386       0.37500000 </v>
    <v>       0.88880868       0.27761737       0.37500000 </v>
    <v>       0.05555294       0.44443834       0.87500000 </v>
    <v>       0.22222502       0.94445003       0.87500000 </v>
    <v>       0.55555773       0.94444553       0.87500000 </v>
    <v>       0.38889042       0.44444291       0.87500000 </v>
    <v>       0.88888780       0.94444553       0.87500000 </v>
    <v>       0.05485561       0.94360291       0.37500000 </v>
    <v>       0.72221679       0.44443974       0.87500000 </v>
    <v>       0.38874731       0.94360291       0.37500000 </v>
    <v>       0.21977436       0.44512155       0.37500000 </v>
    <v>       0.22168142       0.61165191       0.37500000 </v>
    <v>       0.56690462       0.45011897       0.37500000 </v>
    <v>       0.72233166       0.94466331       0.37500000 </v>
    <v>       0.88973042       0.44458602       0.37500000 </v>
    <v>       0.05555347       0.61110694       0.87500000 </v>
    <v>       0.22222295       0.11111654       0.87500000 </v>
    <v>       0.72221679       0.61111039       0.87500000 </v>
    <v>       0.55555829       0.11111126       0.87500000 </v>
    <v>       0.88888816       0.11111075       0.87500000 </v>
    <v>       0.10888702       0.05363429       0.37500000 </v>
    <v>       0.61662821       0.56151023       0.37500000 </v>
    <v>       0.44474727       0.05363429       0.37500000 </v>
    <v>       0.94505350       0.55569452       0.37500000 </v>
    <v>       0.77777778       0.05555556       0.37500000 </v>
    <v>       0.11111111       0.72222222       0.87500000 </v>
    <v>       0.44445789       0.72225917       0.87500000 </v>
    <v>       0.27773656       0.22218886       0.87500000 </v>
    <v>       0.77780129       0.72225917       0.87500000 </v>
    <v>       0.61113701       0.22219632       0.87500000 </v>
    <v>       0.94441891       0.22220602       0.87500000 </v>
    <v>       0.27763881       0.72269232       0.37500000 </v>
    <v>       0.10939752       0.22136543       0.37500000 </v>
    <v>       0.44488202       0.21670513       0.37500000 </v>
    <v>       0.61196791       0.72393582       0.37500000 </v>
    <v>       0.94505350       0.72269232       0.37500000 </v>
    <v>       0.77798832       0.22181380       0.37500000 </v>
    <v>       0.11109976       0.88887925       0.87500000 </v>
    <v>       0.44445802       0.88889568       0.87500000 </v>
    <v>       0.27773656       0.38888103       0.87500000 </v>
    <v>       0.61114447       0.38888103       0.87500000 </v>
    <v>       0.77778711       0.88891442       0.87500000 </v>
    <v>       0.94443766       0.38887531       0.87500000 </v>
    <v>       0.10888702       0.38858606       0.37500000 </v>
    <v>       0.27763881       0.88827983       0.37500000 </v>
    <v>       0.61151953       0.88950785       0.37500000 </v>
    <v>       0.94428960       0.88904373       0.37500000 </v>
    <v>       0.77969904       0.38858606       0.37500000 </v>
    <v>       0.27776270       0.55557063       0.87500000 </v>
    <v>       0.11107416       0.05553205       0.87500000 </v>
    <v>       0.61114447       0.55559678       0.87500000 </v>
    <v>       0.44445789       0.05553205       0.87500000 </v>
    <v>       0.94445408       0.55555385       0.87500000 </v>
    <v>       0.11064101       0.55569452       0.37500000 </v>
    <v>       0.77777778       0.05555556       0.87500000 </v>
    <v>       0.27665444       0.05330889       0.37500000 </v>
    <v>       0.44488202       0.56151023       0.37500000 </v>
    <v>       0.78002445       0.55667889       0.37500000 </v>
    <v>       0.61151953       0.05534502       0.37500000 </v>
    <v>       0.44445231       0.55559678       0.87500000 </v>
    <v>       0.94382548       0.05534502       0.37500000 </v>
    <v>       0.27777949       0.72223357       0.87500000 </v>
    <v>       0.11105932       0.22219632       0.87500000 </v>
    <v>       0.44445231       0.22218886       0.87500000 </v>
    <v>       0.61113701       0.72227402       0.87500000 </v>
    <v>       0.94445408       0.72223357       0.87500000 </v>
    <v>       0.77778711       0.22220602       0.87500000 </v>
    <v>       0.11111111       0.72222222       0.37500000 </v>
    <v>       0.44474727       0.72444631       0.37500000 </v>
    <v>       0.27182310       0.21670513       0.37500000 </v>
    <v>       0.77969904       0.72444631       0.37500000 </v>
    <v>       0.61196791       0.22136543       0.37500000 </v>
    <v>       0.94382548       0.22181380       0.37500000 </v>
    <v>       0.11107416       0.38887545       0.87500000 </v>
    <v>       0.27777949       0.88887925       0.87500000 </v>
    <v>       0.61112731       0.88891442       0.87500000 </v>
    <v>       0.44444444       0.38888889       0.87500000 </v>
    <v>       0.94443766       0.88889568       0.87500000 </v>
    <v>       0.11064101       0.88827983       0.37500000 </v>
    <v>       0.77780129       0.38887545       0.87500000 </v>
    <v>       0.44475413       0.88904373       0.37500000 </v>
    <v>       0.27182310       0.38845131       0.37500000 </v>
    <v>       0.27665444       0.55667889       0.37500000 </v>
    <v>       0.61662821       0.38845131       0.37500000 </v>
    <v>       0.77798832       0.88950785       0.37500000 </v>
    <v>       0.94428960       0.38857921       0.37500000 </v>
    <v>       0.11109976       0.55555385       0.87500000 </v>
    <v>       0.27776270       0.05552540       0.87500000 </v>
    <v>       0.77780793       0.55557063       0.87500000 </v>
    <v>       0.61112731       0.05554622       0.87500000 </v>
    <v>       0.94441891       0.05554622       0.87500000 </v>
    <v>       0.05546928       0.11103632       0.12487403 </v>
    <v>       0.55563492       0.61126984       0.12476730 </v>
    <v>       0.38882801       0.11092619       0.12483104 </v>
    <v>       0.88900701       0.61117017       0.12488859 </v>
    <v>       0.72223458       0.11109875       0.12491481 </v>
    <v>       0.05557215       0.77776118       0.62509033 </v>
    <v>       0.38885004       0.77781495       0.62510653 </v>
    <v>       0.22206349       0.27769841       0.62523270 </v>
    <v>       0.72229702       0.77786405       0.62512597 </v>
    <v>       0.55563492       0.27769841       0.62523270 </v>
    <v>       0.88889259       0.27778519       0.62508998 </v>
    <v>       0.22218903       0.77776118       0.12490967 </v>
    <v>       0.05546928       0.27776630       0.12487403 </v>
    <v>       0.38878395       0.27756790       0.12459556 </v>
    <v>       0.55556704       0.77786405       0.12487403 </v>
    <v>       0.88896491       0.77781495       0.12489347 </v>
    <v>       0.72229702       0.27776630       0.12487403 </v>
    <v>       0.05551838       0.94436842       0.62510653 </v>
    <v>       0.38885004       0.94436842       0.62510653 </v>
    <v>       0.22209818       0.44450532       0.62516896 </v>
    <v>       0.55576543       0.44454938       0.62540444 </v>
    <v>       0.72223458       0.94446917       0.62508519 </v>
    <v>       0.88896491       0.44448330       0.62510653 </v>
    <v>       0.05551838       0.44448330       0.12489347 </v>
    <v>       0.22216316       0.94432633       0.12488859 </v>
    <v>       0.55554814       0.94444074       0.12491002 </v>
    <v>       0.38878395       0.44454938       0.12459556 </v>
    <v>       0.88889259       0.94444074       0.12491002 </v>
    <v>       0.72240714       0.44450532       0.12483104 </v>
    <v>       0.22216316       0.61117017       0.62511141 </v>
    <v>       0.05546928       0.11103632       0.62512597 </v>
    <v>       0.55563492       0.61126984       0.62523270 </v>
    <v>       0.38882801       0.11092619       0.62516896 </v>
    <v>       0.88900701       0.61117017       0.62511141 </v>
    <v>       0.05557215       0.61114430       0.12490967 </v>
    <v>       0.72223458       0.11109875       0.62508519 </v>
    <v>       0.22209818       0.11092619       0.12483104 </v>
    <v>       0.38882801       0.61123515       0.12483104 </v>
    <v>       0.72240714       0.61123515       0.12483104 </v>
    <v>       0.55556704       0.11103632       0.12487403 </v>
    <v>       0.38882801       0.61123515       0.62516896 </v>
    <v>       0.88886417       0.11109875       0.12491481 </v>
    <v>       0.22218903       0.77776118       0.62509033 </v>
    <v>       0.05546928       0.27776630       0.62512597 </v>
    <v>       0.38878395       0.27756790       0.62540444 </v>
    <v>       0.55556704       0.77786405       0.62512597 </v>
    <v>       0.88896491       0.77781495       0.62510653 </v>
    <v>       0.72229702       0.27776630       0.62512597 </v>
    <v>       0.05557215       0.77776118       0.12490967 </v>
    <v>       0.38885004       0.77781495       0.12489347 </v>
    <v>       0.22206349       0.27769841       0.12476730 </v>
    <v>       0.72229702       0.77786405       0.12487403 </v>
    <v>       0.55563492       0.27769841       0.12476730 </v>
    <v>       0.88889259       0.27778519       0.12491002 </v>
    <v>       0.05551838       0.44448330       0.62510653 </v>
    <v>       0.22216316       0.94432633       0.62511141 </v>
    <v>       0.55554814       0.94444074       0.62508998 </v>
    <v>       0.38878395       0.44454938       0.62540444 </v>
    <v>       0.88889259       0.94444074       0.62508998 </v>
    <v>       0.05551838       0.94436842       0.12489347 </v>
    <v>       0.72240714       0.44450532       0.62516896 </v>
    <v>       0.38885004       0.94436842       0.12489347 </v>
    <v>       0.22209818       0.44450532       0.12483104 </v>
    <v>       0.22216316       0.61117017       0.12488859 </v>
    <v>       0.55576543       0.44454938       0.12459556 </v>
    <v>       0.72223458       0.94446917       0.12491481 </v>
    <v>       0.88896491       0.44448330       0.12489347 </v>
    <v>       0.05557215       0.61114430       0.62509033 </v>
    <v>       0.22209818       0.11092619       0.62516896 </v>
    <v>       0.72240714       0.61123515       0.62516896 </v>
    <v>       0.55556704       0.11103632       0.62512597 </v>
    <v>       0.88886417       0.11109875       0.62508519 </v>
   </varray>
  </structure>
  <varray name="forces" >
   <v>       0.00026234       0.00017424       0.00001126 </v>
   <v>      -0.00250600      -0.00146153      -0.00018550 </v>
   <v>       0.00051993       0.00553191      -0.00326132 </v>
   <v>       0.00329590      -0.00323219      -0.00018548 </v>
   <v>       0.29818964      -0.49467989       0.00071378 </v>
   <v>      -0.00082930       0.00299817      -0.00003173 </v>
   <v>       0.00015021      -0.00017935      -0.00126990 </v>
   <v>      -0.00312130       0.00383006       0.00018954 </v>
   <v>      -0.00449576      -0.00693162       0.00326372 </v>
   <v>       0.00287119       0.00384511       0.00018431 </v>
   <v>       0.00799110      -0.00449941       0.00255841 </v>
   <v>      -0.00224566      -0.00199535       0.00054440 </v>
   <v>      -0.00108285      -0.00280474       0.00067196 </v>
   <v>      -0.01020815      -0.00242794      -0.00255610 </v>
   <v>       0.00532503      -0.00670439      -0.00326673 </v>
   <v>      -0.00235878       0.00929534      -0.00255814 </v>
   <v>      -0.02503017       0.04217911       0.00062370 </v>
   <v>       0.00401099       0.00407318      -0.00055161 </v>
   <v>       0.00104998      -0.00270917      -0.00067614 </v>
   <v>      -0.00052878      -0.00027128      -0.00016525 </v>
   <v>      -0.00850886      -0.00025149       0.00326819 </v>
   <v>       0.00836903      -0.00039627       0.00326606 </v>
   <v>      -0.00102058       0.00311171       0.00054215 </v>
   <v>       0.00003270       0.00054852      -0.00016017 </v>
   <v>      -0.01126334       0.00217422      -0.00019185 </v>
   <v>       0.00256255      -0.00060454       0.00067380 </v>
   <v>       0.00014497       0.00402904      -0.00054458 </v>
   <v>      -0.00081673      -0.00064463       0.00706602 </v>
   <v>      -0.00320426       0.00584831       0.00016179 </v>
   <v>       0.02817817       0.01204187      -0.00021068 </v>
   <v>      -0.00601480       0.00329074      -0.00013168 </v>
   <v>      -0.00193602      -0.00429666       0.00018715 </v>
   <v>       0.00379724       0.00722120       0.00326418 </v>
   <v>       0.00193847      -0.00443065       0.00018753 </v>
   <v>       0.00209156       0.00195704      -0.00067493 </v>
   <v>      -0.02965705      -0.01567031       0.00073369 </v>
   <v>      -0.00011155       0.00024587       0.00003073 </v>
   <v>       0.00080925      -0.00476087       0.00013774 </v>
   <v>      -0.00584102       0.00670778      -0.00327104 </v>
   <v>      -0.01576094      -0.01121692       0.00017988 </v>
   <v>       0.00387006       0.00137730      -0.00054554 </v>
   <v>      -0.00410576       0.00728254       0.00326681 </v>
   <v>      -0.00486799       0.00257028      -0.00054410 </v>
   <v>      -0.00288538       0.00041213      -0.00067191 </v>
   <v>      -0.00805400      -0.00434487       0.00255825 </v>
   <v>       0.00443980      -0.00700875       0.00326468 </v>
   <v>      -0.00019457       0.00909317       0.00255692 </v>
   <v>       0.00297721       0.00043278      -0.00067925 </v>
   <v>       0.00215833      -0.00207034       0.00054531 </v>
   <v>       0.02952667       0.01486245       0.00120926 </v>
   <v>      -0.00371654       0.00327306      -0.00018888 </v>
   <v>      -0.00505783      -0.00595173      -0.00326507 </v>
   <v>      -0.00343596       0.00533789      -0.00017595 </v>
   <v>       0.01106905      -0.00251643      -0.00255662 </v>
   <v>      -0.00554985       0.00411599      -0.00054201 </v>
   <v>      -0.00499713       0.00067251       0.00019038 </v>
   <v>      -0.00088023      -0.00278062      -0.00067621 </v>
   <v>       0.00072127       0.00305461       0.00054413 </v>
   <v>      -0.00009977      -0.00002958      -0.00705642 </v>
   <v>       0.00044696      -0.00014477      -0.00016684 </v>
   <v>       0.00292497       0.00346452       0.00067536 </v>
   <v>       0.00501189       0.00051499       0.00018854 </v>
   <v>       0.00022705      -0.00005806       0.00016636 </v>
   <v>      -0.01053622       0.00003795      -0.00327238 </v>
   <v>      -0.00967449       0.00141712       0.00013203 </v>
   <v>       0.01019145      -0.00355773      -0.00326643 </v>
   <v>      -0.00306592       0.00511860      -0.00054318 </v>
   <v>      -0.02151094       0.04476870       0.00021636 </v>
   <v>      -0.00189030       0.00203236      -0.00067089 </v>
   <v>       0.00004147      -0.00664724      -0.00013670 </v>
   <v>       0.00592712       0.00315675      -0.00013960 </v>
   <v>       0.00298027      -0.00058014       0.00054508 </v>
   <v>      -0.00312555      -0.00045864       0.00054424 </v>
   <v>      -0.00176524      -0.01138021      -0.00000047 </v>
   <v>      -0.00044702       0.02505072       0.00010450 </v>
   <v>      -0.04169405      -0.04703126       0.00002611 </v>
   <v>       0.01712094       0.00861792       0.00119882 </v>
   <v>       0.00151078      -0.00013248      -0.00023603 </v>
   <v>       0.00230433      -0.00093880      -0.00088428 </v>
   <v>      -0.00192340      -0.00031274       0.00000224 </v>
   <v>      -0.00312842      -0.00133497       0.00007699 </v>
   <v>      -0.00012583       0.00227955      -0.00023936 </v>
   <v>       0.00321295      -0.00176134       0.00009187 </v>
   <v>       0.00002459      -0.00012750       0.00075512 </v>
   <v>      -0.00081879      -0.00120532       0.00024076 </v>
   <v>      -0.01166353       0.00519205      -0.00033553 </v>
   <v>      -0.00005641      -0.31772239      -0.00001104 </v>
   <v>      -0.01002227       0.00735070       0.00003572 </v>
   <v>       0.02262877      -0.00667909       0.00076662 </v>
   <v>       0.01164945       0.00504106      -0.00051009 </v>
   <v>       0.00110538      -0.00101467      -0.00033914 </v>
   <v>      -0.00071873      -0.00150409      -0.00006058 </v>
   <v>      -0.00400147       0.00136240       0.00024526 </v>
   <v>       0.00196878       0.00069444      -0.00009224 </v>
   <v>      -0.00030963       0.00189500      -0.00000103 </v>
   <v>       0.00173027       0.00101657       0.00126504 </v>
   <v>      -0.00587269       0.02272555      -0.00088118 </v>
   <v>       0.00042645      -0.01906357       0.00023900 </v>
   <v>      -0.00484921      -0.00246140      -0.00003494 </v>
   <v>      -0.27529512       0.15851586      -0.00003818 </v>
   <v>       0.00447846      -0.00215541       0.00016508 </v>
   <v>       0.02064742       0.05885994       0.00000253 </v>
   <v>      -0.00246622       0.00076892       0.00024869 </v>
   <v>      -0.00187711      -0.00075308      -0.00000102 </v>
   <v>      -0.00045294       0.00297140      -0.00010102 </v>
   <v>       0.00073813      -0.00353632      -0.00002609 </v>
   <v>       0.00281828       0.00030506      -0.00126353 </v>
   <v>       0.00089657       0.00022277      -0.00001616 </v>
   <v>       0.00125809       0.00000747       0.00023574 </v>
   <v>       0.04183603      -0.04662923       0.00006537 </v>
   <v>      -0.06183675      -0.01285860      -0.00006110 </v>
   <v>       0.06127074      -0.01309839       0.00051045 </v>
   <v>       0.00173273      -0.01167476      -0.00010077 </v>
   <v>      -0.00343502       0.00196845       0.00006314 </v>
   <v>      -0.00179802      -0.00008270      -0.00016159 </v>
   <v>      -0.00097116      -0.00124509      -0.00024108 </v>
   <v>      -0.00251134      -0.00019599       0.00033644 </v>
   <v>       0.00000632      -0.00230553       0.00000036 </v>
   <v>      -0.00079326       0.00212449      -0.00003317 </v>
   <v>       0.00163826       0.00007891      -0.00076400 </v>
   <v>       0.00259157      -0.00044670       0.00050733 </v>
   <v>       0.00219681      -0.00087055       0.00088288 </v>
   <v>      -0.02287742      -0.00699953      -0.00000279 </v>
   <v>      -0.02227254      -0.01239425      -0.00007868 </v>
   <v>       0.00914121       0.00748785       0.00024072 </v>
   <v>       0.02225277      -0.01275129      -0.00008799 </v>
   <v>      -0.00002202       0.00617362      -0.00075814 </v>
   <v>      -0.00118774       0.00122220       0.00088612 </v>
   <v>       0.00047094      -0.00250521      -0.00024422 </v>
   <v>       0.00062121       0.00063911       0.00003364 </v>
   <v>      -0.00238829       0.00101345       0.00002720 </v>
   <v>      -0.00097804       0.00099469      -0.00016411 </v>
   <v>       0.01745141      -0.01581064       0.00033357 </v>
   <v>       0.00420378       0.00034796      -0.00000045 </v>
   <v>      -0.01712959      -0.01635599       0.00006015 </v>
   <v>      -0.02035735       0.05937770      -0.00023419 </v>
   <v>      -0.01667488       0.00898114      -0.00024938 </v>
   <v>       0.27521080       0.15841628       0.00005967 </v>
   <v>      -0.00030812       0.00224899       0.00000159 </v>
   <v>       0.00639775       0.02267436      -0.00121158 </v>
   <v>       0.00084724       0.00037994       0.00001668 </v>
   <v>      -0.00037977      -0.00332208      -0.00007745 </v>
   <v>       0.00269837       0.00180460      -0.00051364 </v>
   <v>       0.00194287      -0.00112382       0.00010069 </v>
   <v>      -0.00148731       0.00009259       0.00016050 </v>
   <v>      -0.01384788       0.02815445      -0.00013044 </v>
   <v>      -0.06762974      -0.00270846      -0.00023487 </v>
   <v>       0.01359879       0.02880246      -0.00000332 </v>
   <v>      -0.00932263      -0.00258269       0.00001311 </v>
   <v>       0.00013566      -0.00065687       0.00013570 </v>
   <v>      -0.00106723       0.00112044       0.00059736 </v>
   <v>       0.00145184      -0.00254470      -0.00001223 </v>
   <v>       0.00105389       0.00192420       0.00000048 </v>
   <v>      -0.00061979      -0.00276522       0.00048824 </v>
   <v>      -0.00407593       0.00160387      -0.00020680 </v>
   <v>       0.00235878      -0.00041502      -0.00040482 </v>
   <v>       0.00778990      -0.00351826       0.00000332 </v>
   <v>       0.03115496       0.01696643       0.00012756 </v>
   <v>       0.03089544       0.06046910       0.00001164 </v>
   <v>       0.00054231      -0.03513723      -0.00012752 </v>
   <v>      -0.00835117      -0.00420970      -0.00139832 </v>
   <v>      -0.00749718       0.00138331       0.00050708 </v>
   <v>      -0.00006524       0.00132714       0.00045362 </v>
   <v>      -0.00020882       0.00014295       0.00001042 </v>
   <v>       0.00298766      -0.00059897      -0.00010852 </v>
   <v>      -0.00272683      -0.00009160       0.00000072 </v>
   <v>      -0.00019216      -0.00228164       0.00013259 </v>
   <v>      -0.00007265      -0.00010774      -0.00130555 </v>
   <v>       0.01884506      -0.02681764       0.00048436 </v>
   <v>      -0.00016251       0.00932821      -0.00020681 </v>
   <v>       0.00184012      -0.00725158       0.00000011 </v>
   <v>      -0.01196849       0.00629369      -0.00042992 </v>
   <v>      -0.01960375      -0.02635998       0.00075610 </v>
   <v>       0.00323697      -0.00125477      -0.00019712 </v>
   <v>       0.00201170       0.00175408       0.00012125 </v>
   <v>      -0.00104200      -0.00135740       0.00020557 </v>
   <v>      -0.00227642       0.00232462       0.00000327 </v>
   <v>      -0.00330861       0.00164309      -0.00001382 </v>
   <v>       0.00739799      -0.00358642       0.00064333 </v>
   <v>       0.00014439      -0.00066338      -0.00012952 </v>
   <v>      -0.00018934       0.02758765      -0.00012173 </v>
   <v>       0.06881680      -0.00310025       0.00000310 </v>
   <v>      -0.02401777      -0.01267324      -0.00078021 </v>
   <v>      -0.00566001       0.00464334       0.00012437 </v>
   <v>       0.00209301      -0.00165532      -0.00000288 </v>
   <v>       0.00566340       0.00421537      -0.00000171 </v>
   <v>       0.00114448      -0.00036987      -0.00000393 </v>
   <v>       0.00382785       0.00122541      -0.00011820 </v>
   <v>      -0.00108948       0.00214388      -0.00000912 </v>
   <v>       0.00051995      -0.00362327       0.00011878 </v>
   <v>      -0.00171731      -0.00109659       0.00131596 </v>
   <v>      -0.00237509      -0.00029060      -0.00048388 </v>
   <v>      -0.00105892       0.00111734      -0.00062551 </v>
   <v>       0.03226329      -0.00210956       0.00001327 </v>
   <v>      -0.03100943       0.06026667      -0.00000206 </v>
   <v>      -0.03143172      -0.00222149      -0.00052271 </v>
   <v>      -0.03144240       0.01738185       0.00022076 </v>
   <v>       0.00746994       0.00125408       0.00042258 </v>
   <v>       0.00381761       0.00009201      -0.00045147 </v>
   <v>      -0.00077891       0.00200925       0.00019510 </v>
   <v>       0.00073307      -0.00199464       0.00000055 </v>
   <v>       0.00028735       0.00008067       0.00000871 </v>
   <v>       0.00021174      -0.00073685       0.00041085 </v>
   <v>      -0.00065823       0.00863140      -0.00048035 </v>
   <v>      -0.00462476       0.00064440      -0.00069271 </v>
   <v>       0.01198382       0.00719162      -0.00001128 </v>
   <v>       0.03760025      -0.05762069       0.00012420 </v>
   <v>       0.02465117      -0.01364000       0.00021658 </v>
   <v>      -0.03725031      -0.05694643       0.00000673 </v>
   <v>      -0.00130595      -0.00752241      -0.00013835 </v>
   <v>      -0.00010191      -0.01418367       0.00137598 </v>
   <v>       0.00135744       0.00060450      -0.00061081 </v>
   <v>      -0.00020257       0.00292624       0.00011008 </v>
   <v>      -0.00266361      -0.00028550       0.00069836 </v>
   <v>      -0.00165093       0.00105234      -0.00011820 </v>
   <v>       0.00167473       0.00063213       0.00000216 </v>
   <v>       0.00407188       0.00440588      -0.00041670 </v>
   <v>       0.00196038      -0.00986887       0.00687542 </v>
   <v>      -0.00337729       0.01169066       0.00140849 </v>
   <v>      -0.17133159       0.13628665      -0.00125496 </v>
   <v>      -0.00105004      -0.00381738      -0.00147897 </v>
   <v>      -0.00235949       0.00129225       0.00211418 </v>
   <v>       0.00510480      -0.00215972       0.00167040 </v>
   <v>       0.00878250       0.00486622      -0.00686662 </v>
   <v>      -0.00419439      -0.00584894       0.00041993 </v>
   <v>      -0.00870968       0.00504323      -0.00686700 </v>
   <v>       0.00007560      -0.00179477       0.00168333 </v>
   <v>      -0.00525213       0.00277930      -0.00208999 </v>
   <v>       0.01038073      -0.00341256      -0.00043734 </v>
   <v>      -0.00016428      -0.00505173       0.01339825 </v>
   <v>       0.00589769      -0.00657886      -0.00041425 </v>
   <v>       0.00856240      -0.00579217      -0.00163039 </v>
   <v>      -0.00855986      -0.00853538      -0.00044120 </v>
   <v>      -0.00064139       0.00519717       0.00167654 </v>
   <v>       0.00058343       0.00530657       0.00167229 </v>
   <v>       0.01215137      -0.00430615      -0.00141597 </v>
   <v>       0.00469117       0.00286366      -0.01339182 </v>
   <v>       0.00020359      -0.00171239       0.00147000 </v>
   <v>      -0.00450177      -0.00299539       0.00166164 </v>
   <v>       0.01758933       0.00071429      -0.00174271 </v>
   <v>      -0.00282441       0.00519698      -0.00106319 </v>
   <v>       0.00157615      -0.00080449      -0.00169043 </v>
   <v>      -0.00331146       0.00335871       0.01340495 </v>
   <v>       0.00150102      -0.00186573      -0.00168139 </v>
   <v>      -0.02201935       0.01320440       0.00141771 </v>
   <v>       0.00674607      -0.00368439       0.00107322 </v>
   <v>       0.00291561       0.00641664       0.00041758 </v>
   <v>       0.00020875      -0.00987278      -0.00686099 </v>
   <v>      -0.00226779       0.01238415      -0.00140651 </v>
   <v>      -0.00682056      -0.00354018       0.00108868 </v>
   <v>      -0.04010599       0.06574457      -0.00211206 </v>
   <v>      -0.00117428       0.00045279       0.00146759 </v>
   <v>       0.00198755       0.01105835       0.00141192 </v>
   <v>       0.01162595      -0.00690376       0.00140550 </v>
   <v>      -0.00240649      -0.01068063       0.00144194 </v>
   <v>      -0.00369493       0.00504501      -0.00042375 </v>
   <v>       0.00995133      -0.00807427      -0.00141141 </v>
   <v>       0.00214578      -0.00318051      -0.00147699 </v>
   <v>       0.00206914       0.00130884       0.00210903 </v>
   <v>       0.00739540      -0.00112036       0.00041192 </v>
   <v>       0.00003025      -0.00537973      -0.01339804 </v>
   <v>       0.00463996      -0.00582794       0.00041663 </v>
   <v>      -0.00496889      -0.00220255       0.00167937 </v>
   <v>      -0.00728986      -0.00094871       0.00041142 </v>
   <v>      -0.01253687      -0.00805900      -0.00203711 </v>
   <v>       0.00524488      -0.00233670      -0.00167012 </v>
   <v>       0.00995790       0.00441702       0.00685782 </v>
   <v>      -0.00051442      -0.00810825      -0.00040440 </v>
   <v>      -0.01097540       0.00623145       0.00685762 </v>
   <v>      -0.00354938      -0.01520129      -0.00172363 </v>
   <v>       0.00448008      -0.00313704       0.00166272 </v>
   <v>      -0.00013142       0.00753955       0.00108144 </v>
   <v>       0.00153316       0.00064498       0.00168858 </v>
   <v>      -0.00446447       0.00274742      -0.01340530 </v>
   <v>      -0.00126144       0.00054769       0.00169182 </v>
   <v>      -0.00018359       0.00144424      -0.00165270 </v>
   <v>      -0.01206623      -0.00403677      -0.00140801 </v>
   <v>      -0.00125426       0.00445434      -0.00166816 </v>
   <v>       0.01553261      -0.00317749       0.00138980 </v>
   <v>       0.00926813       0.00346663      -0.00109767 </v>
   <v>       0.00480132       0.00541816       0.01341509 </v>
   <v>       0.00147163      -0.00388297      -0.00147007 </v>
   <v>      -0.04453224       0.19646810      -0.00151628 </v>
   <v>      -0.00013174      -0.00225213       0.00210758 </v>
   <v>       0.00219716       0.01230719      -0.00140406 </v>
   <v>      -0.00966030      -0.00796239      -0.00139684 </v>
   <v>      -0.00281867       0.00656261       0.00041623 </v>
   <v>       0.00143074       0.00039037       0.00146785 </v>
  </varray>
  <varray name="stress" >
   <v>      97.01299076      -0.10329004       0.00042674 </v>
   <v>      -0.10329005      96.79321685      -0.00054767 </v>
   <v>       0.00042674      -0.00054767      -3.46997577 </v>
  </varray>
  <energy>
   <i name="e_fr_energy">  -2554.40001032 </i>
   <i name="e_wo_entrp">  -2554.40001032 </i>
   <i name="e_0_energy">  -2554.40001032 </i>
  </energy>
  <time name="totalsc">  171.71  171.62</time>
  <eigenvalues>
   <array>
    <dimension dim="1">band</dimension>
    <dimension dim="2">kpoint</dimension>
    <dimension dim="3">spin</dimension>
    <field>eigene</field>
    <field>occ</field>
    <set>
     <set comment="spin 1">
      <set comment="kpoint 1">
       <r>  -17.2938    1.0000 </r>
       <r>  -15.7201    1.0000 </r>
       <r>  -15.7199    1.0000 </r>
       <r>  -15.5764    1.0000 </r>
       <r>  -15.3639    1.0000 </r>
       <r>  -15.3445    1.0000 </r>
       <r>  -15.1596    1.0000 </r>
       <r>  -15.1590    1.0000 </r>
       <r>  -15.1528    1.0000 </r>
       <r>  -15.0728    1.0000 </r>
       <r>  -14.8868    1.0000 </r>
       <r>  -14.8765    1.0000 </r>
       <r>  -14.8754    1.0000 </r>
       <r>  -14.8462    1.0000 </r>
       <r>  -14.8199    1.0000 </r>
       <r>  -14.8185    1.0000 </r>
       <r>  -14.8182    1.0000 </r>
       <r>  -14.8170    1.0000 </r>
       <r>  -14.8008    1.0000 </r>
       <r>  -14.7883    1.0000 </r>
       <r>  -14.7867    1.0000 </r>
       <r>  -14.7747    1.0000 </r>
       <r>  -14.7408    1.0000 </r>
       <r>  -14.7403    1.0000 </r>
       <r>  -14.6482    1.0000 </r>
       <r>  -14.6268    1.0000 </r>
       <r>  -14.6260    1.0000 </r>
       <r>  -14.6145    1.0000 </r>
       <r>  -14.6136    1.0000 </r>
       <r>  -14.6063    1.0000 </r>
       <r>  -14.5582    1.0000 </r>
       <r>  -14.2540    1.0000 </r>
       <r>  -14.2538    1.0000 </r>
       <r>  -14.2429    1.0000 </r>
       <r>  -13.9205    1.0000 </r>
       <r>  -13.9202    1.0000 </r>
       <r>  -13.8665    1.0000 </r>
       <r>  -13.8305    1.0000 </r>
       <r>  -13.8301    1.0000 </r>
       <r>  -13.8294    1.0000 </r>
       <r>  -13.8241    1.0000 </r>
       <r>  -13.8135    1.0000 </r>
       <r>  -13.8121    1.0000 </r>
       <r>  -13.8119    1.0000 </r>
       <r>  -13.8067    1.0000 </r>
       <r>  -13.8063    1.0000 </r>
       <r>  -13.8015    1.0000 </r>
       <r>  -13.8011    1.0000 </r>
       <r>  -13.7995    1.0000 </r>
       <r>  -13.7628    1.0000 </r>
       <r>  -13.7566    1.0000 </r>
       <r>  -13.7565    1.0000 </r>
       <r>  -13.6370    1.0000 </r>
       <r>  -13.6350    1.0000 </r>
       <r>  -13.6350    1.0000 </r>
       <r>  -13.6336    1.0000 </r>
       <r>  -13.6334    1.0000 </r>
       <r>  -13.6330    1.0000 </r>
       <r>  -13.3990    1.0000 </r>
       <r>  -13.3978    1.0000 </r>
       <r>  -13.3890    1.0000 </r>
       <r>  -13.3830    1.0000 </r>
       <r>  -13.3824    1.0000 </r>
       <r>  -13.3820    1.0000 </r>
       <r>  -13.3689    1.0000 </r>
       <r>  -13.3641    1.0000 </r>
       <r>  -13.3637    1.0000 </r>
       <r>  -13.3630    1.0000 </r>
       <r>  -13.3614    1.0000 </r>
       <r>  -13.3601    1.0000 </r>
       <r>  -13.2775    1.0000 </r>
       <r>  -13.2773    1.0000 </r>
       <r>  -13.2039    1.0000 </r>
       <r>  -13.2021    1.0000 </r>
       <r>  -13.2020    1.0000 </r>
       <r>  -13.2016    1.0000 </r>
       <r>  -13.1999    1.0000 </r>
       <r>  -13.1995    1.0000 </r>
       <r>  -12.8946    1.0000 </r>
       <r>  -12.8582    1.0000 </r>
       <r>  -12.8581    1.0000 </r>
       <r>  -12.7736    1.0000 </r>
       <r>  -12.6756    1.0000 </r>
       <r>  -12.5899    1.0000 </r>
       <r>  -12.5898    1.0000 </r>
       <r>  -12.5888    1.0000 </r>
       <r>  -12.5332    1.0000 </r>
       <r>  -12.5329    1.0000 </r>
       <r>  -12.4974    1.0000 </r>
       <r>  -12.4973    1.0000 </r>
       <r>  -12.4682    1.0000 </r>
       <r>  -12.3461    1.0000 </r>
       <r>  -12.3415    1.0000 </r>
       <r>  -12.3267    1.0000 </r>
       <r>  -12.3202    1.0000 </r>
       <r>  -12.3165    1.0000 </r>
       <r>  -12.3153    1.0000 </r>
       <r>  -12.3095    1.0000 </r>
       <r>  -12.3082    1.0000 </r>
       <r>  -12.3080    1.0000 </r>
       <r>  -12.3070    1.0000 </r>
       <r>  -12.3000    1.0000 </r>
       <r>  -12.2985    1.0000 </r>
       <r>  -12.2875    1.0000 </r>
       <r>  -12.2855    1.0000 </r>
       <r>  -12.2827    1.0000 </r>
       <r>  -12.2810    1.0000 </r>
       <r>  -12.2767    1.0000 </r>
       <r>  -12.2751    1.0000 </r>
       <r>  -12.2744    1.0000 </r>
       <r>  -12.2725    1.0000 </r>
       <r>  -12.2712    1.0000 </r>
       <r>  -12.2699    1.0000 </r>
       <r>  -12.2610    1.0000 </r>
       <r>  -12.2597    1.0000 </r>
       <r>  -12.1913    1.0000 </r>
       <r>  -12.1906    1.0000 </r>
       <r>  -12.1902    1.0000 </r>
       <r>  -12.1860    1.0000 </r>
       <r>  -12.1854    1.0000 </r>
       <r>  -12.1849    1.0000 </r>
       <r>  -12.1581    1.0000 </r>
       <r>  -12.1580    1.0000 </r>
       <r>  -12.1539    1.0000 </r>
       <r>  -12.1536    1.0000 </r>
       <r>  -12.1514    1.0000 </r>
       <r>  -12.1513    1.0000 </r>
       <r>  -12.1438    1.0000 </r>
       <r>  -12.1436    1.0000 </r>
       <r>  -12.1421    1.0000 </r>
       <r>  -12.1414    1.0000 </r>
       <r>  -12.1391    1.0000 </r>
       <r>  -12.1390    1.0000 </r>
       <r>  -12.0617    1.0000 </r>
       <r>  -12.0617    1.0000 </r>
       <r>  -12.0616    1.0000 </r>
       <r>  -11.9615    1.0000 </r>
       <r>  -11.9615    1.0000 </r>
       <r>  -11.5946    1.0000 </r>
       <r>  -11.5942    1.0000 </r>
       <r>  -11.5940    1.0000 </r>
       <r>  -11.5936    1.0000 </r>
       <r>  -11.4688    1.0000 </r>
       <r>  -11.4687    1.0000 </r>
       <r>   -8.3732    1.0000 </r>
       <r>   -7.3289    1.0000 </r>
       <r>   -7.3289    1.0000 </r>
       <r>   -6.6088    1.0000 </r>
       <r>   -6.6087    1.0000 </r>
       <r>   -6.5432    1.0000 </r>
       <r>   -6.5255    1.0000 </r>
       <r>   -6.5251    1.0000 </r>
       <r>   -6.5241    1.0000 </r>
       <r>   -6.5216    1.0000 </r>
       <r>   -6.5211    1.0000 </r>
       <r>   -6.5107    1.0000 </r>
       <r>   -6.4867    1.0000 </r>
       <r>   -6.3898    1.0000 </r>
       <r>   -6.3898    1.0000 </r>
       <r>   -6.3897    1.0000 </r>
       <r>   -6.3162    1.0000 </r>
       <r>   -6.3160    1.0000 </r>
       <r>   -6.0962    1.0000 </r>
       <r>   -6.0962    1.0000 </r>
       <r>   -6.0294    1.0000 </r>
       <r>   -6.0290    1.0000 </r>
       <r>   -6.0064    1.0000 </r>
       <r>   -5.9874    1.0000 </r>
       <r>   -5.9070    1.0000 </r>
       <r>   -5.9070    1.0000 </r>
       <r>   -5.7147    1.0000 </r>
       <r>   -5.7143    1.0000 </r>
       <r>   -5.7130    1.0000 </r>
       <r>   -5.7120    1.0000 </r>
       <r>   -5.7066    1.0000 </r>
       <r>   -5.7056    1.0000 </r>
       <r>   -5.7046    1.0000 </r>
       <r>   -5.7038    1.0000 </r>
       <r>   -5.6924    1.0000 </r>
       <r>   -5.6906    1.0000 </r>
       <r>   -5.6866    1.0000 </r>
       <r>   -5.6859    1.0000 </r>
       <r>   -5.6824    1.0000 </r>
       <r>   -5.6819    1.0000 </r>
       <r>   -5.6810    1.0000 </r>
       <r>   -5.6798    1.0000 </r>
       <r>   -5.6694    1.0000 </r>
       <r>   -5.6687    1.0000 </r>
       <r>   -5.6686    1.0000 </r>
       <r>   -5.6679    1.0000 </r>
       <r>   -5.6667    1.0000 </r>
       <r>   -5.6667    1.0000 </r>
       <r>   -5.6664    1.0000 </r>
       <r>   -5.6645    1.0000 </r>
       <r>   -5.5748    1.0000 </r>
       <r>   -5.5746    1.0000 </r>
       <r>   -5.5618    1.0000 </r>
       <r>   -5.5615    1.0000 </r>
       <r>   -5.5588    1.0000 </r>
       <r>   -5.5582    1.0000 </r>
       <r>   -5.5580    1.0000 </r>
       <r>   -5.5576    1.0000 </r>
       <r>   -5.5538    1.0000 </r>
       <r>   -5.5538    1.0000 </r>
       <r>   -5.5505    1.0000 </r>
       <r>   -5.5504    1.0000 </r>
       <r>   -5.5470    1.0000 </r>
       <r>   -5.5469    1.0000 </r>
       <r>   -5.5469    1.0000 </r>
       <r>   -5.5467    1.0000 </r>
       <r>   -5.4177    1.0000 </r>
       <r>   -5.4177    1.0000 </r>
       <r>   -5.3695    1.0000 </r>
       <r>   -5.2477    1.0000 </r>
       <r>   -5.1470    1.0000 </r>
       <r>   -5.1469    1.0000 </r>
       <r>   -4.9933    1.0000 </r>
       <r>   -4.9234    1.0000 </r>
       <r>   -4.9233    1.0000 </r>
       <r>   -4.8738    1.0000 </r>
       <r>   -4.7503    1.0000 </r>
       <r>   -4.7483    1.0000 </r>
       <r>   -4.7435    1.0000 </r>
       <r>   -4.7415    1.0000 </r>
       <r>   -4.6191    1.0000 </r>
       <r>   -4.6191    1.0000 </r>
       <r>   -4.4796    1.0000 </r>
       <r>   -4.4772    1.0000 </r>
       <r>   -4.4770    1.0000 </r>
       <r>   -4.4754    1.0000 </r>
       <r>   -4.4749    1.0000 </r>
       <r>   -4.4740    1.0000 </r>
       <r>   -4.4735    1.0000 </r>
       <r>   -4.4729    1.0000 </r>
       <r>   -4.4723    1.0000 </r>
       <r>   -4.4718    1.0000 </r>
       <r>   -4.4712    1.0000 </r>
       <r>   -4.4688    1.0000 </r>
       <r>   -4.3391    1.0000 </r>
       <r>   -4.3388    1.0000 </r>
       <r>   -4.3388    1.0000 </r>
       <r>   -4.3388    1.0000 </r>
       <r>   -4.3387    1.0000 </r>
       <r>   -4.3384    1.0000 </r>
       <r>   -4.3370    1.0000 </r>
       <r>   -4.0489    1.0000 </r>
       <r>   -3.9419    1.0000 </r>
       <r>   -3.9417    1.0000 </r>
       <r>   -3.6909    1.0000 </r>
       <r>   -3.6297    1.0000 </r>
       <r>   -3.6297    1.0000 </r>
       <r>   -3.6141    1.0000 </r>
       <r>   -3.5983    1.0000 </r>
       <r>   -3.5189    1.0000 </r>
       <r>   -3.5187    1.0000 </r>
       <r>   -3.3591    1.0000 </r>
       <r>   -3.3415    1.0000 </r>
       <r>   -3.3408    1.0000 </r>
       <r>   -3.3201    1.0000 </r>
       <r>   -3.3199    1.0000 </r>
       <r>   -3.3059    1.0000 </r>
       <r>   -3.3056    1.0000 </r>
       <r>   -3.2206    1.0000 </r>
       <r>   -3.1823    1.0000 </r>
       <r>   -3.1735    1.0000 </r>
       <r>   -3.1735    1.0000 </r>
       <r>   -3.1719    1.0000 </r>
       <r>   -3.1708    1.0000 </r>
       <r>   -3.1333    1.0000 </r>
       <r>   -3.1044    1.0000 </r>
       <r>   -3.1023    1.0000 </r>
       <r>   -3.1020    1.0000 </r>
       <r>   -3.1012    1.0000 </r>
       <r>   -3.1009    1.0000 </r>
       <r>   -3.0997    1.0000 </r>
       <r>   -3.0934    1.0000 </r>
       <r>   -3.0923    1.0000 </r>
       <r>   -3.0921    1.0000 </r>
       <r>   -3.0912    1.0000 </r>
       <r>   -3.0910    1.0000 </r>
       <r>   -3.0886    1.0000 </r>
       <r>   -3.0524    1.0000 </r>
       <r>   -2.9688    1.0000 </r>
       <r>   -2.9686    1.0000 </r>
       <r>   -2.9686    1.0000 </r>
       <r>   -2.9685    1.0000 </r>
       <r>   -2.9685    1.0000 </r>
       <r>   -2.9684    1.0000 </r>
       <r>   -2.9630    1.0000 </r>
       <r>   -2.9274    1.0000 </r>
       <r>   -2.9242    1.0000 </r>
       <r>   -2.9241    1.0000 </r>
       <r>   -2.9235    1.0000 </r>
       <r>   -2.9169    1.0000 </r>
       <r>   -2.9163    1.0000 </r>
       <r>   -2.9161    1.0000 </r>
       <r>   -2.9148    1.0000 </r>
       <r>   -2.9074    1.0000 </r>
       <r>   -2.9060    1.0000 </r>
       <r>   -2.9007    1.0000 </r>
       <r>   -2.8996    1.0000 </r>
       <r>   -2.8919    1.0000 </r>
       <r>   -2.8909    1.0000 </r>
       <r>   -2.8893    1.0000 </r>
       <r>   -2.8883    1.0000 </r>
       <r>   -2.8817    1.0000 </r>
       <r>   -2.8791    1.0000 </r>
       <r>   -2.8790    1.0000 </r>
       <r>   -2.8784    1.0000 </r>
       <r>   -2.8768    1.0000 </r>
       <r>   -2.8767    1.0000 </r>
       <r>   -2.8762    1.0000 </r>
       <r>   -2.8711    1.0000 </r>
       <r>   -2.7721    1.0000 </r>
       <r>   -2.7719    1.0000 </r>
       <r>   -2.7718    1.0000 </r>
       <r>   -2.7707    1.0000 </r>
       <r>   -2.7675    1.0000 </r>
       <r>   -2.7674    1.0000 </r>
       <r>   -2.7625    1.0000 </r>
       <r>   -2.7623    1.0000 </r>
       <r>   -2.7595    1.0000 </r>
       <r>   -2.7593    1.0000 </r>
       <r>   -2.7586    1.0000 </r>
       <r>   -2.7585    1.0000 </r>
       <r>   -2.6294    1.0000 </r>
       <r>   -2.4844    1.0000 </r>
       <r>   -2.4838    1.0000 </r>
       <r>   -2.3149    1.0000 </r>
       <r>   -2.3099    1.0000 </r>
       <r>   -2.3091    1.0000 </r>
       <r>   -2.2830    1.0000 </r>
       <r>   -2.2821    1.0000 </r>
       <r>   -2.2679    1.0000 </r>
       <r>   -2.2329    1.0000 </r>
       <r>   -2.2325    1.0000 </r>
       <r>   -2.2229    1.0000 </r>
       <r>   -2.2220    1.0000 </r>
       <r>   -2.2171    1.0000 </r>
       <r>   -2.2108    1.0000 </r>
       <r>   -2.0978    1.0000 </r>
       <r>   -2.0904    1.0000 </r>
       <r>   -2.0902    1.0000 </r>
       <r>   -1.9559    1.0000 </r>
       <r>   -1.9487    1.0000 </r>
       <r>   -1.9487    1.0000 </r>
       <r>   -1.9430    1.0000 </r>
       <r>   -1.9427    1.0000 </r>
       <r>   -1.8992    1.0000 </r>
       <r>   -1.8466    1.0000 </r>
       <r>   -1.7846    1.0000 </r>
       <r>   -1.7844    1.0000 </r>
       <r>   -1.7827    1.0000 </r>
       <r>   -1.7152    1.0000 </r>
       <r>   -1.7134    1.0000 </r>
       <r>   -1.7127    1.0000 </r>
       <r>   -1.7119    1.0000 </r>
       <r>   -1.7112    1.0000 </r>
       <r>   -1.7097    1.0000 </r>
       <r>   -1.5807    1.0000 </r>
       <r>   -1.5807    1.0000 </r>
       <r>   -1.5806    1.0000 </r>
       <r>   -1.5481    1.0000 </r>
       <r>   -1.5454    1.0000 </r>
       <r>   -1.5454    1.0000 </r>
       <r>   -1.5228    1.0000 </r>
       <r>   -1.5227    1.0000 </r>
       <r>   -1.5048    1.0000 </r>
       <r>   -1.5018    1.0000 </r>
       <r>   -1.5007    1.0000 </r>
       <r>   -1.4999    1.0000 </r>
       <r>   -1.4996    1.0000 </r>
       <r>   -1.4985    1.0000 </r>
       <r>   -1.4968    1.0000 </r>
       <r>   -1.4963    1.0000 </r>
       <r>   -1.4956    1.0000 </r>
       <r>   -1.4927    1.0000 </r>
       <r>   -1.4925    1.0000 </r>
       <r>   -1.4891    1.0000 </r>
       <r>   -1.4866    1.0000 </r>
       <r>   -1.4858    1.0000 </r>
       <r>   -1.4778    1.0000 </r>
       <r>   -1.3674    1.0000 </r>
       <r>   -1.3674    1.0000 </r>
       <r>   -1.3673    1.0000 </r>
       <r>   -1.3673    1.0000 </r>
       <r>   -1.3672    1.0000 </r>
       <r>   -1.3671    1.0000 </r>
       <r>   -1.3571    1.0000 </r>
       <r>   -1.3563    1.0000 </r>
       <r>   -1.3559    1.0000 </r>
       <r>   -1.2580    1.0000 </r>
       <r>   -1.2411    1.0000 </r>
       <r>   -1.2408    1.0000 </r>
       <r>   -1.1922    1.0000 </r>
       <r>   -1.1833    1.0000 </r>
       <r>   -1.1828    1.0000 </r>
       <r>   -1.1546    1.0000 </r>
       <r>   -1.1532    1.0000 </r>
       <r>   -1.1529    1.0000 </r>
       <r>   -1.1512    1.0000 </r>
       <r>   -1.1505    1.0000 </r>
       <r>   -1.1502    1.0000 </r>
       <r>   -1.1493    1.0000 </r>
       <r>   -1.1490    1.0000 </r>
       <r>   -1.1489    1.0000 </r>
       <r>   -1.1485    1.0000 </r>
       <r>   -1.1476    1.0000 </r>
       <r>   -1.1474    1.0000 </r>
       <r>   -1.1468    1.0000 </r>
       <r>   -1.1435    1.0000 </r>
       <r>   -1.1366    1.0000 </r>
       <r>   -1.1288    1.0000 </r>
       <r>   -1.1187    1.0000 </r>
       <r>   -1.1179    1.0000 </r>
       <r>   -1.1054    1.0000 </r>
       <r>   -1.0195    1.0000 </r>
       <r>   -1.0195    1.0000 </r>
       <r>   -1.0193    1.0000 </r>
       <r>   -1.0192    1.0000 </r>
       <r>   -1.0190    1.0000 </r>
       <r>   -1.0189    1.0000 </r>
       <r>   -0.9661    1.0000 </r>
       <r>   -0.9659    1.0000 </r>
       <r>   -0.9610    1.0000 </r>
       <r>   -0.9499    1.0000 </r>
       <r>   -0.9355    1.0000 </r>
       <r>   -0.9354    1.0000 </r>
       <r>   -0.8729    1.0000 </r>
       <r>   -0.8710    1.0000 </r>
       <r>   -0.8686    1.0000 </r>
       <r>   -0.8641    1.0000 </r>
       <r>   -0.8537    1.0000 </r>
       <r>   -0.8519    1.0000 </r>
       <r>   -0.8513    1.0000 </r>
       <r>   -0.8504    1.0000 </r>
       <r>   -0.8496    1.0000 </r>
       <r>   -0.8493    1.0000 </r>
       <r>   -0.8480    1.0000 </r>
       <r>   -0.8440    1.0000 </r>
       <r>   -0.8437    1.0000 </r>
       <r>   -0.8417    1.0000 </r>
       <r>   -0.8408    1.0000 </r>
       <r>   -0.8334    1.0000 </r>
       <r>   -0.8319    1.0000 </r>
       <r>   -0.8229    1.0000 </r>
       <r>   -0.7249    1.0000 </r>
       <r>   -0.7239    1.0000 </r>
       <r>   -0.7236    1.0000 </r>
       <r>   -0.7192    1.0000 </r>
       <r>   -0.7190    1.0000 </r>
       <r>   -0.7167    1.0000 </r>
       <r>   -0.4756    1.0000 </r>
       <r>   -0.4755    1.0000 </r>
       <r>   -0.4153    1.0000 </r>
       <r>   -0.3476    1.0000 </r>
       <r>   -0.3475    1.0000 </r>
       <r>   -0.3389    1.0000 </r>
       <r>   -0.3349    1.0000 </r>
       <r>   -0.2616    1.0000 </r>
       <r>   -0.2596    1.0000 </r>
       <r>   -0.2595    1.0000 </r>
       <r>   -0.2475    1.0000 </r>
       <r>   -0.2464    1.0000 </r>
       <r>   -0.2449    1.0000 </r>
       <r>   -0.2435    1.0000 </r>
       <r>   -0.2411    1.0000 </r>
       <r>   -0.0889    1.0000 </r>
       <r>   -0.0887    1.0000 </r>
       <r>   -0.0392    1.0000 </r>
       <r>    0.0121    1.0000 </r>
       <r>    0.0123    1.0000 </r>
       <r>    0.0542    1.0000 </r>
       <r>    0.0835    1.0000 </r>
       <r>    0.0867    1.0000 </r>
       <r>    0.0869    1.0000 </r>
       <r>    0.1959    1.0000 </r>
       <r>    0.1961    1.0000 </r>
       <r>    0.2133    1.0000 </r>
       <r>    0.2149    1.0000 </r>
       <r>    0.2179    1.0000 </r>
       <r>    0.2182    1.0000 </r>
       <r>    0.2193    1.0000 </r>
       <r>    0.2205    1.0000 </r>
       <r>    0.2356    1.0000 </r>
       <r>    0.2376    1.0000 </r>
       <r>    0.2378    1.0000 </r>
       <r>    0.2400    1.0000 </r>
       <r>    0.2446    1.0000 </r>
       <r>    0.2463    1.0000 </r>
       <r>    0.3536    1.0000 </r>
       <r>    0.3551    1.0000 </r>
       <r>    0.3553    1.0000 </r>
       <r>    0.3603    1.0000 </r>
       <r>    0.3605    1.0000 </r>
       <r>    0.3629    1.0000 </r>
       <r>    0.3647    1.0000 </r>
       <r>    0.5173    1.0000 </r>
       <r>    0.5613    1.0000 </r>
       <r>    0.5622    1.0000 </r>
       <r>    0.6099    1.0000 </r>
       <r>    0.6106    1.0000 </r>
       <r>    0.6167    1.0000 </r>
       <r>    0.6193    1.0000 </r>
       <r>    0.6342    1.0000 </r>
       <r>    0.6348    1.0000 </r>
       <r>    0.6415    1.0000 </r>
       <r>    0.6418    1.0000 </r>
       <r>    0.6688    1.0000 </r>
       <r>    0.6794    1.0000 </r>
       <r>    0.6825    1.0000 </r>
       <r>    0.6829    1.0000 </r>
       <r>    0.7436    1.0000 </r>
       <r>    0.7436    1.0000 </r>
       <r>    0.8612    1.0000 </r>
       <r>    0.8621    1.0000 </r>
       <r>    0.8697    1.0000 </r>
       <r>    1.0550    1.0000 </r>
       <r>    1.0555    1.0000 </r>
       <r>    1.1309    1.0000 </r>
       <r>    1.1340    1.0000 </r>
       <r>    1.1341    1.0000 </r>
       <r>    1.1353    1.0000 </r>
       <r>    1.1376    1.0000 </r>
       <r>    1.1654    1.0000 </r>
       <r>    1.1936    1.0000 </r>
       <r>    1.1940    1.0000 </r>
       <r>    1.2301    1.0000 </r>
       <r>    1.2442    1.0000 </r>
       <r>    1.2443    1.0000 </r>
       <r>    1.2596    1.0000 </r>
       <r>    1.2614    1.0000 </r>
       <r>    1.2615    1.0000 </r>
       <r>    1.2752    1.0000 </r>
       <r>    1.2763    1.0000 </r>
       <r>    1.2829    1.0000 </r>
       <r>    1.2838    1.0000 </r>
       <r>    1.2838    1.0000 </r>
       <r>    1.2841    1.0000 </r>
       <r>    1.3022    1.0000 </r>
       <r>    1.3029    1.0000 </r>
       <r>    1.3213    1.0000 </r>
       <r>    1.3228    1.0000 </r>
       <r>    1.3335    1.0000 </r>
       <r>    1.3341    1.0000 </r>
       <r>    1.3415    1.0000 </r>
       <r>    1.3444    1.0000 </r>
       <r>    1.4060    1.0000 </r>
       <r>    1.4063    1.0000 </r>
       <r>    1.4093    1.0000 </r>
       <r>    1.4835    1.0000 </r>
       <r>    1.4861    1.0000 </r>
       <r>    1.4872    1.0000 </r>
       <r>    1.8118    1.0000 </r>
       <r>    1.8122    1.0000 </r>
       <r>    1.8418    1.0000 </r>
       <r>    1.8719    1.0000 </r>
       <r>    1.8972    1.0000 </r>
       <r>    1.8980    1.0000 </r>
       <r>    1.9052    1.0000 </r>
       <r>    1.9054    1.0000 </r>
       <r>    1.9288    1.0000 </r>
       <r>    1.9330    1.0000 </r>
       <r>    1.9336    1.0000 </r>
       <r>    1.9371    1.0000 </r>
       <r>    1.9629    1.0000 </r>
       <r>    1.9636    1.0000 </r>
       <r>    1.9645    1.0000 </r>
       <r>    2.0555    1.0000 </r>
       <r>    2.0555    1.0000 </r>
       <r>    2.3304    1.0000 </r>
       <r>    2.3383    1.0000 </r>
       <r>    2.4109    1.0000 </r>
       <r>    2.4144    1.0000 </r>
       <r>    2.5037    1.0000 </r>
       <r>    2.5037    1.0000 </r>
       <r>    4.6652    1.0000 </r>
       <r>    5.8784    0.0000 </r>
       <r>    6.4870    0.0000 </r>
       <r>    6.4872    0.0000 </r>
       <r>    6.6764    0.0000 </r>
       <r>    6.7121    0.0000 </r>
       <r>    7.0086    0.0000 </r>
       <r>    7.0350    0.0000 </r>
       <r>    7.0350    0.0000 </r>
       <r>    7.0860    0.0000 </r>
       <r>    7.0863    0.0000 </r>
       <r>    7.1671    0.0000 </r>
       <r>    7.1686    0.0000 </r>
       <r>    7.1758    0.0000 </r>
       <r>    7.2459    0.0000 </r>
       <r>    7.2849    0.0000 </r>
       <r>    7.2850    0.0000 </r>
       <r>    7.3027    0.0000 </r>
       <r>    7.3529    0.0000 </r>
       <r>    7.3572    0.0000 </r>
       <r>    7.3572    0.0000 </r>
       <r>    7.3942    0.0000 </r>
       <r>    7.4338    0.0000 </r>
       <r>    7.4342    0.0000 </r>
       <r>    7.5401    0.0000 </r>
       <r>    7.5407    0.0000 </r>
       <r>    7.5890    0.0000 </r>
       <r>    7.5909    0.0000 </r>
       <r>    7.5917    0.0000 </r>
       <r>    7.6056    0.0000 </r>
       <r>    7.6838    0.0000 </r>
       <r>    7.7748    0.0000 </r>
       <r>    7.8100    0.0000 </r>
       <r>    7.8101    0.0000 </r>
       <r>    7.8286    0.0000 </r>
       <r>    7.8472    0.0000 </r>
       <r>    7.8475    0.0000 </r>
       <r>    7.8547    0.0000 </r>
       <r>    7.8550    0.0000 </r>
       <r>    7.8727    0.0000 </r>
       <r>    7.8830    0.0000 </r>
       <r>    7.8846    0.0000 </r>
       <r>    7.8849    0.0000 </r>
       <r>    7.8877    0.0000 </r>
       <r>    7.8899    0.0000 </r>
       <r>    7.9062    0.0000 </r>
       <r>    7.9063    0.0000 </r>
       <r>    7.9067    0.0000 </r>
       <r>    7.9127    0.0000 </r>
       <r>    7.9145    0.0000 </r>
       <r>    7.9157    0.0000 </r>
       <r>    7.9226    0.0000 </r>
       <r>    7.9256    0.0000 </r>
       <r>    7.9324    0.0000 </r>
       <r>    7.9348    0.0000 </r>
       <r>    8.0383    0.0000 </r>
       <r>    8.0413    0.0000 </r>
       <r>    8.0420    0.0000 </r>
       <r>    8.3783    0.0000 </r>
       <r>    8.4272    0.0000 </r>
       <r>    8.4273    0.0000 </r>
       <r>    8.4309    0.0000 </r>
       <r>    8.4319    0.0000 </r>
       <r>    8.4333    0.0000 </r>
       <r>    8.4615    0.0000 </r>
       <r>    8.4626    0.0000 </r>
       <r>    8.4797    0.0000 </r>
       <r>    8.4812    0.0000 </r>
       <r>    8.4988    0.0000 </r>
       <r>    8.5011    0.0000 </r>
       <r>    8.5030    0.0000 </r>
       <r>    8.5045    0.0000 </r>
       <r>    8.5360    0.0000 </r>
       <r>    8.5375    0.0000 </r>
       <r>    8.5667    0.0000 </r>
       <r>    8.6763    0.0000 </r>
       <r>    8.8638    0.0000 </r>
       <r>    9.1433    0.0000 </r>
       <r>    9.1437    0.0000 </r>
       <r>    9.1889    0.0000 </r>
       <r>    9.1894    0.0000 </r>
       <r>    9.2207    0.0000 </r>
       <r>    9.2355    0.0000 </r>
       <r>    9.2363    0.0000 </r>
       <r>    9.5080    0.0000 </r>
       <r>    9.5246    0.0000 </r>
       <r>    9.5266    0.0000 </r>
       <r>    9.5276    0.0000 </r>
       <r>    9.5299    0.0000 </r>
       <r>    9.5306    0.0000 </r>
       <r>    9.5331    0.0000 </r>
       <r>    9.5371    0.0000 </r>
       <r>    9.5379    0.0000 </r>
       <r>    9.5401    0.0000 </r>
       <r>    9.5972    0.0000 </r>
       <r>    9.5992    0.0000 </r>
       <r>    9.8698    0.0000 </r>
       <r>    9.9627    0.0000 </r>
       <r>   10.0319    0.0000 </r>
       <r>   10.1173    0.0000 </r>
       <r>   10.1203    0.0000 </r>
       <r>   10.1272    0.0000 </r>
       <r>   10.1282    0.0000 </r>
       <r>   10.1382    0.0000 </r>
       <r>   10.1418    0.0000 </r>
       <r>   10.1542    0.0000 </r>
       <r>   10.1561    0.0000 </r>
       <r>   10.1573    0.0000 </r>
       <r>   10.1686    0.0000 </r>
       <r>   10.2278    0.0000 </r>
       <r>   10.2414    0.0000 </r>
       <r>   10.2877    0.0000 </r>
       <r>   10.2889    0.0000 </r>
       <r>   10.3205    0.0000 </r>
       <r>   10.3216    0.0000 </r>
       <r>   10.3621    0.0000 </r>
       <r>   10.4406    0.0000 </r>
       <r>   10.4419    0.0000 </r>
       <r>   10.4432    0.0000 </r>
       <r>   10.4612    0.0000 </r>
       <r>   10.4636    0.0000 </r>
       <r>   10.4667    0.0000 </r>
       <r>   10.4834    0.0000 </r>
       <r>   10.5088    0.0000 </r>
       <r>   10.5175    0.0000 </r>
       <r>   10.5193    0.0000 </r>
       <r>   10.5216    0.0000 </r>
       <r>   10.5240    0.0000 </r>
       <r>   10.5716    0.0000 </r>
       <r>   10.5736    0.0000 </r>
       <r>   10.5739    0.0000 </r>
       <r>   10.5763    0.0000 </r>
       <r>   10.5777    0.0000 </r>
       <r>   10.5911    0.0000 </r>
       <r>   10.6022    0.0000 </r>
       <r>   10.6046    0.0000 </r>
       <r>   10.6490    0.0000 </r>
       <r>   10.7342    0.0000 </r>
       <r>   10.8314    0.0000 </r>
       <r>   10.8525    0.0000 </r>
       <r>   10.8728    0.0000 </r>
       <r>   10.8794    0.0000 </r>
       <r>   10.8829    0.0000 </r>
       <r>   10.8863    0.0000 </r>
       <r>   10.9034    0.0000 </r>
       <r>   10.9266    0.0000 </r>
       <r>   10.9434    0.0000 </r>
       <r>   10.9522    0.0000 </r>
       <r>   10.9570    0.0000 </r>
       <r>   10.9645    0.0000 </r>
       <r>   12.1084    0.0000 </r>
       <r>   12.3890    0.0000 </r>
      </set>
      <set comment="kpoint 2">
       <r>  -17.2936    1.0000 </r>
       <r>  -15.7753    1.0000 </r>
       <r>  -15.7303    1.0000 </r>
       <r>  -15.4204    1.0000 </r>
       <r>  -15.3138    1.0000 </r>
       <r>  -15.2493    1.0000 </r>
       <r>  -15.2285    1.0000 </r>
       <r>  -15.1965    1.0000 </r>
       <r>  -15.1884    1.0000 </r>
       <r>  -15.1017    1.0000 </r>
       <r>  -15.0677    1.0000 </r>
       <r>  -15.0259    1.0000 </r>
       <r>  -15.0076    1.0000 </r>
       <r>  -14.9556    1.0000 </r>
       <r>  -14.9469    1.0000 </r>
       <r>  -14.9375    1.0000 </r>
       <r>  -14.9359    1.0000 </r>
       <r>  -14.8566    1.0000 </r>
       <r>  -14.7535    1.0000 </r>
       <r>  -14.7521    1.0000 </r>
       <r>  -14.6207    1.0000 </r>
       <r>  -14.5700    1.0000 </r>
       <r>  -14.5557    1.0000 </r>
       <r>  -14.4588    1.0000 </r>
       <r>  -14.4452    1.0000 </r>
       <r>  -14.4433    1.0000 </r>
       <r>  -14.4293    1.0000 </r>
       <r>  -14.4250    1.0000 </r>
       <r>  -14.4199    1.0000 </r>
       <r>  -14.4159    1.0000 </r>
       <r>  -14.4149    1.0000 </r>
       <r>  -14.3552    1.0000 </r>
       <r>  -14.2467    1.0000 </r>
       <r>  -14.2420    1.0000 </r>
       <r>  -14.2396    1.0000 </r>
       <r>  -14.2392    1.0000 </r>
       <r>  -14.2015    1.0000 </r>
       <r>  -14.1917    1.0000 </r>
       <r>  -14.1676    1.0000 </r>
       <r>  -14.1664    1.0000 </r>
       <r>  -14.1215    1.0000 </r>
       <r>  -14.0362    1.0000 </r>
       <r>  -13.9969    1.0000 </r>
       <r>  -13.9946    1.0000 </r>
       <r>  -13.9468    1.0000 </r>
       <r>  -13.7939    1.0000 </r>
       <r>  -13.7360    1.0000 </r>
       <r>  -13.7122    1.0000 </r>
       <r>  -13.7091    1.0000 </r>
       <r>  -13.7067    1.0000 </r>
       <r>  -13.6979    1.0000 </r>
       <r>  -13.6937    1.0000 </r>
       <r>  -13.6751    1.0000 </r>
       <r>  -13.6726    1.0000 </r>
       <r>  -13.6080    1.0000 </r>
       <r>  -13.5309    1.0000 </r>
       <r>  -13.5305    1.0000 </r>
       <r>  -13.5157    1.0000 </r>
       <r>  -13.5154    1.0000 </r>
       <r>  -13.5054    1.0000 </r>
       <r>  -13.3598    1.0000 </r>
       <r>  -13.3378    1.0000 </r>
       <r>  -13.2557    1.0000 </r>
       <r>  -13.2235    1.0000 </r>
       <r>  -13.1145    1.0000 </r>
       <r>  -13.0598    1.0000 </r>
       <r>  -13.0536    1.0000 </r>
       <r>  -13.0511    1.0000 </r>
       <r>  -13.0432    1.0000 </r>
       <r>  -13.0398    1.0000 </r>
       <r>  -13.0371    1.0000 </r>
       <r>  -13.0347    1.0000 </r>
       <r>  -13.0335    1.0000 </r>
       <r>  -12.9770    1.0000 </r>
       <r>  -12.9317    1.0000 </r>
       <r>  -12.8885    1.0000 </r>
       <r>  -12.8840    1.0000 </r>
       <r>  -12.8823    1.0000 </r>
       <r>  -12.8799    1.0000 </r>
       <r>  -12.8769    1.0000 </r>
       <r>  -12.8736    1.0000 </r>
       <r>  -12.8731    1.0000 </r>
       <r>  -12.8714    1.0000 </r>
       <r>  -12.8689    1.0000 </r>
       <r>  -12.8660    1.0000 </r>
       <r>  -12.8639    1.0000 </r>
       <r>  -12.8637    1.0000 </r>
       <r>  -12.8610    1.0000 </r>
       <r>  -12.7161    1.0000 </r>
       <r>  -12.7140    1.0000 </r>
       <r>  -12.7139    1.0000 </r>
       <r>  -12.7135    1.0000 </r>
       <r>  -12.6824    1.0000 </r>
       <r>  -12.6099    1.0000 </r>
       <r>  -12.5915    1.0000 </r>
       <r>  -12.5841    1.0000 </r>
       <r>  -12.5693    1.0000 </r>
       <r>  -12.5549    1.0000 </r>
       <r>  -12.5335    1.0000 </r>
       <r>  -12.4987    1.0000 </r>
       <r>  -12.4379    1.0000 </r>
       <r>  -12.4317    1.0000 </r>
       <r>  -12.4245    1.0000 </r>
       <r>  -12.4200    1.0000 </r>
       <r>  -12.3360    1.0000 </r>
       <r>  -12.3323    1.0000 </r>
       <r>  -12.3282    1.0000 </r>
       <r>  -12.3233    1.0000 </r>
       <r>  -12.2439    1.0000 </r>
       <r>  -12.2420    1.0000 </r>
       <r>  -12.2393    1.0000 </r>
       <r>  -12.2365    1.0000 </r>
       <r>  -12.2169    1.0000 </r>
       <r>  -12.2153    1.0000 </r>
       <r>  -12.2103    1.0000 </r>
       <r>  -12.2080    1.0000 </r>
       <r>  -12.1768    1.0000 </r>
       <r>  -12.1766    1.0000 </r>
       <r>  -12.1699    1.0000 </r>
       <r>  -12.1698    1.0000 </r>
       <r>  -12.0958    1.0000 </r>
       <r>  -12.0956    1.0000 </r>
       <r>  -12.0896    1.0000 </r>
       <r>  -12.0873    1.0000 </r>
       <r>  -12.0865    1.0000 </r>
       <r>  -12.0848    1.0000 </r>
       <r>  -11.9500    1.0000 </r>
       <r>  -11.9478    1.0000 </r>
       <r>  -11.9469    1.0000 </r>
       <r>  -11.9447    1.0000 </r>
       <r>  -11.8158    1.0000 </r>
       <r>  -11.8151    1.0000 </r>
       <r>  -11.8068    1.0000 </r>
       <r>  -11.8061    1.0000 </r>
       <r>  -11.8060    1.0000 </r>
       <r>  -11.8051    1.0000 </r>
       <r>  -11.7842    1.0000 </r>
       <r>  -11.7838    1.0000 </r>
       <r>  -11.7805    1.0000 </r>
       <r>  -11.7801    1.0000 </r>
       <r>  -11.6684    1.0000 </r>
       <r>  -11.6684    1.0000 </r>
       <r>  -11.6613    1.0000 </r>
       <r>  -11.6613    1.0000 </r>
       <r>   -8.3630    1.0000 </r>
       <r>   -7.2839    1.0000 </r>
       <r>   -7.2707    1.0000 </r>
       <r>   -6.7936    1.0000 </r>
       <r>   -6.7046    1.0000 </r>
       <r>   -6.6829    1.0000 </r>
       <r>   -6.4379    1.0000 </r>
       <r>   -6.4060    1.0000 </r>
       <r>   -6.3220    1.0000 </r>
       <r>   -6.3076    1.0000 </r>
       <r>   -6.3055    1.0000 </r>
       <r>   -6.3047    1.0000 </r>
       <r>   -6.3005    1.0000 </r>
       <r>   -6.2874    1.0000 </r>
       <r>   -6.2736    1.0000 </r>
       <r>   -6.2723    1.0000 </r>
       <r>   -6.2713    1.0000 </r>
       <r>   -6.2705    1.0000 </r>
       <r>   -6.2164    1.0000 </r>
       <r>   -6.2139    1.0000 </r>
       <r>   -6.2129    1.0000 </r>
       <r>   -6.2047    1.0000 </r>
       <r>   -6.1985    1.0000 </r>
       <r>   -6.1959    1.0000 </r>
       <r>   -6.1587    1.0000 </r>
       <r>   -6.1585    1.0000 </r>
       <r>   -6.1490    1.0000 </r>
       <r>   -6.1489    1.0000 </r>
       <r>   -6.0723    1.0000 </r>
       <r>   -6.0711    1.0000 </r>
       <r>   -5.9327    1.0000 </r>
       <r>   -5.9307    1.0000 </r>
       <r>   -5.9073    1.0000 </r>
       <r>   -5.9072    1.0000 </r>
       <r>   -5.8440    1.0000 </r>
       <r>   -5.7893    1.0000 </r>
       <r>   -5.7819    1.0000 </r>
       <r>   -5.7741    1.0000 </r>
       <r>   -5.7675    1.0000 </r>
       <r>   -5.7647    1.0000 </r>
       <r>   -5.7634    1.0000 </r>
       <r>   -5.7632    1.0000 </r>
       <r>   -5.7627    1.0000 </r>
       <r>   -5.7570    1.0000 </r>
       <r>   -5.7524    1.0000 </r>
       <r>   -5.7519    1.0000 </r>
       <r>   -5.7433    1.0000 </r>
       <r>   -5.6846    1.0000 </r>
       <r>   -5.6545    1.0000 </r>
       <r>   -5.6421    1.0000 </r>
       <r>   -5.6229    1.0000 </r>
       <r>   -5.6228    1.0000 </r>
       <r>   -5.6196    1.0000 </r>
       <r>   -5.6196    1.0000 </r>
       <r>   -5.2275    1.0000 </r>
       <r>   -5.2262    1.0000 </r>
       <r>   -5.2237    1.0000 </r>
       <r>   -5.2228    1.0000 </r>
       <r>   -5.2223    1.0000 </r>
       <r>   -5.2213    1.0000 </r>
       <r>   -5.2212    1.0000 </r>
       <r>   -5.2208    1.0000 </r>
       <r>   -5.2188    1.0000 </r>
       <r>   -5.2184    1.0000 </r>
       <r>   -5.2180    1.0000 </r>
       <r>   -5.2170    1.0000 </r>
       <r>   -5.1150    1.0000 </r>
       <r>   -5.1104    1.0000 </r>
       <r>   -5.0907    1.0000 </r>
       <r>   -5.0906    1.0000 </r>
       <r>   -5.0877    1.0000 </r>
       <r>   -5.0876    1.0000 </r>
       <r>   -5.0874    1.0000 </r>
       <r>   -5.0871    1.0000 </r>
       <r>   -5.0260    1.0000 </r>
       <r>   -4.9211    1.0000 </r>
       <r>   -4.8319    1.0000 </r>
       <r>   -4.6117    1.0000 </r>
       <r>   -4.5543    1.0000 </r>
       <r>   -4.5412    1.0000 </r>
       <r>   -4.4754    1.0000 </r>
       <r>   -4.4728    1.0000 </r>
       <r>   -4.4722    1.0000 </r>
       <r>   -4.4714    1.0000 </r>
       <r>   -4.4711    1.0000 </r>
       <r>   -4.4687    1.0000 </r>
       <r>   -4.4684    1.0000 </r>
       <r>   -4.4679    1.0000 </r>
       <r>   -4.3412    1.0000 </r>
       <r>   -4.3410    1.0000 </r>
       <r>   -4.3408    1.0000 </r>
       <r>   -4.3407    1.0000 </r>
       <r>   -4.3173    1.0000 </r>
       <r>   -4.3163    1.0000 </r>
       <r>   -4.2018    1.0000 </r>
       <r>   -4.0979    1.0000 </r>
       <r>   -4.0878    1.0000 </r>
       <r>   -4.0870    1.0000 </r>
       <r>   -4.0847    1.0000 </r>
       <r>   -4.0842    1.0000 </r>
       <r>   -4.0762    1.0000 </r>
       <r>   -4.0734    1.0000 </r>
       <r>   -4.0719    1.0000 </r>
       <r>   -4.0696    1.0000 </r>
       <r>   -4.0288    1.0000 </r>
       <r>   -3.9501    1.0000 </r>
       <r>   -3.9500    1.0000 </r>
       <r>   -3.9466    1.0000 </r>
       <r>   -3.9465    1.0000 </r>
       <r>   -3.9092    1.0000 </r>
       <r>   -3.8654    1.0000 </r>
       <r>   -3.7857    1.0000 </r>
       <r>   -3.7511    1.0000 </r>
       <r>   -3.6236    1.0000 </r>
       <r>   -3.6214    1.0000 </r>
       <r>   -3.6157    1.0000 </r>
       <r>   -3.6139    1.0000 </r>
       <r>   -3.6036    1.0000 </r>
       <r>   -3.6031    1.0000 </r>
       <r>   -3.5985    1.0000 </r>
       <r>   -3.5980    1.0000 </r>
       <r>   -3.5155    1.0000 </r>
       <r>   -3.4798    1.0000 </r>
       <r>   -3.4794    1.0000 </r>
       <r>   -3.4780    1.0000 </r>
       <r>   -3.4740    1.0000 </r>
       <r>   -3.4739    1.0000 </r>
       <r>   -3.4697    1.0000 </r>
       <r>   -3.4677    1.0000 </r>
       <r>   -3.4658    1.0000 </r>
       <r>   -3.4635    1.0000 </r>
       <r>   -3.4505    1.0000 </r>
       <r>   -3.3494    1.0000 </r>
       <r>   -3.3383    1.0000 </r>
       <r>   -3.3382    1.0000 </r>
       <r>   -3.1560    1.0000 </r>
       <r>   -3.1309    1.0000 </r>
       <r>   -3.0972    1.0000 </r>
       <r>   -3.0756    1.0000 </r>
       <r>   -3.0734    1.0000 </r>
       <r>   -3.0709    1.0000 </r>
       <r>   -3.0694    1.0000 </r>
       <r>   -2.9929    1.0000 </r>
       <r>   -2.9382    1.0000 </r>
       <r>   -2.9376    1.0000 </r>
       <r>   -2.9324    1.0000 </r>
       <r>   -2.8558    1.0000 </r>
       <r>   -2.8103    1.0000 </r>
       <r>   -2.7787    1.0000 </r>
       <r>   -2.7706    1.0000 </r>
       <r>   -2.7698    1.0000 </r>
       <r>   -2.7566    1.0000 </r>
       <r>   -2.7537    1.0000 </r>
       <r>   -2.7360    1.0000 </r>
       <r>   -2.7263    1.0000 </r>
       <r>   -2.6833    1.0000 </r>
       <r>   -2.6793    1.0000 </r>
       <r>   -2.6688    1.0000 </r>
       <r>   -2.6677    1.0000 </r>
       <r>   -2.6674    1.0000 </r>
       <r>   -2.5441    1.0000 </r>
       <r>   -2.5438    1.0000 </r>
       <r>   -2.5232    1.0000 </r>
       <r>   -2.5226    1.0000 </r>
       <r>   -2.5122    1.0000 </r>
       <r>   -2.4608    1.0000 </r>
       <r>   -2.4250    1.0000 </r>
       <r>   -2.4159    1.0000 </r>
       <r>   -2.3848    1.0000 </r>
       <r>   -2.3773    1.0000 </r>
       <r>   -2.3751    1.0000 </r>
       <r>   -2.3734    1.0000 </r>
       <r>   -2.3727    1.0000 </r>
       <r>   -2.3714    1.0000 </r>
       <r>   -2.3710    1.0000 </r>
       <r>   -2.3695    1.0000 </r>
       <r>   -2.3691    1.0000 </r>
       <r>   -2.3601    1.0000 </r>
       <r>   -2.3587    1.0000 </r>
       <r>   -2.3554    1.0000 </r>
       <r>   -2.3289    1.0000 </r>
       <r>   -2.2676    1.0000 </r>
       <r>   -2.2409    1.0000 </r>
       <r>   -2.2405    1.0000 </r>
       <r>   -2.2403    1.0000 </r>
       <r>   -2.2401    1.0000 </r>
       <r>   -2.2117    1.0000 </r>
       <r>   -2.1751    1.0000 </r>
       <r>   -2.1452    1.0000 </r>
       <r>   -2.1297    1.0000 </r>
       <r>   -2.0890    1.0000 </r>
       <r>   -2.0886    1.0000 </r>
       <r>   -2.0885    1.0000 </r>
       <r>   -2.0879    1.0000 </r>
       <r>   -2.0573    1.0000 </r>
       <r>   -2.0546    1.0000 </r>
       <r>   -2.0543    1.0000 </r>
       <r>   -2.0519    1.0000 </r>
       <r>   -2.0414    1.0000 </r>
       <r>   -2.0311    1.0000 </r>
       <r>   -2.0105    1.0000 </r>
       <r>   -2.0096    1.0000 </r>
       <r>   -1.9833    1.0000 </r>
       <r>   -1.9430    1.0000 </r>
       <r>   -1.9429    1.0000 </r>
       <r>   -1.9331    1.0000 </r>
       <r>   -1.9329    1.0000 </r>
       <r>   -1.8966    1.0000 </r>
       <r>   -1.8709    1.0000 </r>
       <r>   -1.8672    1.0000 </r>
       <r>   -1.8663    1.0000 </r>
       <r>   -1.8656    1.0000 </r>
       <r>   -1.8575    1.0000 </r>
       <r>   -1.8548    1.0000 </r>
       <r>   -1.8233    1.0000 </r>
       <r>   -1.8206    1.0000 </r>
       <r>   -1.8167    1.0000 </r>
       <r>   -1.8149    1.0000 </r>
       <r>   -1.7861    1.0000 </r>
       <r>   -1.7787    1.0000 </r>
       <r>   -1.7769    1.0000 </r>
       <r>   -1.7766    1.0000 </r>
       <r>   -1.7758    1.0000 </r>
       <r>   -1.7755    1.0000 </r>
       <r>   -1.7749    1.0000 </r>
       <r>   -1.7742    1.0000 </r>
       <r>   -1.7721    1.0000 </r>
       <r>   -1.7167    1.0000 </r>
       <r>   -1.7086    1.0000 </r>
       <r>   -1.7081    1.0000 </r>
       <r>   -1.6966    1.0000 </r>
       <r>   -1.6602    1.0000 </r>
       <r>   -1.6507    1.0000 </r>
       <r>   -1.6452    1.0000 </r>
       <r>   -1.6451    1.0000 </r>
       <r>   -1.6449    1.0000 </r>
       <r>   -1.6449    1.0000 </r>
       <r>   -1.6349    1.0000 </r>
       <r>   -1.6160    1.0000 </r>
       <r>   -1.6130    1.0000 </r>
       <r>   -1.6054    1.0000 </r>
       <r>   -1.6039    1.0000 </r>
       <r>   -1.5830    1.0000 </r>
       <r>   -1.5807    1.0000 </r>
       <r>   -1.5803    1.0000 </r>
       <r>   -1.5672    1.0000 </r>
       <r>   -1.5658    1.0000 </r>
       <r>   -1.5586    1.0000 </r>
       <r>   -1.5536    1.0000 </r>
       <r>   -1.5512    1.0000 </r>
       <r>   -1.4912    1.0000 </r>
       <r>   -1.4558    1.0000 </r>
       <r>   -1.4410    1.0000 </r>
       <r>   -1.4316    1.0000 </r>
       <r>   -1.3508    1.0000 </r>
       <r>   -1.3479    1.0000 </r>
       <r>   -1.3391    1.0000 </r>
       <r>   -1.3382    1.0000 </r>
       <r>   -1.2298    1.0000 </r>
       <r>   -1.2293    1.0000 </r>
       <r>   -1.2263    1.0000 </r>
       <r>   -1.2259    1.0000 </r>
       <r>   -1.2131    1.0000 </r>
       <r>   -1.2110    1.0000 </r>
       <r>   -1.2104    1.0000 </r>
       <r>   -1.2066    1.0000 </r>
       <r>   -1.1910    1.0000 </r>
       <r>   -1.0913    1.0000 </r>
       <r>   -1.0913    1.0000 </r>
       <r>   -1.0861    1.0000 </r>
       <r>   -1.0861    1.0000 </r>
       <r>   -1.0522    1.0000 </r>
       <r>   -1.0267    1.0000 </r>
       <r>   -1.0140    1.0000 </r>
       <r>   -0.9783    1.0000 </r>
       <r>   -0.9333    1.0000 </r>
       <r>   -0.8687    1.0000 </r>
       <r>   -0.8464    1.0000 </r>
       <r>   -0.7810    1.0000 </r>
       <r>   -0.7784    1.0000 </r>
       <r>   -0.7576    1.0000 </r>
       <r>   -0.7243    1.0000 </r>
       <r>   -0.7172    1.0000 </r>
       <r>   -0.7135    1.0000 </r>
       <r>   -0.7118    1.0000 </r>
       <r>   -0.7100    1.0000 </r>
       <r>   -0.6786    1.0000 </r>
       <r>   -0.6764    1.0000 </r>
       <r>   -0.6763    1.0000 </r>
       <r>   -0.6730    1.0000 </r>
       <r>   -0.6627    1.0000 </r>
       <r>   -0.6578    1.0000 </r>
       <r>   -0.6562    1.0000 </r>
       <r>   -0.6263    1.0000 </r>
       <r>   -0.5176    1.0000 </r>
       <r>   -0.5164    1.0000 </r>
       <r>   -0.5158    1.0000 </r>
       <r>   -0.5144    1.0000 </r>
       <r>   -0.4639    1.0000 </r>
       <r>   -0.4596    1.0000 </r>
       <r>   -0.4579    1.0000 </r>
       <r>   -0.4565    1.0000 </r>
       <r>   -0.4544    1.0000 </r>
       <r>   -0.4533    1.0000 </r>
       <r>   -0.4520    1.0000 </r>
       <r>   -0.4502    1.0000 </r>
       <r>   -0.4402    1.0000 </r>
       <r>   -0.4132    1.0000 </r>
       <r>   -0.3842    1.0000 </r>
       <r>   -0.3835    1.0000 </r>
       <r>   -0.3834    1.0000 </r>
       <r>   -0.3708    1.0000 </r>
       <r>   -0.3563    1.0000 </r>
       <r>   -0.3552    1.0000 </r>
       <r>   -0.3548    1.0000 </r>
       <r>   -0.3451    1.0000 </r>
       <r>   -0.3434    1.0000 </r>
       <r>   -0.3427    1.0000 </r>
       <r>   -0.3268    1.0000 </r>
       <r>   -0.3264    1.0000 </r>
       <r>   -0.3262    1.0000 </r>
       <r>   -0.3257    1.0000 </r>
       <r>   -0.2801    1.0000 </r>
       <r>   -0.2255    1.0000 </r>
       <r>   -0.2250    1.0000 </r>
       <r>   -0.1260    1.0000 </r>
       <r>   -0.0465    1.0000 </r>
       <r>    0.0035    1.0000 </r>
       <r>    0.0426    1.0000 </r>
       <r>    0.1173    1.0000 </r>
       <r>    0.1521    1.0000 </r>
       <r>    0.1551    1.0000 </r>
       <r>    0.1672    1.0000 </r>
       <r>    0.1864    1.0000 </r>
       <r>    0.1997    1.0000 </r>
       <r>    0.2124    1.0000 </r>
       <r>    0.2129    1.0000 </r>
       <r>    0.2184    1.0000 </r>
       <r>    0.2199    1.0000 </r>
       <r>    0.2385    1.0000 </r>
       <r>    0.2411    1.0000 </r>
       <r>    0.2864    1.0000 </r>
       <r>    0.3093    1.0000 </r>
       <r>    0.3155    1.0000 </r>
       <r>    0.3440    1.0000 </r>
       <r>    0.3457    1.0000 </r>
       <r>    0.3480    1.0000 </r>
       <r>    0.3498    1.0000 </r>
       <r>    0.3652    1.0000 </r>
       <r>    0.3761    1.0000 </r>
       <r>    0.3943    1.0000 </r>
       <r>    0.4528    1.0000 </r>
       <r>    0.4579    1.0000 </r>
       <r>    0.4605    1.0000 </r>
       <r>    0.4627    1.0000 </r>
       <r>    0.4639    1.0000 </r>
       <r>    0.4646    1.0000 </r>
       <r>    0.4766    1.0000 </r>
       <r>    0.4772    1.0000 </r>
       <r>    0.5555    1.0000 </r>
       <r>    0.5598    1.0000 </r>
       <r>    0.5655    1.0000 </r>
       <r>    0.5854    1.0000 </r>
       <r>    0.5899    1.0000 </r>
       <r>    0.6846    1.0000 </r>
       <r>    0.6937    1.0000 </r>
       <r>    0.7010    1.0000 </r>
       <r>    0.7029    1.0000 </r>
       <r>    0.7236    1.0000 </r>
       <r>    0.8068    1.0000 </r>
       <r>    0.8092    1.0000 </r>
       <r>    0.8391    1.0000 </r>
       <r>    0.8554    1.0000 </r>
       <r>    0.8563    1.0000 </r>
       <r>    0.8802    1.0000 </r>
       <r>    0.8843    1.0000 </r>
       <r>    0.8853    1.0000 </r>
       <r>    0.9157    1.0000 </r>
       <r>    0.9915    1.0000 </r>
       <r>    0.9917    1.0000 </r>
       <r>    0.9937    1.0000 </r>
       <r>    1.0027    1.0000 </r>
       <r>    1.0205    1.0000 </r>
       <r>    1.0322    1.0000 </r>
       <r>    1.0821    1.0000 </r>
       <r>    1.0978    1.0000 </r>
       <r>    1.2065    1.0000 </r>
       <r>    1.2070    1.0000 </r>
       <r>    1.2151    1.0000 </r>
       <r>    1.2334    1.0000 </r>
       <r>    1.2449    1.0000 </r>
       <r>    1.2458    1.0000 </r>
       <r>    1.2544    1.0000 </r>
       <r>    1.2591    1.0000 </r>
       <r>    1.3154    1.0000 </r>
       <r>    1.3158    1.0000 </r>
       <r>    1.3657    1.0000 </r>
       <r>    1.3662    1.0000 </r>
       <r>    1.4008    1.0000 </r>
       <r>    1.4049    1.0000 </r>
       <r>    1.4397    1.0000 </r>
       <r>    1.4416    1.0000 </r>
       <r>    1.4978    1.0000 </r>
       <r>    1.5010    1.0000 </r>
       <r>    1.5374    1.0000 </r>
       <r>    1.5775    1.0000 </r>
       <r>    1.5885    1.0000 </r>
       <r>    1.5893    1.0000 </r>
       <r>    1.7635    1.0000 </r>
       <r>    1.7689    1.0000 </r>
       <r>    1.8463    1.0000 </r>
       <r>    1.8556    1.0000 </r>
       <r>    1.8600    1.0000 </r>
       <r>    1.8606    1.0000 </r>
       <r>    1.9186    1.0000 </r>
       <r>    1.9248    1.0000 </r>
       <r>    1.9539    1.0000 </r>
       <r>    1.9591    1.0000 </r>
       <r>    1.9794    1.0000 </r>
       <r>    1.9798    1.0000 </r>
       <r>    2.0237    1.0000 </r>
       <r>    2.0244    1.0000 </r>
       <r>    2.0629    1.0000 </r>
       <r>    2.0686    1.0000 </r>
       <r>    2.0965    1.0000 </r>
       <r>    2.0970    1.0000 </r>
       <r>    2.2233    1.0000 </r>
       <r>    2.2306    1.0000 </r>
       <r>    2.3990    1.0000 </r>
       <r>    2.4000    1.0000 </r>
       <r>    2.4036    1.0000 </r>
       <r>    2.4058    1.0000 </r>
       <r>    4.6620    1.0000 </r>
       <r>    5.8856    0.0000 </r>
       <r>    6.6170    0.0000 </r>
       <r>    6.6376    0.0000 </r>
       <r>    6.6378    0.0000 </r>
       <r>    6.8794    0.0000 </r>
       <r>    6.9263    0.0000 </r>
       <r>    6.9922    0.0000 </r>
       <r>    7.0035    0.0000 </r>
       <r>    7.0781    0.0000 </r>
       <r>    7.0879    0.0000 </r>
       <r>    7.1516    0.0000 </r>
       <r>    7.2120    0.0000 </r>
       <r>    7.2122    0.0000 </r>
       <r>    7.2276    0.0000 </r>
       <r>    7.2435    0.0000 </r>
       <r>    7.2819    0.0000 </r>
       <r>    7.2969    0.0000 </r>
       <r>    7.3060    0.0000 </r>
       <r>    7.3276    0.0000 </r>
       <r>    7.3327    0.0000 </r>
       <r>    7.3387    0.0000 </r>
       <r>    7.3429    0.0000 </r>
       <r>    7.3435    0.0000 </r>
       <r>    7.3610    0.0000 </r>
       <r>    7.3623    0.0000 </r>
       <r>    7.3839    0.0000 </r>
       <r>    7.3841    0.0000 </r>
       <r>    7.3921    0.0000 </r>
       <r>    7.3944    0.0000 </r>
       <r>    7.4289    0.0000 </r>
       <r>    7.4319    0.0000 </r>
       <r>    7.4583    0.0000 </r>
       <r>    7.6860    0.0000 </r>
       <r>    7.7385    0.0000 </r>
       <r>    7.7423    0.0000 </r>
       <r>    7.7456    0.0000 </r>
       <r>    7.7919    0.0000 </r>
       <r>    7.8207    0.0000 </r>
       <r>    7.8449    0.0000 </r>
       <r>    7.8744    0.0000 </r>
       <r>    7.8887    0.0000 </r>
       <r>    7.9075    0.0000 </r>
       <r>    7.9136    0.0000 </r>
       <r>    7.9193    0.0000 </r>
       <r>    7.9428    0.0000 </r>
       <r>    7.9657    0.0000 </r>
       <r>    8.0636    0.0000 </r>
       <r>    8.1121    0.0000 </r>
       <r>    8.1662    0.0000 </r>
       <r>    8.1703    0.0000 </r>
       <r>    8.1712    0.0000 </r>
       <r>    8.1854    0.0000 </r>
       <r>    8.2087    0.0000 </r>
       <r>    8.2202    0.0000 </r>
       <r>    8.2235    0.0000 </r>
       <r>    8.2333    0.0000 </r>
       <r>    8.2409    0.0000 </r>
       <r>    8.2544    0.0000 </r>
       <r>    8.2827    0.0000 </r>
       <r>    8.3931    0.0000 </r>
       <r>    8.5605    0.0000 </r>
       <r>    8.5803    0.0000 </r>
       <r>    8.5920    0.0000 </r>
       <r>    8.6333    0.0000 </r>
       <r>    8.6343    0.0000 </r>
       <r>    8.6439    0.0000 </r>
       <r>    8.6610    0.0000 </r>
       <r>    8.6713    0.0000 </r>
       <r>    8.6799    0.0000 </r>
       <r>    8.6861    0.0000 </r>
       <r>    8.6880    0.0000 </r>
       <r>    8.7306    0.0000 </r>
       <r>    8.8814    0.0000 </r>
       <r>    8.9559    0.0000 </r>
       <r>    8.9906    0.0000 </r>
       <r>    8.9980    0.0000 </r>
       <r>    9.0084    0.0000 </r>
       <r>    9.0558    0.0000 </r>
       <r>    9.1241    0.0000 </r>
       <r>    9.2098    0.0000 </r>
       <r>    9.2407    0.0000 </r>
       <r>    9.2635    0.0000 </r>
       <r>    9.2664    0.0000 </r>
       <r>    9.2693    0.0000 </r>
       <r>    9.2799    0.0000 </r>
       <r>    9.2953    0.0000 </r>
       <r>    9.2982    0.0000 </r>
       <r>    9.3032    0.0000 </r>
       <r>    9.3211    0.0000 </r>
       <r>    9.3255    0.0000 </r>
       <r>    9.3276    0.0000 </r>
       <r>    9.3280    0.0000 </r>
       <r>    9.3559    0.0000 </r>
       <r>    9.3984    0.0000 </r>
       <r>    9.4735    0.0000 </r>
       <r>    9.6114    0.0000 </r>
       <r>    9.6279    0.0000 </r>
       <r>    9.6816    0.0000 </r>
       <r>    9.6884    0.0000 </r>
       <r>    9.6904    0.0000 </r>
       <r>    9.7186    0.0000 </r>
       <r>    9.8767    0.0000 </r>
       <r>   10.0650    0.0000 </r>
       <r>   10.0887    0.0000 </r>
       <r>   10.0902    0.0000 </r>
       <r>   10.1017    0.0000 </r>
       <r>   10.1417    0.0000 </r>
       <r>   10.1707    0.0000 </r>
       <r>   10.1746    0.0000 </r>
       <r>   10.1898    0.0000 </r>
       <r>   10.1984    0.0000 </r>
       <r>   10.2250    0.0000 </r>
       <r>   10.2356    0.0000 </r>
       <r>   10.2830    0.0000 </r>
       <r>   10.3016    0.0000 </r>
       <r>   10.3033    0.0000 </r>
       <r>   10.3759    0.0000 </r>
       <r>   10.3804    0.0000 </r>
       <r>   10.3903    0.0000 </r>
       <r>   10.3928    0.0000 </r>
       <r>   10.4129    0.0000 </r>
       <r>   10.4363    0.0000 </r>
       <r>   10.4418    0.0000 </r>
       <r>   10.4662    0.0000 </r>
       <r>   10.5083    0.0000 </r>
       <r>   10.5272    0.0000 </r>
       <r>   10.6253    0.0000 </r>
       <r>   10.6684    0.0000 </r>
       <r>   10.7193    0.0000 </r>
       <r>   10.7202    0.0000 </r>
       <r>   10.7226    0.0000 </r>
       <r>   10.7310    0.0000 </r>
       <r>   10.7505    0.0000 </r>
       <r>   10.7582    0.0000 </r>
       <r>   10.7628    0.0000 </r>
       <r>   10.7830    0.0000 </r>
       <r>   10.7886    0.0000 </r>
       <r>   10.7914    0.0000 </r>
       <r>   10.8133    0.0000 </r>
       <r>   10.8154    0.0000 </r>
       <r>   11.2349    0.0000 </r>
       <r>   11.2595    0.0000 </r>
       <r>   11.5014    0.0000 </r>
       <r>   11.5840    0.0000 </r>
       <r>   11.6192    0.0000 </r>
       <r>   11.6661    0.0000 </r>
       <r>   11.7240    0.0000 </r>
       <r>   11.7416    0.0000 </r>
       <r>   11.7753    0.0000 </r>
       <r>   11.7982    0.0000 </r>
       <r>   11.8467    0.0000 </r>
      </set>
      <set comment="kpoint 3">
       <r>  -17.2936    1.0000 </r>
       <r>  -15.7753    1.0000 </r>
       <r>  -15.7303    1.0000 </r>
       <r>  -15.4209    1.0000 </r>
       <r>  -15.3135    1.0000 </r>
       <r>  -15.2497    1.0000 </r>
       <r>  -15.2289    1.0000 </r>
       <r>  -15.1961    1.0000 </r>
       <r>  -15.1878    1.0000 </r>
       <r>  -15.1015    1.0000 </r>
       <r>  -15.0674    1.0000 </r>
       <r>  -15.0262    1.0000 </r>
       <r>  -15.0073    1.0000 </r>
       <r>  -14.9559    1.0000 </r>
       <r>  -14.9468    1.0000 </r>
       <r>  -14.9380    1.0000 </r>
       <r>  -14.9358    1.0000 </r>
       <r>  -14.8564    1.0000 </r>
       <r>  -14.7537    1.0000 </r>
       <r>  -14.7521    1.0000 </r>
       <r>  -14.6208    1.0000 </r>
       <r>  -14.5702    1.0000 </r>
       <r>  -14.5559    1.0000 </r>
       <r>  -14.4586    1.0000 </r>
       <r>  -14.4455    1.0000 </r>
       <r>  -14.4429    1.0000 </r>
       <r>  -14.4293    1.0000 </r>
       <r>  -14.4247    1.0000 </r>
       <r>  -14.4204    1.0000 </r>
       <r>  -14.4159    1.0000 </r>
       <r>  -14.4144    1.0000 </r>
       <r>  -14.3556    1.0000 </r>
       <r>  -14.2468    1.0000 </r>
       <r>  -14.2420    1.0000 </r>
       <r>  -14.2394    1.0000 </r>
       <r>  -14.2391    1.0000 </r>
       <r>  -14.2012    1.0000 </r>
       <r>  -14.1922    1.0000 </r>
       <r>  -14.1679    1.0000 </r>
       <r>  -14.1661    1.0000 </r>
       <r>  -14.1214    1.0000 </r>
       <r>  -14.0361    1.0000 </r>
       <r>  -13.9968    1.0000 </r>
       <r>  -13.9947    1.0000 </r>
       <r>  -13.9466    1.0000 </r>
       <r>  -13.7941    1.0000 </r>
       <r>  -13.7364    1.0000 </r>
       <r>  -13.7130    1.0000 </r>
       <r>  -13.7095    1.0000 </r>
       <r>  -13.7077    1.0000 </r>
       <r>  -13.6962    1.0000 </r>
       <r>  -13.6942    1.0000 </r>
       <r>  -13.6738    1.0000 </r>
       <r>  -13.6728    1.0000 </r>
       <r>  -13.6079    1.0000 </r>
       <r>  -13.5312    1.0000 </r>
       <r>  -13.5310    1.0000 </r>
       <r>  -13.5155    1.0000 </r>
       <r>  -13.5150    1.0000 </r>
       <r>  -13.5053    1.0000 </r>
       <r>  -13.3598    1.0000 </r>
       <r>  -13.3379    1.0000 </r>
       <r>  -13.2558    1.0000 </r>
       <r>  -13.2236    1.0000 </r>
       <r>  -13.1145    1.0000 </r>
       <r>  -13.0606    1.0000 </r>
       <r>  -13.0531    1.0000 </r>
       <r>  -13.0510    1.0000 </r>
       <r>  -13.0440    1.0000 </r>
       <r>  -13.0396    1.0000 </r>
       <r>  -13.0363    1.0000 </r>
       <r>  -13.0349    1.0000 </r>
       <r>  -13.0324    1.0000 </r>
       <r>  -12.9773    1.0000 </r>
       <r>  -12.9316    1.0000 </r>
       <r>  -12.8888    1.0000 </r>
       <r>  -12.8845    1.0000 </r>
       <r>  -12.8817    1.0000 </r>
       <r>  -12.8800    1.0000 </r>
       <r>  -12.8772    1.0000 </r>
       <r>  -12.8739    1.0000 </r>
       <r>  -12.8731    1.0000 </r>
       <r>  -12.8711    1.0000 </r>
       <r>  -12.8697    1.0000 </r>
       <r>  -12.8678    1.0000 </r>
       <r>  -12.8633    1.0000 </r>
       <r>  -12.8619    1.0000 </r>
       <r>  -12.8607    1.0000 </r>
       <r>  -12.7161    1.0000 </r>
       <r>  -12.7141    1.0000 </r>
       <r>  -12.7137    1.0000 </r>
       <r>  -12.7136    1.0000 </r>
       <r>  -12.6824    1.0000 </r>
       <r>  -12.6101    1.0000 </r>
       <r>  -12.5926    1.0000 </r>
       <r>  -12.5849    1.0000 </r>
       <r>  -12.5682    1.0000 </r>
       <r>  -12.5536    1.0000 </r>
       <r>  -12.5330    1.0000 </r>
       <r>  -12.4984    1.0000 </r>
       <r>  -12.4378    1.0000 </r>
       <r>  -12.4319    1.0000 </r>
       <r>  -12.4244    1.0000 </r>
       <r>  -12.4200    1.0000 </r>
       <r>  -12.3369    1.0000 </r>
       <r>  -12.3327    1.0000 </r>
       <r>  -12.3291    1.0000 </r>
       <r>  -12.3238    1.0000 </r>
       <r>  -12.2450    1.0000 </r>
       <r>  -12.2421    1.0000 </r>
       <r>  -12.2401    1.0000 </r>
       <r>  -12.2365    1.0000 </r>
       <r>  -12.2160    1.0000 </r>
       <r>  -12.2149    1.0000 </r>
       <r>  -12.2090    1.0000 </r>
       <r>  -12.2074    1.0000 </r>
       <r>  -12.1768    1.0000 </r>
       <r>  -12.1768    1.0000 </r>
       <r>  -12.1703    1.0000 </r>
       <r>  -12.1701    1.0000 </r>
       <r>  -12.0959    1.0000 </r>
       <r>  -12.0959    1.0000 </r>
       <r>  -12.0895    1.0000 </r>
       <r>  -12.0870    1.0000 </r>
       <r>  -12.0863    1.0000 </r>
       <r>  -12.0846    1.0000 </r>
       <r>  -11.9500    1.0000 </r>
       <r>  -11.9478    1.0000 </r>
       <r>  -11.9463    1.0000 </r>
       <r>  -11.9440    1.0000 </r>
       <r>  -11.8160    1.0000 </r>
       <r>  -11.8152    1.0000 </r>
       <r>  -11.8088    1.0000 </r>
       <r>  -11.8080    1.0000 </r>
       <r>  -11.8066    1.0000 </r>
       <r>  -11.8056    1.0000 </r>
       <r>  -11.7833    1.0000 </r>
       <r>  -11.7831    1.0000 </r>
       <r>  -11.7793    1.0000 </r>
       <r>  -11.7789    1.0000 </r>
       <r>  -11.6687    1.0000 </r>
       <r>  -11.6686    1.0000 </r>
       <r>  -11.6611    1.0000 </r>
       <r>  -11.6611    1.0000 </r>
       <r>   -8.3630    1.0000 </r>
       <r>   -7.2840    1.0000 </r>
       <r>   -7.2707    1.0000 </r>
       <r>   -6.7935    1.0000 </r>
       <r>   -6.7045    1.0000 </r>
       <r>   -6.6827    1.0000 </r>
       <r>   -6.4380    1.0000 </r>
       <r>   -6.4061    1.0000 </r>
       <r>   -6.3223    1.0000 </r>
       <r>   -6.3087    1.0000 </r>
       <r>   -6.3061    1.0000 </r>
       <r>   -6.3056    1.0000 </r>
       <r>   -6.3011    1.0000 </r>
       <r>   -6.2876    1.0000 </r>
       <r>   -6.2731    1.0000 </r>
       <r>   -6.2718    1.0000 </r>
       <r>   -6.2709    1.0000 </r>
       <r>   -6.2692    1.0000 </r>
       <r>   -6.2164    1.0000 </r>
       <r>   -6.2139    1.0000 </r>
       <r>   -6.2130    1.0000 </r>
       <r>   -6.2041    1.0000 </r>
       <r>   -6.1982    1.0000 </r>
       <r>   -6.1959    1.0000 </r>
       <r>   -6.1590    1.0000 </r>
       <r>   -6.1588    1.0000 </r>
       <r>   -6.1488    1.0000 </r>
       <r>   -6.1487    1.0000 </r>
       <r>   -6.0724    1.0000 </r>
       <r>   -6.0710    1.0000 </r>
       <r>   -5.9333    1.0000 </r>
       <r>   -5.9311    1.0000 </r>
       <r>   -5.9072    1.0000 </r>
       <r>   -5.9055    1.0000 </r>
       <r>   -5.8438    1.0000 </r>
       <r>   -5.7895    1.0000 </r>
       <r>   -5.7817    1.0000 </r>
       <r>   -5.7742    1.0000 </r>
       <r>   -5.7685    1.0000 </r>
       <r>   -5.7649    1.0000 </r>
       <r>   -5.7642    1.0000 </r>
       <r>   -5.7638    1.0000 </r>
       <r>   -5.7628    1.0000 </r>
       <r>   -5.7566    1.0000 </r>
       <r>   -5.7519    1.0000 </r>
       <r>   -5.7513    1.0000 </r>
       <r>   -5.7431    1.0000 </r>
       <r>   -5.6846    1.0000 </r>
       <r>   -5.6545    1.0000 </r>
       <r>   -5.6420    1.0000 </r>
       <r>   -5.6230    1.0000 </r>
       <r>   -5.6230    1.0000 </r>
       <r>   -5.6195    1.0000 </r>
       <r>   -5.6195    1.0000 </r>
       <r>   -5.2268    1.0000 </r>
       <r>   -5.2267    1.0000 </r>
       <r>   -5.2247    1.0000 </r>
       <r>   -5.2236    1.0000 </r>
       <r>   -5.2214    1.0000 </r>
       <r>   -5.2210    1.0000 </r>
       <r>   -5.2208    1.0000 </r>
       <r>   -5.2203    1.0000 </r>
       <r>   -5.2194    1.0000 </r>
       <r>   -5.2190    1.0000 </r>
       <r>   -5.2182    1.0000 </r>
       <r>   -5.2178    1.0000 </r>
       <r>   -5.1151    1.0000 </r>
       <r>   -5.1103    1.0000 </r>
       <r>   -5.0907    1.0000 </r>
       <r>   -5.0906    1.0000 </r>
       <r>   -5.0878    1.0000 </r>
       <r>   -5.0877    1.0000 </r>
       <r>   -5.0873    1.0000 </r>
       <r>   -5.0871    1.0000 </r>
       <r>   -5.0260    1.0000 </r>
       <r>   -4.9211    1.0000 </r>
       <r>   -4.8319    1.0000 </r>
       <r>   -4.6118    1.0000 </r>
       <r>   -4.5541    1.0000 </r>
       <r>   -4.5411    1.0000 </r>
       <r>   -4.4765    1.0000 </r>
       <r>   -4.4728    1.0000 </r>
       <r>   -4.4724    1.0000 </r>
       <r>   -4.4709    1.0000 </r>
       <r>   -4.4703    1.0000 </r>
       <r>   -4.4686    1.0000 </r>
       <r>   -4.4677    1.0000 </r>
       <r>   -4.4662    1.0000 </r>
       <r>   -4.3414    1.0000 </r>
       <r>   -4.3411    1.0000 </r>
       <r>   -4.3407    1.0000 </r>
       <r>   -4.3406    1.0000 </r>
       <r>   -4.3173    1.0000 </r>
       <r>   -4.3164    1.0000 </r>
       <r>   -4.2018    1.0000 </r>
       <r>   -4.0978    1.0000 </r>
       <r>   -4.0899    1.0000 </r>
       <r>   -4.0868    1.0000 </r>
       <r>   -4.0855    1.0000 </r>
       <r>   -4.0838    1.0000 </r>
       <r>   -4.0737    1.0000 </r>
       <r>   -4.0732    1.0000 </r>
       <r>   -4.0712    1.0000 </r>
       <r>   -4.0698    1.0000 </r>
       <r>   -4.0287    1.0000 </r>
       <r>   -3.9502    1.0000 </r>
       <r>   -3.9501    1.0000 </r>
       <r>   -3.9465    1.0000 </r>
       <r>   -3.9464    1.0000 </r>
       <r>   -3.9094    1.0000 </r>
       <r>   -3.8654    1.0000 </r>
       <r>   -3.7858    1.0000 </r>
       <r>   -3.7507    1.0000 </r>
       <r>   -3.6249    1.0000 </r>
       <r>   -3.6237    1.0000 </r>
       <r>   -3.6164    1.0000 </r>
       <r>   -3.6154    1.0000 </r>
       <r>   -3.6030    1.0000 </r>
       <r>   -3.6021    1.0000 </r>
       <r>   -3.5978    1.0000 </r>
       <r>   -3.5966    1.0000 </r>
       <r>   -3.5163    1.0000 </r>
       <r>   -3.4798    1.0000 </r>
       <r>   -3.4795    1.0000 </r>
       <r>   -3.4781    1.0000 </r>
       <r>   -3.4739    1.0000 </r>
       <r>   -3.4738    1.0000 </r>
       <r>   -3.4694    1.0000 </r>
       <r>   -3.4674    1.0000 </r>
       <r>   -3.4659    1.0000 </r>
       <r>   -3.4631    1.0000 </r>
       <r>   -3.4504    1.0000 </r>
       <r>   -3.3494    1.0000 </r>
       <r>   -3.3383    1.0000 </r>
       <r>   -3.3382    1.0000 </r>
       <r>   -3.1559    1.0000 </r>
       <r>   -3.1306    1.0000 </r>
       <r>   -3.0974    1.0000 </r>
       <r>   -3.0782    1.0000 </r>
       <r>   -3.0749    1.0000 </r>
       <r>   -3.0696    1.0000 </r>
       <r>   -3.0689    1.0000 </r>
       <r>   -2.9928    1.0000 </r>
       <r>   -2.9383    1.0000 </r>
       <r>   -2.9375    1.0000 </r>
       <r>   -2.9323    1.0000 </r>
       <r>   -2.8557    1.0000 </r>
       <r>   -2.8107    1.0000 </r>
       <r>   -2.7784    1.0000 </r>
       <r>   -2.7706    1.0000 </r>
       <r>   -2.7697    1.0000 </r>
       <r>   -2.7564    1.0000 </r>
       <r>   -2.7532    1.0000 </r>
       <r>   -2.7359    1.0000 </r>
       <r>   -2.7263    1.0000 </r>
       <r>   -2.6821    1.0000 </r>
       <r>   -2.6794    1.0000 </r>
       <r>   -2.6689    1.0000 </r>
       <r>   -2.6673    1.0000 </r>
       <r>   -2.6661    1.0000 </r>
       <r>   -2.5440    1.0000 </r>
       <r>   -2.5438    1.0000 </r>
       <r>   -2.5232    1.0000 </r>
       <r>   -2.5229    1.0000 </r>
       <r>   -2.5122    1.0000 </r>
       <r>   -2.4608    1.0000 </r>
       <r>   -2.4254    1.0000 </r>
       <r>   -2.4157    1.0000 </r>
       <r>   -2.3848    1.0000 </r>
       <r>   -2.3791    1.0000 </r>
       <r>   -2.3762    1.0000 </r>
       <r>   -2.3743    1.0000 </r>
       <r>   -2.3738    1.0000 </r>
       <r>   -2.3724    1.0000 </r>
       <r>   -2.3701    1.0000 </r>
       <r>   -2.3697    1.0000 </r>
       <r>   -2.3673    1.0000 </r>
       <r>   -2.3603    1.0000 </r>
       <r>   -2.3584    1.0000 </r>
       <r>   -2.3554    1.0000 </r>
       <r>   -2.3294    1.0000 </r>
       <r>   -2.2676    1.0000 </r>
       <r>   -2.2410    1.0000 </r>
       <r>   -2.2406    1.0000 </r>
       <r>   -2.2403    1.0000 </r>
       <r>   -2.2399    1.0000 </r>
       <r>   -2.2117    1.0000 </r>
       <r>   -2.1750    1.0000 </r>
       <r>   -2.1455    1.0000 </r>
       <r>   -2.1300    1.0000 </r>
       <r>   -2.0913    1.0000 </r>
       <r>   -2.0888    1.0000 </r>
       <r>   -2.0883    1.0000 </r>
       <r>   -2.0867    1.0000 </r>
       <r>   -2.0546    1.0000 </r>
       <r>   -2.0542    1.0000 </r>
       <r>   -2.0525    1.0000 </r>
       <r>   -2.0521    1.0000 </r>
       <r>   -2.0414    1.0000 </r>
       <r>   -2.0317    1.0000 </r>
       <r>   -2.0109    1.0000 </r>
       <r>   -2.0097    1.0000 </r>
       <r>   -1.9825    1.0000 </r>
       <r>   -1.9432    1.0000 </r>
       <r>   -1.9431    1.0000 </r>
       <r>   -1.9328    1.0000 </r>
       <r>   -1.9327    1.0000 </r>
       <r>   -1.8965    1.0000 </r>
       <r>   -1.8693    1.0000 </r>
       <r>   -1.8685    1.0000 </r>
       <r>   -1.8672    1.0000 </r>
       <r>   -1.8656    1.0000 </r>
       <r>   -1.8579    1.0000 </r>
       <r>   -1.8550    1.0000 </r>
       <r>   -1.8234    1.0000 </r>
       <r>   -1.8205    1.0000 </r>
       <r>   -1.8168    1.0000 </r>
       <r>   -1.8147    1.0000 </r>
       <r>   -1.7858    1.0000 </r>
       <r>   -1.7784    1.0000 </r>
       <r>   -1.7774    1.0000 </r>
       <r>   -1.7763    1.0000 </r>
       <r>   -1.7759    1.0000 </r>
       <r>   -1.7757    1.0000 </r>
       <r>   -1.7749    1.0000 </r>
       <r>   -1.7744    1.0000 </r>
       <r>   -1.7698    1.0000 </r>
       <r>   -1.7167    1.0000 </r>
       <r>   -1.7086    1.0000 </r>
       <r>   -1.7085    1.0000 </r>
       <r>   -1.6962    1.0000 </r>
       <r>   -1.6605    1.0000 </r>
       <r>   -1.6508    1.0000 </r>
       <r>   -1.6453    1.0000 </r>
       <r>   -1.6452    1.0000 </r>
       <r>   -1.6448    1.0000 </r>
       <r>   -1.6448    1.0000 </r>
       <r>   -1.6346    1.0000 </r>
       <r>   -1.6159    1.0000 </r>
       <r>   -1.6129    1.0000 </r>
       <r>   -1.6056    1.0000 </r>
       <r>   -1.6036    1.0000 </r>
       <r>   -1.5856    1.0000 </r>
       <r>   -1.5816    1.0000 </r>
       <r>   -1.5801    1.0000 </r>
       <r>   -1.5663    1.0000 </r>
       <r>   -1.5660    1.0000 </r>
       <r>   -1.5584    1.0000 </r>
       <r>   -1.5536    1.0000 </r>
       <r>   -1.5512    1.0000 </r>
       <r>   -1.4913    1.0000 </r>
       <r>   -1.4560    1.0000 </r>
       <r>   -1.4413    1.0000 </r>
       <r>   -1.4314    1.0000 </r>
       <r>   -1.3510    1.0000 </r>
       <r>   -1.3480    1.0000 </r>
       <r>   -1.3394    1.0000 </r>
       <r>   -1.3380    1.0000 </r>
       <r>   -1.2308    1.0000 </r>
       <r>   -1.2283    1.0000 </r>
       <r>   -1.2268    1.0000 </r>
       <r>   -1.2235    1.0000 </r>
       <r>   -1.2114    1.0000 </r>
       <r>   -1.2110    1.0000 </r>
       <r>   -1.2089    1.0000 </r>
       <r>   -1.2072    1.0000 </r>
       <r>   -1.1910    1.0000 </r>
       <r>   -1.0915    1.0000 </r>
       <r>   -1.0914    1.0000 </r>
       <r>   -1.0859    1.0000 </r>
       <r>   -1.0859    1.0000 </r>
       <r>   -1.0521    1.0000 </r>
       <r>   -1.0270    1.0000 </r>
       <r>   -1.0141    1.0000 </r>
       <r>   -0.9785    1.0000 </r>
       <r>   -0.9332    1.0000 </r>
       <r>   -0.8689    1.0000 </r>
       <r>   -0.8465    1.0000 </r>
       <r>   -0.7810    1.0000 </r>
       <r>   -0.7786    1.0000 </r>
       <r>   -0.7574    1.0000 </r>
       <r>   -0.7246    1.0000 </r>
       <r>   -0.7179    1.0000 </r>
       <r>   -0.7134    1.0000 </r>
       <r>   -0.7116    1.0000 </r>
       <r>   -0.7100    1.0000 </r>
       <r>   -0.6781    1.0000 </r>
       <r>   -0.6765    1.0000 </r>
       <r>   -0.6741    1.0000 </r>
       <r>   -0.6740    1.0000 </r>
       <r>   -0.6633    1.0000 </r>
       <r>   -0.6575    1.0000 </r>
       <r>   -0.6560    1.0000 </r>
       <r>   -0.6262    1.0000 </r>
       <r>   -0.5202    1.0000 </r>
       <r>   -0.5174    1.0000 </r>
       <r>   -0.5158    1.0000 </r>
       <r>   -0.5153    1.0000 </r>
       <r>   -0.4615    1.0000 </r>
       <r>   -0.4600    1.0000 </r>
       <r>   -0.4584    1.0000 </r>
       <r>   -0.4563    1.0000 </r>
       <r>   -0.4559    1.0000 </r>
       <r>   -0.4545    1.0000 </r>
       <r>   -0.4510    1.0000 </r>
       <r>   -0.4506    1.0000 </r>
       <r>   -0.4399    1.0000 </r>
       <r>   -0.4129    1.0000 </r>
       <r>   -0.3840    1.0000 </r>
       <r>   -0.3835    1.0000 </r>
       <r>   -0.3834    1.0000 </r>
       <r>   -0.3713    1.0000 </r>
       <r>   -0.3582    1.0000 </r>
       <r>   -0.3548    1.0000 </r>
       <r>   -0.3537    1.0000 </r>
       <r>   -0.3475    1.0000 </r>
       <r>   -0.3436    1.0000 </r>
       <r>   -0.3425    1.0000 </r>
       <r>   -0.3269    1.0000 </r>
       <r>   -0.3264    1.0000 </r>
       <r>   -0.3262    1.0000 </r>
       <r>   -0.3257    1.0000 </r>
       <r>   -0.2800    1.0000 </r>
       <r>   -0.2256    1.0000 </r>
       <r>   -0.2249    1.0000 </r>
       <r>   -0.1259    1.0000 </r>
       <r>   -0.0464    1.0000 </r>
       <r>    0.0033    1.0000 </r>
       <r>    0.0422    1.0000 </r>
       <r>    0.1176    1.0000 </r>
       <r>    0.1519    1.0000 </r>
       <r>    0.1547    1.0000 </r>
       <r>    0.1666    1.0000 </r>
       <r>    0.1860    1.0000 </r>
       <r>    0.1989    1.0000 </r>
       <r>    0.2127    1.0000 </r>
       <r>    0.2131    1.0000 </r>
       <r>    0.2181    1.0000 </r>
       <r>    0.2208    1.0000 </r>
       <r>    0.2381    1.0000 </r>
       <r>    0.2422    1.0000 </r>
       <r>    0.2864    1.0000 </r>
       <r>    0.3095    1.0000 </r>
       <r>    0.3158    1.0000 </r>
       <r>    0.3439    1.0000 </r>
       <r>    0.3454    1.0000 </r>
       <r>    0.3496    1.0000 </r>
       <r>    0.3527    1.0000 </r>
       <r>    0.3652    1.0000 </r>
       <r>    0.3760    1.0000 </r>
       <r>    0.3940    1.0000 </r>
       <r>    0.4523    1.0000 </r>
       <r>    0.4578    1.0000 </r>
       <r>    0.4597    1.0000 </r>
       <r>    0.4624    1.0000 </r>
       <r>    0.4640    1.0000 </r>
       <r>    0.4660    1.0000 </r>
       <r>    0.4765    1.0000 </r>
       <r>    0.4773    1.0000 </r>
       <r>    0.5565    1.0000 </r>
       <r>    0.5621    1.0000 </r>
       <r>    0.5657    1.0000 </r>
       <r>    0.5863    1.0000 </r>
       <r>    0.5913    1.0000 </r>
       <r>    0.6845    1.0000 </r>
       <r>    0.6934    1.0000 </r>
       <r>    0.7008    1.0000 </r>
       <r>    0.7032    1.0000 </r>
       <r>    0.7237    1.0000 </r>
       <r>    0.8073    1.0000 </r>
       <r>    0.8095    1.0000 </r>
       <r>    0.8393    1.0000 </r>
       <r>    0.8500    1.0000 </r>
       <r>    0.8558    1.0000 </r>
       <r>    0.8786    1.0000 </r>
       <r>    0.8844    1.0000 </r>
       <r>    0.8854    1.0000 </r>
       <r>    0.9168    1.0000 </r>
       <r>    0.9916    1.0000 </r>
       <r>    0.9924    1.0000 </r>
       <r>    0.9935    1.0000 </r>
       <r>    1.0028    1.0000 </r>
       <r>    1.0197    1.0000 </r>
       <r>    1.0324    1.0000 </r>
       <r>    1.0822    1.0000 </r>
       <r>    1.0975    1.0000 </r>
       <r>    1.2068    1.0000 </r>
       <r>    1.2071    1.0000 </r>
       <r>    1.2151    1.0000 </r>
       <r>    1.2326    1.0000 </r>
       <r>    1.2450    1.0000 </r>
       <r>    1.2451    1.0000 </r>
       <r>    1.2547    1.0000 </r>
       <r>    1.2594    1.0000 </r>
       <r>    1.3153    1.0000 </r>
       <r>    1.3158    1.0000 </r>
       <r>    1.3659    1.0000 </r>
       <r>    1.3666    1.0000 </r>
       <r>    1.4007    1.0000 </r>
       <r>    1.4050    1.0000 </r>
       <r>    1.4412    1.0000 </r>
       <r>    1.4417    1.0000 </r>
       <r>    1.4977    1.0000 </r>
       <r>    1.5009    1.0000 </r>
       <r>    1.5365    1.0000 </r>
       <r>    1.5777    1.0000 </r>
       <r>    1.5890    1.0000 </r>
       <r>    1.5891    1.0000 </r>
       <r>    1.7633    1.0000 </r>
       <r>    1.7690    1.0000 </r>
       <r>    1.8455    1.0000 </r>
       <r>    1.8560    1.0000 </r>
       <r>    1.8596    1.0000 </r>
       <r>    1.8601    1.0000 </r>
       <r>    1.9181    1.0000 </r>
       <r>    1.9256    1.0000 </r>
       <r>    1.9538    1.0000 </r>
       <r>    1.9597    1.0000 </r>
       <r>    1.9796    1.0000 </r>
       <r>    1.9800    1.0000 </r>
       <r>    2.0237    1.0000 </r>
       <r>    2.0244    1.0000 </r>
       <r>    2.0619    1.0000 </r>
       <r>    2.0672    1.0000 </r>
       <r>    2.0977    1.0000 </r>
       <r>    2.0979    1.0000 </r>
       <r>    2.2230    1.0000 </r>
       <r>    2.2309    1.0000 </r>
       <r>    2.3986    1.0000 </r>
       <r>    2.3997    1.0000 </r>
       <r>    2.4039    1.0000 </r>
       <r>    2.4060    1.0000 </r>
       <r>    4.6620    1.0000 </r>
       <r>    5.8856    0.0000 </r>
       <r>    6.6169    0.0000 </r>
       <r>    6.6376    0.0000 </r>
       <r>    6.6378    0.0000 </r>
       <r>    6.8798    0.0000 </r>
       <r>    6.9267    0.0000 </r>
       <r>    6.9916    0.0000 </r>
       <r>    7.0035    0.0000 </r>
       <r>    7.0782    0.0000 </r>
       <r>    7.0874    0.0000 </r>
       <r>    7.1517    0.0000 </r>
       <r>    7.2123    0.0000 </r>
       <r>    7.2126    0.0000 </r>
       <r>    7.2288    0.0000 </r>
       <r>    7.2433    0.0000 </r>
       <r>    7.2821    0.0000 </r>
       <r>    7.2975    0.0000 </r>
       <r>    7.3053    0.0000 </r>
       <r>    7.3283    0.0000 </r>
       <r>    7.3337    0.0000 </r>
       <r>    7.3386    0.0000 </r>
       <r>    7.3433    0.0000 </r>
       <r>    7.3436    0.0000 </r>
       <r>    7.3605    0.0000 </r>
       <r>    7.3618    0.0000 </r>
       <r>    7.3806    0.0000 </r>
       <r>    7.3840    0.0000 </r>
       <r>    7.3909    0.0000 </r>
       <r>    7.3946    0.0000 </r>
       <r>    7.4298    0.0000 </r>
       <r>    7.4316    0.0000 </r>
       <r>    7.4588    0.0000 </r>
       <r>    7.6865    0.0000 </r>
       <r>    7.7391    0.0000 </r>
       <r>    7.7418    0.0000 </r>
       <r>    7.7454    0.0000 </r>
       <r>    7.7913    0.0000 </r>
       <r>    7.8210    0.0000 </r>
       <r>    7.8450    0.0000 </r>
       <r>    7.8749    0.0000 </r>
       <r>    7.8894    0.0000 </r>
       <r>    7.9079    0.0000 </r>
       <r>    7.9137    0.0000 </r>
       <r>    7.9199    0.0000 </r>
       <r>    7.9422    0.0000 </r>
       <r>    7.9668    0.0000 </r>
       <r>    8.0628    0.0000 </r>
       <r>    8.1096    0.0000 </r>
       <r>    8.1658    0.0000 </r>
       <r>    8.1702    0.0000 </r>
       <r>    8.1709    0.0000 </r>
       <r>    8.1854    0.0000 </r>
       <r>    8.2088    0.0000 </r>
       <r>    8.2214    0.0000 </r>
       <r>    8.2227    0.0000 </r>
       <r>    8.2333    0.0000 </r>
       <r>    8.2407    0.0000 </r>
       <r>    8.2552    0.0000 </r>
       <r>    8.2829    0.0000 </r>
       <r>    8.3928    0.0000 </r>
       <r>    8.5604    0.0000 </r>
       <r>    8.5802    0.0000 </r>
       <r>    8.5917    0.0000 </r>
       <r>    8.6326    0.0000 </r>
       <r>    8.6340    0.0000 </r>
       <r>    8.6449    0.0000 </r>
       <r>    8.6596    0.0000 </r>
       <r>    8.6689    0.0000 </r>
       <r>    8.6801    0.0000 </r>
       <r>    8.6876    0.0000 </r>
       <r>    8.6896    0.0000 </r>
       <r>    8.7313    0.0000 </r>
       <r>    8.8812    0.0000 </r>
       <r>    8.9558    0.0000 </r>
       <r>    8.9909    0.0000 </r>
       <r>    8.9979    0.0000 </r>
       <r>    9.0084    0.0000 </r>
       <r>    9.0563    0.0000 </r>
       <r>    9.1247    0.0000 </r>
       <r>    9.2086    0.0000 </r>
       <r>    9.2400    0.0000 </r>
       <r>    9.2653    0.0000 </r>
       <r>    9.2668    0.0000 </r>
       <r>    9.2698    0.0000 </r>
       <r>    9.2803    0.0000 </r>
       <r>    9.2952    0.0000 </r>
       <r>    9.2988    0.0000 </r>
       <r>    9.3036    0.0000 </r>
       <r>    9.3195    0.0000 </r>
       <r>    9.3240    0.0000 </r>
       <r>    9.3271    0.0000 </r>
       <r>    9.3302    0.0000 </r>
       <r>    9.3554    0.0000 </r>
       <r>    9.3984    0.0000 </r>
       <r>    9.4734    0.0000 </r>
       <r>    9.6114    0.0000 </r>
       <r>    9.6274    0.0000 </r>
       <r>    9.6816    0.0000 </r>
       <r>    9.6900    0.0000 </r>
       <r>    9.6907    0.0000 </r>
       <r>    9.7179    0.0000 </r>
       <r>    9.8766    0.0000 </r>
       <r>   10.0649    0.0000 </r>
       <r>   10.0889    0.0000 </r>
       <r>   10.0902    0.0000 </r>
       <r>   10.1016    0.0000 </r>
       <r>   10.1411    0.0000 </r>
       <r>   10.1713    0.0000 </r>
       <r>   10.1747    0.0000 </r>
       <r>   10.1882    0.0000 </r>
       <r>   10.1974    0.0000 </r>
       <r>   10.2283    0.0000 </r>
       <r>   10.2349    0.0000 </r>
       <r>   10.2829    0.0000 </r>
       <r>   10.3009    0.0000 </r>
       <r>   10.3036    0.0000 </r>
       <r>   10.3756    0.0000 </r>
       <r>   10.3796    0.0000 </r>
       <r>   10.3892    0.0000 </r>
       <r>   10.3942    0.0000 </r>
       <r>   10.4124    0.0000 </r>
       <r>   10.4362    0.0000 </r>
       <r>   10.4419    0.0000 </r>
       <r>   10.4649    0.0000 </r>
       <r>   10.5072    0.0000 </r>
       <r>   10.5275    0.0000 </r>
       <r>   10.6262    0.0000 </r>
       <r>   10.6684    0.0000 </r>
       <r>   10.7183    0.0000 </r>
       <r>   10.7205    0.0000 </r>
       <r>   10.7242    0.0000 </r>
       <r>   10.7319    0.0000 </r>
       <r>   10.7513    0.0000 </r>
       <r>   10.7577    0.0000 </r>
       <r>   10.7633    0.0000 </r>
       <r>   10.7838    0.0000 </r>
       <r>   10.7876    0.0000 </r>
       <r>   10.7926    0.0000 </r>
       <r>   10.8137    0.0000 </r>
       <r>   10.8149    0.0000 </r>
       <r>   11.2378    0.0000 </r>
       <r>   11.2591    0.0000 </r>
       <r>   11.4791    0.0000 </r>
       <r>   11.5643    0.0000 </r>
       <r>   11.6268    0.0000 </r>
       <r>   11.6749    0.0000 </r>
       <r>   11.7082    0.0000 </r>
       <r>   11.7402    0.0000 </r>
       <r>   11.7757    0.0000 </r>
       <r>   11.7934    0.0000 </r>
       <r>   11.8284    0.0000 </r>
      </set>
      <set comment="kpoint 4">
       <r>  -17.2936    1.0000 </r>
       <r>  -15.7756    1.0000 </r>
       <r>  -15.7301    1.0000 </r>
       <r>  -15.4199    1.0000 </r>
       <r>  -15.3141    1.0000 </r>
       <r>  -15.2491    1.0000 </r>
       <r>  -15.2280    1.0000 </r>
       <r>  -15.1969    1.0000 </r>
       <r>  -15.1891    1.0000 </r>
       <r>  -15.1020    1.0000 </r>
       <r>  -15.0679    1.0000 </r>
       <r>  -15.0256    1.0000 </r>
       <r>  -15.0080    1.0000 </r>
       <r>  -14.9555    1.0000 </r>
       <r>  -14.9468    1.0000 </r>
       <r>  -14.9374    1.0000 </r>
       <r>  -14.9357    1.0000 </r>
       <r>  -14.8566    1.0000 </r>
       <r>  -14.7535    1.0000 </r>
       <r>  -14.7521    1.0000 </r>
       <r>  -14.6206    1.0000 </r>
       <r>  -14.5699    1.0000 </r>
       <r>  -14.5555    1.0000 </r>
       <r>  -14.4589    1.0000 </r>
       <r>  -14.4455    1.0000 </r>
       <r>  -14.4431    1.0000 </r>
       <r>  -14.4293    1.0000 </r>
       <r>  -14.4249    1.0000 </r>
       <r>  -14.4203    1.0000 </r>
       <r>  -14.4161    1.0000 </r>
       <r>  -14.4146    1.0000 </r>
       <r>  -14.3550    1.0000 </r>
       <r>  -14.2469    1.0000 </r>
       <r>  -14.2421    1.0000 </r>
       <r>  -14.2395    1.0000 </r>
       <r>  -14.2392    1.0000 </r>
       <r>  -14.2011    1.0000 </r>
       <r>  -14.1921    1.0000 </r>
       <r>  -14.1678    1.0000 </r>
       <r>  -14.1662    1.0000 </r>
       <r>  -14.1215    1.0000 </r>
       <r>  -14.0364    1.0000 </r>
       <r>  -13.9968    1.0000 </r>
       <r>  -13.9947    1.0000 </r>
       <r>  -13.9470    1.0000 </r>
       <r>  -13.7938    1.0000 </r>
       <r>  -13.7353    1.0000 </r>
       <r>  -13.7120    1.0000 </r>
       <r>  -13.7081    1.0000 </r>
       <r>  -13.7062    1.0000 </r>
       <r>  -13.6973    1.0000 </r>
       <r>  -13.6950    1.0000 </r>
       <r>  -13.6752    1.0000 </r>
       <r>  -13.6737    1.0000 </r>
       <r>  -13.6082    1.0000 </r>
       <r>  -13.5305    1.0000 </r>
       <r>  -13.5302    1.0000 </r>
       <r>  -13.5161    1.0000 </r>
       <r>  -13.5157    1.0000 </r>
       <r>  -13.5056    1.0000 </r>
       <r>  -13.3597    1.0000 </r>
       <r>  -13.3379    1.0000 </r>
       <r>  -13.2556    1.0000 </r>
       <r>  -13.2234    1.0000 </r>
       <r>  -13.1146    1.0000 </r>
       <r>  -13.0601    1.0000 </r>
       <r>  -13.0542    1.0000 </r>
       <r>  -13.0507    1.0000 </r>
       <r>  -13.0437    1.0000 </r>
       <r>  -13.0398    1.0000 </r>
       <r>  -13.0372    1.0000 </r>
       <r>  -13.0358    1.0000 </r>
       <r>  -13.0324    1.0000 </r>
       <r>  -12.9767    1.0000 </r>
       <r>  -12.9315    1.0000 </r>
       <r>  -12.8886    1.0000 </r>
       <r>  -12.8845    1.0000 </r>
       <r>  -12.8820    1.0000 </r>
       <r>  -12.8801    1.0000 </r>
       <r>  -12.8766    1.0000 </r>
       <r>  -12.8736    1.0000 </r>
       <r>  -12.8730    1.0000 </r>
       <r>  -12.8716    1.0000 </r>
       <r>  -12.8687    1.0000 </r>
       <r>  -12.8669    1.0000 </r>
       <r>  -12.8637    1.0000 </r>
       <r>  -12.8628    1.0000 </r>
       <r>  -12.8610    1.0000 </r>
       <r>  -12.7160    1.0000 </r>
       <r>  -12.7140    1.0000 </r>
       <r>  -12.7138    1.0000 </r>
       <r>  -12.7136    1.0000 </r>
       <r>  -12.6819    1.0000 </r>
       <r>  -12.6100    1.0000 </r>
       <r>  -12.5908    1.0000 </r>
       <r>  -12.5830    1.0000 </r>
       <r>  -12.5704    1.0000 </r>
       <r>  -12.5562    1.0000 </r>
       <r>  -12.5338    1.0000 </r>
       <r>  -12.4993    1.0000 </r>
       <r>  -12.4379    1.0000 </r>
       <r>  -12.4316    1.0000 </r>
       <r>  -12.4244    1.0000 </r>
       <r>  -12.4202    1.0000 </r>
       <r>  -12.3356    1.0000 </r>
       <r>  -12.3319    1.0000 </r>
       <r>  -12.3277    1.0000 </r>
       <r>  -12.3229    1.0000 </r>
       <r>  -12.2431    1.0000 </r>
       <r>  -12.2415    1.0000 </r>
       <r>  -12.2380    1.0000 </r>
       <r>  -12.2358    1.0000 </r>
       <r>  -12.2172    1.0000 </r>
       <r>  -12.2171    1.0000 </r>
       <r>  -12.2105    1.0000 </r>
       <r>  -12.2095    1.0000 </r>
       <r>  -12.1767    1.0000 </r>
       <r>  -12.1766    1.0000 </r>
       <r>  -12.1696    1.0000 </r>
       <r>  -12.1694    1.0000 </r>
       <r>  -12.0955    1.0000 </r>
       <r>  -12.0955    1.0000 </r>
       <r>  -12.0898    1.0000 </r>
       <r>  -12.0876    1.0000 </r>
       <r>  -12.0868    1.0000 </r>
       <r>  -12.0850    1.0000 </r>
       <r>  -11.9502    1.0000 </r>
       <r>  -11.9481    1.0000 </r>
       <r>  -11.9474    1.0000 </r>
       <r>  -11.9450    1.0000 </r>
       <r>  -11.8157    1.0000 </r>
       <r>  -11.8150    1.0000 </r>
       <r>  -11.8065    1.0000 </r>
       <r>  -11.8056    1.0000 </r>
       <r>  -11.8043    1.0000 </r>
       <r>  -11.8027    1.0000 </r>
       <r>  -11.7855    1.0000 </r>
       <r>  -11.7848    1.0000 </r>
       <r>  -11.7814    1.0000 </r>
       <r>  -11.7810    1.0000 </r>
       <r>  -11.6682    1.0000 </r>
       <r>  -11.6682    1.0000 </r>
       <r>  -11.6615    1.0000 </r>
       <r>  -11.6615    1.0000 </r>
       <r>   -8.3630    1.0000 </r>
       <r>   -7.2839    1.0000 </r>
       <r>   -7.2707    1.0000 </r>
       <r>   -6.7937    1.0000 </r>
       <r>   -6.7049    1.0000 </r>
       <r>   -6.6829    1.0000 </r>
       <r>   -6.4377    1.0000 </r>
       <r>   -6.4060    1.0000 </r>
       <r>   -6.3217    1.0000 </r>
       <r>   -6.3071    1.0000 </r>
       <r>   -6.3048    1.0000 </r>
       <r>   -6.3038    1.0000 </r>
       <r>   -6.2997    1.0000 </r>
       <r>   -6.2873    1.0000 </r>
       <r>   -6.2752    1.0000 </r>
       <r>   -6.2723    1.0000 </r>
       <r>   -6.2718    1.0000 </r>
       <r>   -6.2707    1.0000 </r>
       <r>   -6.2163    1.0000 </r>
       <r>   -6.2142    1.0000 </r>
       <r>   -6.2134    1.0000 </r>
       <r>   -6.2049    1.0000 </r>
       <r>   -6.1986    1.0000 </r>
       <r>   -6.1959    1.0000 </r>
       <r>   -6.1584    1.0000 </r>
       <r>   -6.1583    1.0000 </r>
       <r>   -6.1493    1.0000 </r>
       <r>   -6.1492    1.0000 </r>
       <r>   -6.0724    1.0000 </r>
       <r>   -6.0711    1.0000 </r>
       <r>   -5.9322    1.0000 </r>
       <r>   -5.9298    1.0000 </r>
       <r>   -5.9096    1.0000 </r>
       <r>   -5.9073    1.0000 </r>
       <r>   -5.8440    1.0000 </r>
       <r>   -5.7891    1.0000 </r>
       <r>   -5.7821    1.0000 </r>
       <r>   -5.7738    1.0000 </r>
       <r>   -5.7675    1.0000 </r>
       <r>   -5.7645    1.0000 </r>
       <r>   -5.7636    1.0000 </r>
       <r>   -5.7632    1.0000 </r>
       <r>   -5.7619    1.0000 </r>
       <r>   -5.7571    1.0000 </r>
       <r>   -5.7526    1.0000 </r>
       <r>   -5.7518    1.0000 </r>
       <r>   -5.7433    1.0000 </r>
       <r>   -5.6847    1.0000 </r>
       <r>   -5.6547    1.0000 </r>
       <r>   -5.6422    1.0000 </r>
       <r>   -5.6227    1.0000 </r>
       <r>   -5.6227    1.0000 </r>
       <r>   -5.6198    1.0000 </r>
       <r>   -5.6197    1.0000 </r>
       <r>   -5.2268    1.0000 </r>
       <r>   -5.2254    1.0000 </r>
       <r>   -5.2241    1.0000 </r>
       <r>   -5.2235    1.0000 </r>
       <r>   -5.2220    1.0000 </r>
       <r>   -5.2214    1.0000 </r>
       <r>   -5.2208    1.0000 </r>
       <r>   -5.2203    1.0000 </r>
       <r>   -5.2188    1.0000 </r>
       <r>   -5.2184    1.0000 </r>
       <r>   -5.2181    1.0000 </r>
       <r>   -5.2166    1.0000 </r>
       <r>   -5.1150    1.0000 </r>
       <r>   -5.1105    1.0000 </r>
       <r>   -5.0908    1.0000 </r>
       <r>   -5.0906    1.0000 </r>
       <r>   -5.0877    1.0000 </r>
       <r>   -5.0877    1.0000 </r>
       <r>   -5.0873    1.0000 </r>
       <r>   -5.0871    1.0000 </r>
       <r>   -5.0260    1.0000 </r>
       <r>   -4.9209    1.0000 </r>
       <r>   -4.8318    1.0000 </r>
       <r>   -4.6116    1.0000 </r>
       <r>   -4.5544    1.0000 </r>
       <r>   -4.5413    1.0000 </r>
       <r>   -4.4758    1.0000 </r>
       <r>   -4.4736    1.0000 </r>
       <r>   -4.4727    1.0000 </r>
       <r>   -4.4718    1.0000 </r>
       <r>   -4.4710    1.0000 </r>
       <r>   -4.4691    1.0000 </r>
       <r>   -4.4687    1.0000 </r>
       <r>   -4.4678    1.0000 </r>
       <r>   -4.3413    1.0000 </r>
       <r>   -4.3410    1.0000 </r>
       <r>   -4.3408    1.0000 </r>
       <r>   -4.3407    1.0000 </r>
       <r>   -4.3173    1.0000 </r>
       <r>   -4.3162    1.0000 </r>
       <r>   -4.2017    1.0000 </r>
       <r>   -4.0978    1.0000 </r>
       <r>   -4.0871    1.0000 </r>
       <r>   -4.0867    1.0000 </r>
       <r>   -4.0848    1.0000 </r>
       <r>   -4.0830    1.0000 </r>
       <r>   -4.0771    1.0000 </r>
       <r>   -4.0737    1.0000 </r>
       <r>   -4.0728    1.0000 </r>
       <r>   -4.0707    1.0000 </r>
       <r>   -4.0289    1.0000 </r>
       <r>   -3.9500    1.0000 </r>
       <r>   -3.9499    1.0000 </r>
       <r>   -3.9467    1.0000 </r>
       <r>   -3.9467    1.0000 </r>
       <r>   -3.9091    1.0000 </r>
       <r>   -3.8653    1.0000 </r>
       <r>   -3.7855    1.0000 </r>
       <r>   -3.7515    1.0000 </r>
       <r>   -3.6228    1.0000 </r>
       <r>   -3.6209    1.0000 </r>
       <r>   -3.6149    1.0000 </r>
       <r>   -3.6134    1.0000 </r>
       <r>   -3.6039    1.0000 </r>
       <r>   -3.6027    1.0000 </r>
       <r>   -3.5988    1.0000 </r>
       <r>   -3.5975    1.0000 </r>
       <r>   -3.5148    1.0000 </r>
       <r>   -3.4796    1.0000 </r>
       <r>   -3.4792    1.0000 </r>
       <r>   -3.4778    1.0000 </r>
       <r>   -3.4741    1.0000 </r>
       <r>   -3.4740    1.0000 </r>
       <r>   -3.4702    1.0000 </r>
       <r>   -3.4679    1.0000 </r>
       <r>   -3.4661    1.0000 </r>
       <r>   -3.4641    1.0000 </r>
       <r>   -3.4503    1.0000 </r>
       <r>   -3.3496    1.0000 </r>
       <r>   -3.3383    1.0000 </r>
       <r>   -3.3382    1.0000 </r>
       <r>   -3.1560    1.0000 </r>
       <r>   -3.1312    1.0000 </r>
       <r>   -3.0973    1.0000 </r>
       <r>   -3.0757    1.0000 </r>
       <r>   -3.0736    1.0000 </r>
       <r>   -3.0695    1.0000 </r>
       <r>   -3.0682    1.0000 </r>
       <r>   -2.9931    1.0000 </r>
       <r>   -2.9382    1.0000 </r>
       <r>   -2.9375    1.0000 </r>
       <r>   -2.9327    1.0000 </r>
       <r>   -2.8559    1.0000 </r>
       <r>   -2.8099    1.0000 </r>
       <r>   -2.7790    1.0000 </r>
       <r>   -2.7705    1.0000 </r>
       <r>   -2.7698    1.0000 </r>
       <r>   -2.7567    1.0000 </r>
       <r>   -2.7542    1.0000 </r>
       <r>   -2.7365    1.0000 </r>
       <r>   -2.7262    1.0000 </r>
       <r>   -2.6832    1.0000 </r>
       <r>   -2.6806    1.0000 </r>
       <r>   -2.6700    1.0000 </r>
       <r>   -2.6675    1.0000 </r>
       <r>   -2.6674    1.0000 </r>
       <r>   -2.5441    1.0000 </r>
       <r>   -2.5438    1.0000 </r>
       <r>   -2.5230    1.0000 </r>
       <r>   -2.5223    1.0000 </r>
       <r>   -2.5123    1.0000 </r>
       <r>   -2.4608    1.0000 </r>
       <r>   -2.4249    1.0000 </r>
       <r>   -2.4158    1.0000 </r>
       <r>   -2.3851    1.0000 </r>
       <r>   -2.3769    1.0000 </r>
       <r>   -2.3746    1.0000 </r>
       <r>   -2.3740    1.0000 </r>
       <r>   -2.3729    1.0000 </r>
       <r>   -2.3720    1.0000 </r>
       <r>   -2.3702    1.0000 </r>
       <r>   -2.3696    1.0000 </r>
       <r>   -2.3662    1.0000 </r>
       <r>   -2.3601    1.0000 </r>
       <r>   -2.3581    1.0000 </r>
       <r>   -2.3556    1.0000 </r>
       <r>   -2.3290    1.0000 </r>
       <r>   -2.2676    1.0000 </r>
       <r>   -2.2409    1.0000 </r>
       <r>   -2.2404    1.0000 </r>
       <r>   -2.2403    1.0000 </r>
       <r>   -2.2400    1.0000 </r>
       <r>   -2.2117    1.0000 </r>
       <r>   -2.1750    1.0000 </r>
       <r>   -2.1449    1.0000 </r>
       <r>   -2.1294    1.0000 </r>
       <r>   -2.0889    1.0000 </r>
       <r>   -2.0885    1.0000 </r>
       <r>   -2.0882    1.0000 </r>
       <r>   -2.0857    1.0000 </r>
       <r>   -2.0586    1.0000 </r>
       <r>   -2.0565    1.0000 </r>
       <r>   -2.0547    1.0000 </r>
       <r>   -2.0543    1.0000 </r>
       <r>   -2.0417    1.0000 </r>
       <r>   -2.0320    1.0000 </r>
       <r>   -2.0100    1.0000 </r>
       <r>   -2.0089    1.0000 </r>
       <r>   -1.9826    1.0000 </r>
       <r>   -1.9428    1.0000 </r>
       <r>   -1.9427    1.0000 </r>
       <r>   -1.9333    1.0000 </r>
       <r>   -1.9333    1.0000 </r>
       <r>   -1.8968    1.0000 </r>
       <r>   -1.8698    1.0000 </r>
       <r>   -1.8680    1.0000 </r>
       <r>   -1.8666    1.0000 </r>
       <r>   -1.8652    1.0000 </r>
       <r>   -1.8578    1.0000 </r>
       <r>   -1.8552    1.0000 </r>
       <r>   -1.8234    1.0000 </r>
       <r>   -1.8207    1.0000 </r>
       <r>   -1.8167    1.0000 </r>
       <r>   -1.8148    1.0000 </r>
       <r>   -1.7854    1.0000 </r>
       <r>   -1.7807    1.0000 </r>
       <r>   -1.7767    1.0000 </r>
       <r>   -1.7763    1.0000 </r>
       <r>   -1.7757    1.0000 </r>
       <r>   -1.7755    1.0000 </r>
       <r>   -1.7749    1.0000 </r>
       <r>   -1.7740    1.0000 </r>
       <r>   -1.7725    1.0000 </r>
       <r>   -1.7167    1.0000 </r>
       <r>   -1.7087    1.0000 </r>
       <r>   -1.7077    1.0000 </r>
       <r>   -1.6963    1.0000 </r>
       <r>   -1.6604    1.0000 </r>
       <r>   -1.6506    1.0000 </r>
       <r>   -1.6452    1.0000 </r>
       <r>   -1.6451    1.0000 </r>
       <r>   -1.6449    1.0000 </r>
       <r>   -1.6448    1.0000 </r>
       <r>   -1.6353    1.0000 </r>
       <r>   -1.6161    1.0000 </r>
       <r>   -1.6131    1.0000 </r>
       <r>   -1.6056    1.0000 </r>
       <r>   -1.6037    1.0000 </r>
       <r>   -1.5824    1.0000 </r>
       <r>   -1.5805    1.0000 </r>
       <r>   -1.5796    1.0000 </r>
       <r>   -1.5671    1.0000 </r>
       <r>   -1.5668    1.0000 </r>
       <r>   -1.5589    1.0000 </r>
       <r>   -1.5532    1.0000 </r>
       <r>   -1.5502    1.0000 </r>
       <r>   -1.4910    1.0000 </r>
       <r>   -1.4558    1.0000 </r>
       <r>   -1.4407    1.0000 </r>
       <r>   -1.4318    1.0000 </r>
       <r>   -1.3507    1.0000 </r>
       <r>   -1.3477    1.0000 </r>
       <r>   -1.3390    1.0000 </r>
       <r>   -1.3381    1.0000 </r>
       <r>   -1.2303    1.0000 </r>
       <r>   -1.2284    1.0000 </r>
       <r>   -1.2266    1.0000 </r>
       <r>   -1.2237    1.0000 </r>
       <r>   -1.2150    1.0000 </r>
       <r>   -1.2133    1.0000 </r>
       <r>   -1.2108    1.0000 </r>
       <r>   -1.2092    1.0000 </r>
       <r>   -1.1909    1.0000 </r>
       <r>   -1.0913    1.0000 </r>
       <r>   -1.0912    1.0000 </r>
       <r>   -1.0862    1.0000 </r>
       <r>   -1.0862    1.0000 </r>
       <r>   -1.0521    1.0000 </r>
       <r>   -1.0267    1.0000 </r>
       <r>   -1.0137    1.0000 </r>
       <r>   -0.9784    1.0000 </r>
       <r>   -0.9332    1.0000 </r>
       <r>   -0.8686    1.0000 </r>
       <r>   -0.8464    1.0000 </r>
       <r>   -0.7815    1.0000 </r>
       <r>   -0.7783    1.0000 </r>
       <r>   -0.7578    1.0000 </r>
       <r>   -0.7234    1.0000 </r>
       <r>   -0.7169    1.0000 </r>
       <r>   -0.7139    1.0000 </r>
       <r>   -0.7120    1.0000 </r>
       <r>   -0.7102    1.0000 </r>
       <r>   -0.6783    1.0000 </r>
       <r>   -0.6765    1.0000 </r>
       <r>   -0.6757    1.0000 </r>
       <r>   -0.6750    1.0000 </r>
       <r>   -0.6628    1.0000 </r>
       <r>   -0.6580    1.0000 </r>
       <r>   -0.6559    1.0000 </r>
       <r>   -0.6260    1.0000 </r>
       <r>   -0.5173    1.0000 </r>
       <r>   -0.5168    1.0000 </r>
       <r>   -0.5151    1.0000 </r>
       <r>   -0.5124    1.0000 </r>
       <r>   -0.4616    1.0000 </r>
       <r>   -0.4599    1.0000 </r>
       <r>   -0.4579    1.0000 </r>
       <r>   -0.4570    1.0000 </r>
       <r>   -0.4553    1.0000 </r>
       <r>   -0.4534    1.0000 </r>
       <r>   -0.4520    1.0000 </r>
       <r>   -0.4494    1.0000 </r>
       <r>   -0.4400    1.0000 </r>
       <r>   -0.4130    1.0000 </r>
       <r>   -0.3837    1.0000 </r>
       <r>   -0.3834    1.0000 </r>
       <r>   -0.3834    1.0000 </r>
       <r>   -0.3711    1.0000 </r>
       <r>   -0.3566    1.0000 </r>
       <r>   -0.3550    1.0000 </r>
       <r>   -0.3526    1.0000 </r>
       <r>   -0.3459    1.0000 </r>
       <r>   -0.3433    1.0000 </r>
       <r>   -0.3406    1.0000 </r>
       <r>   -0.3268    1.0000 </r>
       <r>   -0.3263    1.0000 </r>
       <r>   -0.3261    1.0000 </r>
       <r>   -0.3257    1.0000 </r>
       <r>   -0.2803    1.0000 </r>
       <r>   -0.2255    1.0000 </r>
       <r>   -0.2250    1.0000 </r>
       <r>   -0.1258    1.0000 </r>
       <r>   -0.0466    1.0000 </r>
       <r>    0.0034    1.0000 </r>
       <r>    0.0426    1.0000 </r>
       <r>    0.1174    1.0000 </r>
       <r>    0.1525    1.0000 </r>
       <r>    0.1553    1.0000 </r>
       <r>    0.1676    1.0000 </r>
       <r>    0.1868    1.0000 </r>
       <r>    0.1995    1.0000 </r>
       <r>    0.2119    1.0000 </r>
       <r>    0.2132    1.0000 </r>
       <r>    0.2172    1.0000 </r>
       <r>    0.2217    1.0000 </r>
       <r>    0.2377    1.0000 </r>
       <r>    0.2415    1.0000 </r>
       <r>    0.2861    1.0000 </r>
       <r>    0.3094    1.0000 </r>
       <r>    0.3153    1.0000 </r>
       <r>    0.3431    1.0000 </r>
       <r>    0.3442    1.0000 </r>
       <r>    0.3455    1.0000 </r>
       <r>    0.3497    1.0000 </r>
       <r>    0.3654    1.0000 </r>
       <r>    0.3760    1.0000 </r>
       <r>    0.3947    1.0000 </r>
       <r>    0.4532    1.0000 </r>
       <r>    0.4581    1.0000 </r>
       <r>    0.4604    1.0000 </r>
       <r>    0.4624    1.0000 </r>
       <r>    0.4633    1.0000 </r>
       <r>    0.4652    1.0000 </r>
       <r>    0.4765    1.0000 </r>
       <r>    0.4772    1.0000 </r>
       <r>    0.5555    1.0000 </r>
       <r>    0.5598    1.0000 </r>
       <r>    0.5653    1.0000 </r>
       <r>    0.5819    1.0000 </r>
       <r>    0.5883    1.0000 </r>
       <r>    0.6845    1.0000 </r>
       <r>    0.6939    1.0000 </r>
       <r>    0.7007    1.0000 </r>
       <r>    0.7027    1.0000 </r>
       <r>    0.7238    1.0000 </r>
       <r>    0.8063    1.0000 </r>
       <r>    0.8084    1.0000 </r>
       <r>    0.8388    1.0000 </r>
       <r>    0.8558    1.0000 </r>
       <r>    0.8578    1.0000 </r>
       <r>    0.8812    1.0000 </r>
       <r>    0.8845    1.0000 </r>
       <r>    0.8885    1.0000 </r>
       <r>    0.9154    1.0000 </r>
       <r>    0.9915    1.0000 </r>
       <r>    0.9918    1.0000 </r>
       <r>    0.9940    1.0000 </r>
       <r>    1.0024    1.0000 </r>
       <r>    1.0203    1.0000 </r>
       <r>    1.0327    1.0000 </r>
       <r>    1.0827    1.0000 </r>
       <r>    1.0979    1.0000 </r>
       <r>    1.2067    1.0000 </r>
       <r>    1.2071    1.0000 </r>
       <r>    1.2154    1.0000 </r>
       <r>    1.2326    1.0000 </r>
       <r>    1.2450    1.0000 </r>
       <r>    1.2458    1.0000 </r>
       <r>    1.2548    1.0000 </r>
       <r>    1.2593    1.0000 </r>
       <r>    1.3155    1.0000 </r>
       <r>    1.3159    1.0000 </r>
       <r>    1.3651    1.0000 </r>
       <r>    1.3658    1.0000 </r>
       <r>    1.4008    1.0000 </r>
       <r>    1.4059    1.0000 </r>
       <r>    1.4389    1.0000 </r>
       <r>    1.4398    1.0000 </r>
       <r>    1.4979    1.0000 </r>
       <r>    1.5013    1.0000 </r>
       <r>    1.5374    1.0000 </r>
       <r>    1.5781    1.0000 </r>
       <r>    1.5884    1.0000 </r>
       <r>    1.5895    1.0000 </r>
       <r>    1.7635    1.0000 </r>
       <r>    1.7687    1.0000 </r>
       <r>    1.8463    1.0000 </r>
       <r>    1.8561    1.0000 </r>
       <r>    1.8608    1.0000 </r>
       <r>    1.8612    1.0000 </r>
       <r>    1.9186    1.0000 </r>
       <r>    1.9248    1.0000 </r>
       <r>    1.9530    1.0000 </r>
       <r>    1.9579    1.0000 </r>
       <r>    1.9794    1.0000 </r>
       <r>    1.9799    1.0000 </r>
       <r>    2.0238    1.0000 </r>
       <r>    2.0244    1.0000 </r>
       <r>    2.0641    1.0000 </r>
       <r>    2.0700    1.0000 </r>
       <r>    2.0952    1.0000 </r>
       <r>    2.0961    1.0000 </r>
       <r>    2.2232    1.0000 </r>
       <r>    2.2306    1.0000 </r>
       <r>    2.3992    1.0000 </r>
       <r>    2.4000    1.0000 </r>
       <r>    2.4035    1.0000 </r>
       <r>    2.4059    1.0000 </r>
       <r>    4.6620    1.0000 </r>
       <r>    5.8856    0.0000 </r>
       <r>    6.6169    0.0000 </r>
       <r>    6.6378    0.0000 </r>
       <r>    6.6379    0.0000 </r>
       <r>    6.8793    0.0000 </r>
       <r>    6.9260    0.0000 </r>
       <r>    6.9924    0.0000 </r>
       <r>    7.0034    0.0000 </r>
       <r>    7.0782    0.0000 </r>
       <r>    7.0879    0.0000 </r>
       <r>    7.1517    0.0000 </r>
       <r>    7.2113    0.0000 </r>
       <r>    7.2120    0.0000 </r>
       <r>    7.2269    0.0000 </r>
       <r>    7.2435    0.0000 </r>
       <r>    7.2823    0.0000 </r>
       <r>    7.2975    0.0000 </r>
       <r>    7.3068    0.0000 </r>
       <r>    7.3263    0.0000 </r>
       <r>    7.3322    0.0000 </r>
       <r>    7.3388    0.0000 </r>
       <r>    7.3426    0.0000 </r>
       <r>    7.3439    0.0000 </r>
       <r>    7.3614    0.0000 </r>
       <r>    7.3622    0.0000 </r>
       <r>    7.3839    0.0000 </r>
       <r>    7.3850    0.0000 </r>
       <r>    7.3931    0.0000 </r>
       <r>    7.3945    0.0000 </r>
       <r>    7.4299    0.0000 </r>
       <r>    7.4310    0.0000 </r>
       <r>    7.4575    0.0000 </r>
       <r>    7.6861    0.0000 </r>
       <r>    7.7383    0.0000 </r>
       <r>    7.7420    0.0000 </r>
       <r>    7.7462    0.0000 </r>
       <r>    7.7919    0.0000 </r>
       <r>    7.8209    0.0000 </r>
       <r>    7.8448    0.0000 </r>
       <r>    7.8739    0.0000 </r>
       <r>    7.8879    0.0000 </r>
       <r>    7.9071    0.0000 </r>
       <r>    7.9135    0.0000 </r>
       <r>    7.9201    0.0000 </r>
       <r>    7.9432    0.0000 </r>
       <r>    7.9637    0.0000 </r>
       <r>    8.0636    0.0000 </r>
       <r>    8.1129    0.0000 </r>
       <r>    8.1666    0.0000 </r>
       <r>    8.1703    0.0000 </r>
       <r>    8.1717    0.0000 </r>
       <r>    8.1867    0.0000 </r>
       <r>    8.2095    0.0000 </r>
       <r>    8.2208    0.0000 </r>
       <r>    8.2219    0.0000 </r>
       <r>    8.2333    0.0000 </r>
       <r>    8.2403    0.0000 </r>
       <r>    8.2548    0.0000 </r>
       <r>    8.2829    0.0000 </r>
       <r>    8.3928    0.0000 </r>
       <r>    8.5607    0.0000 </r>
       <r>    8.5803    0.0000 </r>
       <r>    8.5919    0.0000 </r>
       <r>    8.6331    0.0000 </r>
       <r>    8.6342    0.0000 </r>
       <r>    8.6447    0.0000 </r>
       <r>    8.6611    0.0000 </r>
       <r>    8.6699    0.0000 </r>
       <r>    8.6804    0.0000 </r>
       <r>    8.6867    0.0000 </r>
       <r>    8.6890    0.0000 </r>
       <r>    8.7290    0.0000 </r>
       <r>    8.8814    0.0000 </r>
       <r>    8.9560    0.0000 </r>
       <r>    8.9908    0.0000 </r>
       <r>    8.9979    0.0000 </r>
       <r>    9.0084    0.0000 </r>
       <r>    9.0558    0.0000 </r>
       <r>    9.1242    0.0000 </r>
       <r>    9.2097    0.0000 </r>
       <r>    9.2403    0.0000 </r>
       <r>    9.2631    0.0000 </r>
       <r>    9.2664    0.0000 </r>
       <r>    9.2689    0.0000 </r>
       <r>    9.2807    0.0000 </r>
       <r>    9.2946    0.0000 </r>
       <r>    9.2985    0.0000 </r>
       <r>    9.3028    0.0000 </r>
       <r>    9.3197    0.0000 </r>
       <r>    9.3249    0.0000 </r>
       <r>    9.3277    0.0000 </r>
       <r>    9.3303    0.0000 </r>
       <r>    9.3559    0.0000 </r>
       <r>    9.3985    0.0000 </r>
       <r>    9.4734    0.0000 </r>
       <r>    9.6112    0.0000 </r>
       <r>    9.6276    0.0000 </r>
       <r>    9.6813    0.0000 </r>
       <r>    9.6881    0.0000 </r>
       <r>    9.6905    0.0000 </r>
       <r>    9.7182    0.0000 </r>
       <r>    9.8769    0.0000 </r>
       <r>   10.0654    0.0000 </r>
       <r>   10.0884    0.0000 </r>
       <r>   10.0898    0.0000 </r>
       <r>   10.1021    0.0000 </r>
       <r>   10.1423    0.0000 </r>
       <r>   10.1701    0.0000 </r>
       <r>   10.1741    0.0000 </r>
       <r>   10.1900    0.0000 </r>
       <r>   10.1961    0.0000 </r>
       <r>   10.2282    0.0000 </r>
       <r>   10.2365    0.0000 </r>
       <r>   10.2816    0.0000 </r>
       <r>   10.3014    0.0000 </r>
       <r>   10.3037    0.0000 </r>
       <r>   10.3764    0.0000 </r>
       <r>   10.3805    0.0000 </r>
       <r>   10.3894    0.0000 </r>
       <r>   10.3943    0.0000 </r>
       <r>   10.4135    0.0000 </r>
       <r>   10.4367    0.0000 </r>
       <r>   10.4427    0.0000 </r>
       <r>   10.4663    0.0000 </r>
       <r>   10.5065    0.0000 </r>
       <r>   10.5269    0.0000 </r>
       <r>   10.6256    0.0000 </r>
       <r>   10.6672    0.0000 </r>
       <r>   10.7190    0.0000 </r>
       <r>   10.7207    0.0000 </r>
       <r>   10.7228    0.0000 </r>
       <r>   10.7314    0.0000 </r>
       <r>   10.7508    0.0000 </r>
       <r>   10.7592    0.0000 </r>
       <r>   10.7638    0.0000 </r>
       <r>   10.7831    0.0000 </r>
       <r>   10.7870    0.0000 </r>
       <r>   10.7922    0.0000 </r>
       <r>   10.8145    0.0000 </r>
       <r>   10.8151    0.0000 </r>
       <r>   11.2396    0.0000 </r>
       <r>   11.2563    0.0000 </r>
       <r>   11.5023    0.0000 </r>
       <r>   11.6128    0.0000 </r>
       <r>   11.6447    0.0000 </r>
       <r>   11.6728    0.0000 </r>
       <r>   11.7129    0.0000 </r>
       <r>   11.7399    0.0000 </r>
       <r>   11.7652    0.0000 </r>
       <r>   11.7990    0.0000 </r>
       <r>   12.2461    0.0000 </r>
      </set>
      <set comment="kpoint 5">
       <r>  -17.2938    1.0000 </r>
       <r>  -15.7201    1.0000 </r>
       <r>  -15.7198    1.0000 </r>
       <r>  -15.5736    1.0000 </r>
       <r>  -15.3956    1.0000 </r>
       <r>  -15.3101    1.0000 </r>
       <r>  -15.1588    1.0000 </r>
       <r>  -15.1585    1.0000 </r>
       <r>  -15.1581    1.0000 </r>
       <r>  -15.0712    1.0000 </r>
       <r>  -14.8870    1.0000 </r>
       <r>  -14.8649    1.0000 </r>
       <r>  -14.8637    1.0000 </r>
       <r>  -14.8473    1.0000 </r>
       <r>  -14.8435    1.0000 </r>
       <r>  -14.8424    1.0000 </r>
       <r>  -14.8384    1.0000 </r>
       <r>  -14.8370    1.0000 </r>
       <r>  -14.8270    1.0000 </r>
       <r>  -14.7644    1.0000 </r>
       <r>  -14.7630    1.0000 </r>
       <r>  -14.7437    1.0000 </r>
       <r>  -14.7207    1.0000 </r>
       <r>  -14.7201    1.0000 </r>
       <r>  -14.6442    1.0000 </r>
       <r>  -14.6340    1.0000 </r>
       <r>  -14.6333    1.0000 </r>
       <r>  -14.6197    1.0000 </r>
       <r>  -14.6188    1.0000 </r>
       <r>  -14.6127    1.0000 </r>
       <r>  -14.5609    1.0000 </r>
       <r>  -14.2538    1.0000 </r>
       <r>  -14.2535    1.0000 </r>
       <r>  -14.2426    1.0000 </r>
       <r>  -13.9155    1.0000 </r>
       <r>  -13.9152    1.0000 </r>
       <r>  -13.8547    1.0000 </r>
       <r>  -13.8486    1.0000 </r>
       <r>  -13.8431    1.0000 </r>
       <r>  -13.8428    1.0000 </r>
       <r>  -13.8388    1.0000 </r>
       <r>  -13.8385    1.0000 </r>
       <r>  -13.8371    1.0000 </r>
       <r>  -13.8135    1.0000 </r>
       <r>  -13.7963    1.0000 </r>
       <r>  -13.7960    1.0000 </r>
       <r>  -13.7842    1.0000 </r>
       <r>  -13.7775    1.0000 </r>
       <r>  -13.7771    1.0000 </r>
       <r>  -13.7521    1.0000 </r>
       <r>  -13.7507    1.0000 </r>
       <r>  -13.7506    1.0000 </r>
       <r>  -13.6398    1.0000 </r>
       <r>  -13.6379    1.0000 </r>
       <r>  -13.6379    1.0000 </r>
       <r>  -13.6363    1.0000 </r>
       <r>  -13.6361    1.0000 </r>
       <r>  -13.6356    1.0000 </r>
       <r>  -13.3989    1.0000 </r>
       <r>  -13.3949    1.0000 </r>
       <r>  -13.3945    1.0000 </r>
       <r>  -13.3940    1.0000 </r>
       <r>  -13.3927    1.0000 </r>
       <r>  -13.3916    1.0000 </r>
       <r>  -13.3730    1.0000 </r>
       <r>  -13.3716    1.0000 </r>
       <r>  -13.3577    1.0000 </r>
       <r>  -13.3505    1.0000 </r>
       <r>  -13.3498    1.0000 </r>
       <r>  -13.3490    1.0000 </r>
       <r>  -13.2681    1.0000 </r>
       <r>  -13.2678    1.0000 </r>
       <r>  -13.2054    1.0000 </r>
       <r>  -13.2043    1.0000 </r>
       <r>  -13.2041    1.0000 </r>
       <r>  -13.2039    1.0000 </r>
       <r>  -13.2038    1.0000 </r>
       <r>  -13.2032    1.0000 </r>
       <r>  -12.8946    1.0000 </r>
       <r>  -12.8582    1.0000 </r>
       <r>  -12.8581    1.0000 </r>
       <r>  -12.7736    1.0000 </r>
       <r>  -12.6755    1.0000 </r>
       <r>  -12.5899    1.0000 </r>
       <r>  -12.5898    1.0000 </r>
       <r>  -12.5887    1.0000 </r>
       <r>  -12.5331    1.0000 </r>
       <r>  -12.5328    1.0000 </r>
       <r>  -12.4973    1.0000 </r>
       <r>  -12.4972    1.0000 </r>
       <r>  -12.4680    1.0000 </r>
       <r>  -12.3510    1.0000 </r>
       <r>  -12.3365    1.0000 </r>
       <r>  -12.3312    1.0000 </r>
       <r>  -12.3209    1.0000 </r>
       <r>  -12.3196    1.0000 </r>
       <r>  -12.3154    1.0000 </r>
       <r>  -12.3127    1.0000 </r>
       <r>  -12.3114    1.0000 </r>
       <r>  -12.3046    1.0000 </r>
       <r>  -12.3034    1.0000 </r>
       <r>  -12.2954    1.0000 </r>
       <r>  -12.2941    1.0000 </r>
       <r>  -12.2918    1.0000 </r>
       <r>  -12.2899    1.0000 </r>
       <r>  -12.2887    1.0000 </r>
       <r>  -12.2867    1.0000 </r>
       <r>  -12.2771    1.0000 </r>
       <r>  -12.2763    1.0000 </r>
       <r>  -12.2718    1.0000 </r>
       <r>  -12.2700    1.0000 </r>
       <r>  -12.2682    1.0000 </r>
       <r>  -12.2657    1.0000 </r>
       <r>  -12.2550    1.0000 </r>
       <r>  -12.2539    1.0000 </r>
       <r>  -12.1928    1.0000 </r>
       <r>  -12.1920    1.0000 </r>
       <r>  -12.1917    1.0000 </r>
       <r>  -12.1844    1.0000 </r>
       <r>  -12.1837    1.0000 </r>
       <r>  -12.1831    1.0000 </r>
       <r>  -12.1582    1.0000 </r>
       <r>  -12.1582    1.0000 </r>
       <r>  -12.1542    1.0000 </r>
       <r>  -12.1538    1.0000 </r>
       <r>  -12.1518    1.0000 </r>
       <r>  -12.1516    1.0000 </r>
       <r>  -12.1442    1.0000 </r>
       <r>  -12.1441    1.0000 </r>
       <r>  -12.1426    1.0000 </r>
       <r>  -12.1419    1.0000 </r>
       <r>  -12.1396    1.0000 </r>
       <r>  -12.1395    1.0000 </r>
       <r>  -12.0618    1.0000 </r>
       <r>  -12.0617    1.0000 </r>
       <r>  -12.0617    1.0000 </r>
       <r>  -11.9615    1.0000 </r>
       <r>  -11.9615    1.0000 </r>
       <r>  -11.5945    1.0000 </r>
       <r>  -11.5944    1.0000 </r>
       <r>  -11.5939    1.0000 </r>
       <r>  -11.5938    1.0000 </r>
       <r>  -11.4688    1.0000 </r>
       <r>  -11.4688    1.0000 </r>
       <r>   -8.3732    1.0000 </r>
       <r>   -7.3290    1.0000 </r>
       <r>   -7.3289    1.0000 </r>
       <r>   -6.6088    1.0000 </r>
       <r>   -6.6087    1.0000 </r>
       <r>   -6.5434    1.0000 </r>
       <r>   -6.5259    1.0000 </r>
       <r>   -6.5256    1.0000 </r>
       <r>   -6.5246    1.0000 </r>
       <r>   -6.5209    1.0000 </r>
       <r>   -6.5205    1.0000 </r>
       <r>   -6.5097    1.0000 </r>
       <r>   -6.4867    1.0000 </r>
       <r>   -6.3900    1.0000 </r>
       <r>   -6.3899    1.0000 </r>
       <r>   -6.3899    1.0000 </r>
       <r>   -6.3162    1.0000 </r>
       <r>   -6.3161    1.0000 </r>
       <r>   -6.0963    1.0000 </r>
       <r>   -6.0962    1.0000 </r>
       <r>   -6.0295    1.0000 </r>
       <r>   -6.0290    1.0000 </r>
       <r>   -6.0064    1.0000 </r>
       <r>   -5.9875    1.0000 </r>
       <r>   -5.9070    1.0000 </r>
       <r>   -5.9070    1.0000 </r>
       <r>   -5.7168    1.0000 </r>
       <r>   -5.7162    1.0000 </r>
       <r>   -5.7108    1.0000 </r>
       <r>   -5.7100    1.0000 </r>
       <r>   -5.7087    1.0000 </r>
       <r>   -5.7077    1.0000 </r>
       <r>   -5.7024    1.0000 </r>
       <r>   -5.7014    1.0000 </r>
       <r>   -5.6941    1.0000 </r>
       <r>   -5.6892    1.0000 </r>
       <r>   -5.6885    1.0000 </r>
       <r>   -5.6850    1.0000 </r>
       <r>   -5.6842    1.0000 </r>
       <r>   -5.6835    1.0000 </r>
       <r>   -5.6783    1.0000 </r>
       <r>   -5.6773    1.0000 </r>
       <r>   -5.6719    1.0000 </r>
       <r>   -5.6713    1.0000 </r>
       <r>   -5.6702    1.0000 </r>
       <r>   -5.6694    1.0000 </r>
       <r>   -5.6654    1.0000 </r>
       <r>   -5.6647    1.0000 </r>
       <r>   -5.6633    1.0000 </r>
       <r>   -5.6621    1.0000 </r>
       <r>   -5.5810    1.0000 </r>
       <r>   -5.5807    1.0000 </r>
       <r>   -5.5590    1.0000 </r>
       <r>   -5.5584    1.0000 </r>
       <r>   -5.5582    1.0000 </r>
       <r>   -5.5577    1.0000 </r>
       <r>   -5.5550    1.0000 </r>
       <r>   -5.5547    1.0000 </r>
       <r>   -5.5539    1.0000 </r>
       <r>   -5.5539    1.0000 </r>
       <r>   -5.5506    1.0000 </r>
       <r>   -5.5505    1.0000 </r>
       <r>   -5.5472    1.0000 </r>
       <r>   -5.5471    1.0000 </r>
       <r>   -5.5471    1.0000 </r>
       <r>   -5.5469    1.0000 </r>
       <r>   -5.4184    1.0000 </r>
       <r>   -5.4183    1.0000 </r>
       <r>   -5.3695    1.0000 </r>
       <r>   -5.2477    1.0000 </r>
       <r>   -5.1470    1.0000 </r>
       <r>   -5.1469    1.0000 </r>
       <r>   -4.9933    1.0000 </r>
       <r>   -4.9234    1.0000 </r>
       <r>   -4.9233    1.0000 </r>
       <r>   -4.8739    1.0000 </r>
       <r>   -4.7479    1.0000 </r>
       <r>   -4.7459    1.0000 </r>
       <r>   -4.7459    1.0000 </r>
       <r>   -4.7439    1.0000 </r>
       <r>   -4.6191    1.0000 </r>
       <r>   -4.6191    1.0000 </r>
       <r>   -4.4815    1.0000 </r>
       <r>   -4.4797    1.0000 </r>
       <r>   -4.4795    1.0000 </r>
       <r>   -4.4769    1.0000 </r>
       <r>   -4.4762    1.0000 </r>
       <r>   -4.4751    1.0000 </r>
       <r>   -4.4728    1.0000 </r>
       <r>   -4.4719    1.0000 </r>
       <r>   -4.4701    1.0000 </r>
       <r>   -4.4689    1.0000 </r>
       <r>   -4.4684    1.0000 </r>
       <r>   -4.4666    1.0000 </r>
       <r>   -4.3393    1.0000 </r>
       <r>   -4.3390    1.0000 </r>
       <r>   -4.3390    1.0000 </r>
       <r>   -4.3389    1.0000 </r>
       <r>   -4.3388    1.0000 </r>
       <r>   -4.3386    1.0000 </r>
       <r>   -4.3020    1.0000 </r>
       <r>   -4.0490    1.0000 </r>
       <r>   -3.9419    1.0000 </r>
       <r>   -3.9418    1.0000 </r>
       <r>   -3.6298    1.0000 </r>
       <r>   -3.6298    1.0000 </r>
       <r>   -3.6149    1.0000 </r>
       <r>   -3.5984    1.0000 </r>
       <r>   -3.5594    1.0000 </r>
       <r>   -3.5190    1.0000 </r>
       <r>   -3.5188    1.0000 </r>
       <r>   -3.5127    1.0000 </r>
       <r>   -3.3591    1.0000 </r>
       <r>   -3.3201    1.0000 </r>
       <r>   -3.3200    1.0000 </r>
       <r>   -3.3059    1.0000 </r>
       <r>   -3.3056    1.0000 </r>
       <r>   -3.2522    1.0000 </r>
       <r>   -3.2516    1.0000 </r>
       <r>   -3.2206    1.0000 </r>
       <r>   -3.1824    1.0000 </r>
       <r>   -3.1736    1.0000 </r>
       <r>   -3.1735    1.0000 </r>
       <r>   -3.1015    1.0000 </r>
       <r>   -3.0987    1.0000 </r>
       <r>   -3.0979    1.0000 </r>
       <r>   -3.0975    1.0000 </r>
       <r>   -3.0968    1.0000 </r>
       <r>   -3.0965    1.0000 </r>
       <r>   -3.0963    1.0000 </r>
       <r>   -3.0960    1.0000 </r>
       <r>   -3.0960    1.0000 </r>
       <r>   -3.0953    1.0000 </r>
       <r>   -3.0952    1.0000 </r>
       <r>   -3.0916    1.0000 </r>
       <r>   -3.0217    1.0000 </r>
       <r>   -3.0206    1.0000 </r>
       <r>   -2.9690    1.0000 </r>
       <r>   -2.9689    1.0000 </r>
       <r>   -2.9688    1.0000 </r>
       <r>   -2.9688    1.0000 </r>
       <r>   -2.9688    1.0000 </r>
       <r>   -2.9687    1.0000 </r>
       <r>   -2.9671    1.0000 </r>
       <r>   -2.9285    1.0000 </r>
       <r>   -2.9261    1.0000 </r>
       <r>   -2.9230    1.0000 </r>
       <r>   -2.9215    1.0000 </r>
       <r>   -2.9193    1.0000 </r>
       <r>   -2.9184    1.0000 </r>
       <r>   -2.9136    1.0000 </r>
       <r>   -2.9126    1.0000 </r>
       <r>   -2.9091    1.0000 </r>
       <r>   -2.9043    1.0000 </r>
       <r>   -2.9030    1.0000 </r>
       <r>   -2.8973    1.0000 </r>
       <r>   -2.8939    1.0000 </r>
       <r>   -2.8927    1.0000 </r>
       <r>   -2.8877    1.0000 </r>
       <r>   -2.8864    1.0000 </r>
       <r>   -2.8832    1.0000 </r>
       <r>   -2.8810    1.0000 </r>
       <r>   -2.8809    1.0000 </r>
       <r>   -2.8791    1.0000 </r>
       <r>   -2.8763    1.0000 </r>
       <r>   -2.8741    1.0000 </r>
       <r>   -2.8740    1.0000 </r>
       <r>   -2.8697    1.0000 </r>
       <r>   -2.8598    1.0000 </r>
       <r>   -2.8301    1.0000 </r>
       <r>   -2.8292    1.0000 </r>
       <r>   -2.8038    1.0000 </r>
       <r>   -2.8026    1.0000 </r>
       <r>   -2.7928    1.0000 </r>
       <r>   -2.7722    1.0000 </r>
       <r>   -2.7720    1.0000 </r>
       <r>   -2.7718    1.0000 </r>
       <r>   -2.7709    1.0000 </r>
       <r>   -2.7676    1.0000 </r>
       <r>   -2.7675    1.0000 </r>
       <r>   -2.7626    1.0000 </r>
       <r>   -2.7625    1.0000 </r>
       <r>   -2.7596    1.0000 </r>
       <r>   -2.7594    1.0000 </r>
       <r>   -2.7587    1.0000 </r>
       <r>   -2.7587    1.0000 </r>
       <r>   -2.4052    1.0000 </r>
       <r>   -2.2442    1.0000 </r>
       <r>   -2.2441    1.0000 </r>
       <r>   -2.2173    1.0000 </r>
       <r>   -2.1191    1.0000 </r>
       <r>   -2.0978    1.0000 </r>
       <r>   -2.0920    1.0000 </r>
       <r>   -2.0918    1.0000 </r>
       <r>   -2.0874    1.0000 </r>
       <r>   -2.0224    1.0000 </r>
       <r>   -2.0219    1.0000 </r>
       <r>   -1.9512    1.0000 </r>
       <r>   -1.9511    1.0000 </r>
       <r>   -1.9016    1.0000 </r>
       <r>   -1.7162    1.0000 </r>
       <r>   -1.7146    1.0000 </r>
       <r>   -1.7137    1.0000 </r>
       <r>   -1.7109    1.0000 </r>
       <r>   -1.7099    1.0000 </r>
       <r>   -1.7086    1.0000 </r>
       <r>   -1.6908    1.0000 </r>
       <r>   -1.6902    1.0000 </r>
       <r>   -1.6811    1.0000 </r>
       <r>   -1.6657    1.0000 </r>
       <r>   -1.6375    1.0000 </r>
       <r>   -1.6368    1.0000 </r>
       <r>   -1.5944    1.0000 </r>
       <r>   -1.5937    1.0000 </r>
       <r>   -1.5807    1.0000 </r>
       <r>   -1.5807    1.0000 </r>
       <r>   -1.5806    1.0000 </r>
       <r>   -1.5747    1.0000 </r>
       <r>   -1.5746    1.0000 </r>
       <r>   -1.5701    1.0000 </r>
       <r>   -1.5482    1.0000 </r>
       <r>   -1.5232    1.0000 </r>
       <r>   -1.5231    1.0000 </r>
       <r>   -1.5063    1.0000 </r>
       <r>   -1.5039    1.0000 </r>
       <r>   -1.5026    1.0000 </r>
       <r>   -1.5014    1.0000 </r>
       <r>   -1.5001    1.0000 </r>
       <r>   -1.4992    1.0000 </r>
       <r>   -1.4978    1.0000 </r>
       <r>   -1.4919    1.0000 </r>
       <r>   -1.4917    1.0000 </r>
       <r>   -1.4914    1.0000 </r>
       <r>   -1.4913    1.0000 </r>
       <r>   -1.4908    1.0000 </r>
       <r>   -1.4884    1.0000 </r>
       <r>   -1.4871    1.0000 </r>
       <r>   -1.4842    1.0000 </r>
       <r>   -1.4819    1.0000 </r>
       <r>   -1.4460    1.0000 </r>
       <r>   -1.4450    1.0000 </r>
       <r>   -1.4308    1.0000 </r>
       <r>   -1.4302    1.0000 </r>
       <r>   -1.4302    1.0000 </r>
       <r>   -1.3888    1.0000 </r>
       <r>   -1.3783    1.0000 </r>
       <r>   -1.3782    1.0000 </r>
       <r>   -1.3751    1.0000 </r>
       <r>   -1.3718    1.0000 </r>
       <r>   -1.3716    1.0000 </r>
       <r>   -1.3637    1.0000 </r>
       <r>   -1.3637    1.0000 </r>
       <r>   -1.3630    1.0000 </r>
       <r>   -1.3596    1.0000 </r>
       <r>   -1.3595    1.0000 </r>
       <r>   -1.3595    1.0000 </r>
       <r>   -1.2385    1.0000 </r>
       <r>   -1.2235    1.0000 </r>
       <r>   -1.2231    1.0000 </r>
       <r>   -1.1549    1.0000 </r>
       <r>   -1.1523    1.0000 </r>
       <r>   -1.1513    1.0000 </r>
       <r>   -1.1512    1.0000 </r>
       <r>   -1.1502    1.0000 </r>
       <r>   -1.1497    1.0000 </r>
       <r>   -1.1494    1.0000 </r>
       <r>   -1.1488    1.0000 </r>
       <r>   -1.1481    1.0000 </r>
       <r>   -1.1478    1.0000 </r>
       <r>   -1.1467    1.0000 </r>
       <r>   -1.1465    1.0000 </r>
       <r>   -1.1457    1.0000 </r>
       <r>   -1.1429    1.0000 </r>
       <r>   -1.1256    1.0000 </r>
       <r>   -1.1060    1.0000 </r>
       <r>   -1.0195    1.0000 </r>
       <r>   -1.0195    1.0000 </r>
       <r>   -1.0193    1.0000 </r>
       <r>   -1.0191    1.0000 </r>
       <r>   -1.0190    1.0000 </r>
       <r>   -1.0189    1.0000 </r>
       <r>   -1.0092    1.0000 </r>
       <r>   -1.0087    1.0000 </r>
       <r>   -0.9943    1.0000 </r>
       <r>   -0.8638    1.0000 </r>
       <r>   -0.8612    1.0000 </r>
       <r>   -0.8602    1.0000 </r>
       <r>   -0.8533    1.0000 </r>
       <r>   -0.8512    1.0000 </r>
       <r>   -0.8498    1.0000 </r>
       <r>   -0.8432    1.0000 </r>
       <r>   -0.8422    1.0000 </r>
       <r>   -0.8349    1.0000 </r>
       <r>   -0.8341    1.0000 </r>
       <r>   -0.8316    1.0000 </r>
       <r>   -0.8232    1.0000 </r>
       <r>   -0.7533    1.0000 </r>
       <r>   -0.7460    1.0000 </r>
       <r>   -0.7453    1.0000 </r>
       <r>   -0.7441    1.0000 </r>
       <r>   -0.7435    1.0000 </r>
       <r>   -0.7416    1.0000 </r>
       <r>   -0.7229    1.0000 </r>
       <r>   -0.7212    1.0000 </r>
       <r>   -0.7210    1.0000 </r>
       <r>   -0.7156    1.0000 </r>
       <r>   -0.7154    1.0000 </r>
       <r>   -0.7128    1.0000 </r>
       <r>   -0.4604    1.0000 </r>
       <r>   -0.4600    1.0000 </r>
       <r>   -0.4255    1.0000 </r>
       <r>   -0.3429    1.0000 </r>
       <r>   -0.3390    1.0000 </r>
       <r>   -0.3387    1.0000 </r>
       <r>   -0.3351    1.0000 </r>
       <r>   -0.2589    1.0000 </r>
       <r>   -0.2588    1.0000 </r>
       <r>   -0.1364    1.0000 </r>
       <r>   -0.1261    1.0000 </r>
       <r>   -0.1260    1.0000 </r>
       <r>   -0.1224    1.0000 </r>
       <r>   -0.1222    1.0000 </r>
       <r>   -0.1207    1.0000 </r>
       <r>   -0.0883    1.0000 </r>
       <r>   -0.0881    1.0000 </r>
       <r>   -0.0388    1.0000 </r>
       <r>    0.0032    1.0000 </r>
       <r>    0.0041    1.0000 </r>
       <r>    0.1435    1.0000 </r>
       <r>    0.2129    1.0000 </r>
       <r>    0.2155    1.0000 </r>
       <r>    0.2174    1.0000 </r>
       <r>    0.2178    1.0000 </r>
       <r>    0.2198    1.0000 </r>
       <r>    0.2209    1.0000 </r>
       <r>    0.2223    1.0000 </r>
       <r>    0.2232    1.0000 </r>
       <r>    0.2291    1.0000 </r>
       <r>    0.2351    1.0000 </r>
       <r>    0.2372    1.0000 </r>
       <r>    0.2384    1.0000 </r>
       <r>    0.2405    1.0000 </r>
       <r>    0.2441    1.0000 </r>
       <r>    0.2471    1.0000 </r>
       <r>    0.3446    1.0000 </r>
       <r>    0.3450    1.0000 </r>
       <r>    0.3536    1.0000 </r>
       <r>    0.3552    1.0000 </r>
       <r>    0.3554    1.0000 </r>
       <r>    0.3604    1.0000 </r>
       <r>    0.3606    1.0000 </r>
       <r>    0.3629    1.0000 </r>
       <r>    0.4273    1.0000 </r>
       <r>    0.4368    1.0000 </r>
       <r>    0.4373    1.0000 </r>
       <r>    0.4378    1.0000 </r>
       <r>    0.4385    1.0000 </r>
       <r>    0.4408    1.0000 </r>
       <r>    0.4518    1.0000 </r>
       <r>    0.5755    1.0000 </r>
       <r>    0.6352    1.0000 </r>
       <r>    0.6356    1.0000 </r>
       <r>    0.7162    1.0000 </r>
       <r>    0.7164    1.0000 </r>
       <r>    0.7435    1.0000 </r>
       <r>    0.7435    1.0000 </r>
       <r>    0.7453    1.0000 </r>
       <r>    0.7763    1.0000 </r>
       <r>    0.7815    1.0000 </r>
       <r>    0.7818    1.0000 </r>
       <r>    0.9021    1.0000 </r>
       <r>    0.9246    1.0000 </r>
       <r>    0.9254    1.0000 </r>
       <r>    0.9260    1.0000 </r>
       <r>    0.9419    1.0000 </r>
       <r>    0.9422    1.0000 </r>
       <r>    0.9434    1.0000 </r>
       <r>    0.9444    1.0000 </r>
       <r>    0.9477    1.0000 </r>
       <r>    0.9512    1.0000 </r>
       <r>    0.9519    1.0000 </r>
       <r>    0.9627    1.0000 </r>
       <r>    0.9630    1.0000 </r>
       <r>    0.9652    1.0000 </r>
       <r>    0.9672    1.0000 </r>
       <r>    1.1306    1.0000 </r>
       <r>    1.1338    1.0000 </r>
       <r>    1.1341    1.0000 </r>
       <r>    1.1376    1.0000 </r>
       <r>    1.1801    1.0000 </r>
       <r>    1.1825    1.0000 </r>
       <r>    1.1830    1.0000 </r>
       <r>    1.2613    1.0000 </r>
       <r>    1.2614    1.0000 </r>
       <r>    1.4103    1.0000 </r>
       <r>    1.4112    1.0000 </r>
       <r>    1.4893    1.0000 </r>
       <r>    1.5436    1.0000 </r>
       <r>    1.5819    1.0000 </r>
       <r>    1.5832    1.0000 </r>
       <r>    1.6173    1.0000 </r>
       <r>    1.6176    1.0000 </r>
       <r>    1.6471    1.0000 </r>
       <r>    1.6658    1.0000 </r>
       <r>    1.6663    1.0000 </r>
       <r>    1.6673    1.0000 </r>
       <r>    1.7227    1.0000 </r>
       <r>    1.7242    1.0000 </r>
       <r>    1.7255    1.0000 </r>
       <r>    1.7645    1.0000 </r>
       <r>    1.7881    1.0000 </r>
       <r>    1.7901    1.0000 </r>
       <r>    1.7906    1.0000 </r>
       <r>    1.8045    1.0000 </r>
       <r>    1.8048    1.0000 </r>
       <r>    1.8127    1.0000 </r>
       <r>    1.8132    1.0000 </r>
       <r>    1.8230    1.0000 </r>
       <r>    1.8232    1.0000 </r>
       <r>    1.8256    1.0000 </r>
       <r>    1.8273    1.0000 </r>
       <r>    1.8931    1.0000 </r>
       <r>    1.8940    1.0000 </r>
       <r>    1.8945    1.0000 </r>
       <r>    2.0438    1.0000 </r>
       <r>    2.0438    1.0000 </r>
       <r>    2.3639    1.0000 </r>
       <r>    2.3727    1.0000 </r>
       <r>    2.3758    1.0000 </r>
       <r>    2.3788    1.0000 </r>
       <r>    2.5006    1.0000 </r>
       <r>    2.5006    1.0000 </r>
       <r>    4.6601    1.0000 </r>
       <r>    5.9137    0.0000 </r>
       <r>    6.4837    0.0000 </r>
       <r>    6.4838    0.0000 </r>
       <r>    6.6876    0.0000 </r>
       <r>    6.7486    0.0000 </r>
       <r>    6.8609    0.0000 </r>
       <r>    6.8614    0.0000 </r>
       <r>    6.8662    0.0000 </r>
       <r>    7.1105    0.0000 </r>
       <r>    7.1835    0.0000 </r>
       <r>    7.1835    0.0000 </r>
       <r>    7.1885    0.0000 </r>
       <r>    7.1886    0.0000 </r>
       <r>    7.2627    0.0000 </r>
       <r>    7.2631    0.0000 </r>
       <r>    7.3168    0.0000 </r>
       <r>    7.3168    0.0000 </r>
       <r>    7.3520    0.0000 </r>
       <r>    7.4109    0.0000 </r>
       <r>    7.4116    0.0000 </r>
       <r>    7.5196    0.0000 </r>
       <r>    7.5200    0.0000 </r>
       <r>    7.5727    0.0000 </r>
       <r>    7.5783    0.0000 </r>
       <r>    7.5792    0.0000 </r>
       <r>    7.5964    0.0000 </r>
       <r>    7.6299    0.0000 </r>
       <r>    7.6309    0.0000 </r>
       <r>    7.6360    0.0000 </r>
       <r>    7.6942    0.0000 </r>
       <r>    7.6944    0.0000 </r>
       <r>    7.7144    0.0000 </r>
       <r>    7.7222    0.0000 </r>
       <r>    7.7263    0.0000 </r>
       <r>    7.7274    0.0000 </r>
       <r>    7.7422    0.0000 </r>
       <r>    7.7428    0.0000 </r>
       <r>    7.7499    0.0000 </r>
       <r>    7.7524    0.0000 </r>
       <r>    7.7562    0.0000 </r>
       <r>    7.7575    0.0000 </r>
       <r>    7.8172    0.0000 </r>
       <r>    7.8177    0.0000 </r>
       <r>    7.8195    0.0000 </r>
       <r>    8.0147    0.0000 </r>
       <r>    8.0831    0.0000 </r>
       <r>    8.0834    0.0000 </r>
       <r>    8.0958    0.0000 </r>
       <r>    8.1445    0.0000 </r>
       <r>    8.1459    0.0000 </r>
       <r>    8.1862    0.0000 </r>
       <r>    8.1882    0.0000 </r>
       <r>    8.2152    0.0000 </r>
       <r>    8.2202    0.0000 </r>
       <r>    8.2224    0.0000 </r>
       <r>    8.2265    0.0000 </r>
       <r>    8.3065    0.0000 </r>
       <r>    8.3202    0.0000 </r>
       <r>    8.3203    0.0000 </r>
       <r>    8.3243    0.0000 </r>
       <r>    8.3310    0.0000 </r>
       <r>    8.3429    0.0000 </r>
       <r>    8.3439    0.0000 </r>
       <r>    8.3475    0.0000 </r>
       <r>    8.3485    0.0000 </r>
       <r>    8.3617    0.0000 </r>
       <r>    8.3625    0.0000 </r>
       <r>    8.3629    0.0000 </r>
       <r>    8.3642    0.0000 </r>
       <r>    8.3661    0.0000 </r>
       <r>    8.8096    0.0000 </r>
       <r>    8.8860    0.0000 </r>
       <r>    8.8866    0.0000 </r>
       <r>    9.0798    0.0000 </r>
       <r>    9.0811    0.0000 </r>
       <r>    9.0823    0.0000 </r>
       <r>    9.0828    0.0000 </r>
       <r>    9.1295    0.0000 </r>
       <r>    9.1301    0.0000 </r>
       <r>    9.1323    0.0000 </r>
       <r>    9.1577    0.0000 </r>
       <r>    9.1709    0.0000 </r>
       <r>    9.1963    0.0000 </r>
       <r>    9.1973    0.0000 </r>
       <r>    9.2196    0.0000 </r>
       <r>    9.2257    0.0000 </r>
       <r>    9.2272    0.0000 </r>
       <r>    9.2404    0.0000 </r>
       <r>    9.2731    0.0000 </r>
       <r>    9.2744    0.0000 </r>
       <r>    9.3896    0.0000 </r>
       <r>    9.3901    0.0000 </r>
       <r>    9.3912    0.0000 </r>
       <r>    9.4332    0.0000 </r>
       <r>    9.5270    0.0000 </r>
       <r>    9.5276    0.0000 </r>
       <r>    9.6647    0.0000 </r>
       <r>    9.7636    0.0000 </r>
       <r>    9.7654    0.0000 </r>
       <r>    9.7887    0.0000 </r>
       <r>    9.7907    0.0000 </r>
       <r>    9.8000    0.0000 </r>
       <r>    9.9505    0.0000 </r>
       <r>    9.9514    0.0000 </r>
       <r>    9.9520    0.0000 </r>
       <r>    9.9722    0.0000 </r>
       <r>    9.9743    0.0000 </r>
       <r>    9.9755    0.0000 </r>
       <r>   10.0706    0.0000 </r>
       <r>   10.1261    0.0000 </r>
       <r>   10.1266    0.0000 </r>
       <r>   10.1439    0.0000 </r>
       <r>   10.1445    0.0000 </r>
       <r>   10.1677    0.0000 </r>
       <r>   10.1821    0.0000 </r>
       <r>   10.1835    0.0000 </r>
       <r>   10.1906    0.0000 </r>
       <r>   10.1959    0.0000 </r>
       <r>   10.1975    0.0000 </r>
       <r>   10.2729    0.0000 </r>
       <r>   10.5413    0.0000 </r>
       <r>   10.6163    0.0000 </r>
       <r>   10.6180    0.0000 </r>
       <r>   10.6386    0.0000 </r>
       <r>   10.6408    0.0000 </r>
       <r>   10.6620    0.0000 </r>
       <r>   10.8079    0.0000 </r>
       <r>   10.8142    0.0000 </r>
       <r>   10.8159    0.0000 </r>
       <r>   10.8187    0.0000 </r>
       <r>   10.8202    0.0000 </r>
       <r>   10.8206    0.0000 </r>
       <r>   11.3191    0.0000 </r>
       <r>   11.3251    0.0000 </r>
       <r>   11.3432    0.0000 </r>
       <r>   11.4136    0.0000 </r>
       <r>   11.4466    0.0000 </r>
       <r>   11.5057    0.0000 </r>
       <r>   11.5119    0.0000 </r>
       <r>   11.5452    0.0000 </r>
       <r>   11.5654    0.0000 </r>
       <r>   11.6131    0.0000 </r>
       <r>   11.6285    0.0000 </r>
       <r>   11.6715    0.0000 </r>
       <r>   11.7030    0.0000 </r>
       <r>   11.7442    0.0000 </r>
       <r>   11.7580    0.0000 </r>
       <r>   11.7733    0.0000 </r>
       <r>   11.7985    0.0000 </r>
       <r>   11.8263    0.0000 </r>
       <r>   11.8815    0.0000 </r>
      </set>
      <set comment="kpoint 6">
       <r>  -17.2936    1.0000 </r>
       <r>  -15.7752    1.0000 </r>
       <r>  -15.7302    1.0000 </r>
       <r>  -15.4170    1.0000 </r>
       <r>  -15.3048    1.0000 </r>
       <r>  -15.2752    1.0000 </r>
       <r>  -15.2421    1.0000 </r>
       <r>  -15.2051    1.0000 </r>
       <r>  -15.1445    1.0000 </r>
       <r>  -15.0917    1.0000 </r>
       <r>  -15.0610    1.0000 </r>
       <r>  -15.0341    1.0000 </r>
       <r>  -15.0150    1.0000 </r>
       <r>  -14.9846    1.0000 </r>
       <r>  -14.9839    1.0000 </r>
       <r>  -14.9069    1.0000 </r>
       <r>  -14.9003    1.0000 </r>
       <r>  -14.8554    1.0000 </r>
       <r>  -14.7581    1.0000 </r>
       <r>  -14.7573    1.0000 </r>
       <r>  -14.6189    1.0000 </r>
       <r>  -14.5678    1.0000 </r>
       <r>  -14.5517    1.0000 </r>
       <r>  -14.4668    1.0000 </r>
       <r>  -14.4628    1.0000 </r>
       <r>  -14.4597    1.0000 </r>
       <r>  -14.4589    1.0000 </r>
       <r>  -14.4249    1.0000 </r>
       <r>  -14.4025    1.0000 </r>
       <r>  -14.3963    1.0000 </r>
       <r>  -14.3854    1.0000 </r>
       <r>  -14.3435    1.0000 </r>
       <r>  -14.2473    1.0000 </r>
       <r>  -14.2455    1.0000 </r>
       <r>  -14.2434    1.0000 </r>
       <r>  -14.2429    1.0000 </r>
       <r>  -14.2074    1.0000 </r>
       <r>  -14.2067    1.0000 </r>
       <r>  -14.1719    1.0000 </r>
       <r>  -14.1497    1.0000 </r>
       <r>  -14.1112    1.0000 </r>
       <r>  -14.0358    1.0000 </r>
       <r>  -13.9977    1.0000 </r>
       <r>  -13.9974    1.0000 </r>
       <r>  -13.9484    1.0000 </r>
       <r>  -13.7880    1.0000 </r>
       <r>  -13.7420    1.0000 </r>
       <r>  -13.7401    1.0000 </r>
       <r>  -13.7126    1.0000 </r>
       <r>  -13.7107    1.0000 </r>
       <r>  -13.7032    1.0000 </r>
       <r>  -13.6817    1.0000 </r>
       <r>  -13.6590    1.0000 </r>
       <r>  -13.6540    1.0000 </r>
       <r>  -13.6048    1.0000 </r>
       <r>  -13.5330    1.0000 </r>
       <r>  -13.5326    1.0000 </r>
       <r>  -13.5187    1.0000 </r>
       <r>  -13.5183    1.0000 </r>
       <r>  -13.5056    1.0000 </r>
       <r>  -13.3598    1.0000 </r>
       <r>  -13.3378    1.0000 </r>
       <r>  -13.2555    1.0000 </r>
       <r>  -13.2232    1.0000 </r>
       <r>  -13.1100    1.0000 </r>
       <r>  -13.0689    1.0000 </r>
       <r>  -13.0639    1.0000 </r>
       <r>  -13.0617    1.0000 </r>
       <r>  -13.0608    1.0000 </r>
       <r>  -13.0334    1.0000 </r>
       <r>  -13.0268    1.0000 </r>
       <r>  -13.0231    1.0000 </r>
       <r>  -13.0165    1.0000 </r>
       <r>  -12.9741    1.0000 </r>
       <r>  -12.9292    1.0000 </r>
       <r>  -12.8941    1.0000 </r>
       <r>  -12.8911    1.0000 </r>
       <r>  -12.8895    1.0000 </r>
       <r>  -12.8892    1.0000 </r>
       <r>  -12.8785    1.0000 </r>
       <r>  -12.8781    1.0000 </r>
       <r>  -12.8772    1.0000 </r>
       <r>  -12.8769    1.0000 </r>
       <r>  -12.8669    1.0000 </r>
       <r>  -12.8599    1.0000 </r>
       <r>  -12.8551    1.0000 </r>
       <r>  -12.8517    1.0000 </r>
       <r>  -12.8506    1.0000 </r>
       <r>  -12.7154    1.0000 </r>
       <r>  -12.7151    1.0000 </r>
       <r>  -12.7147    1.0000 </r>
       <r>  -12.7146    1.0000 </r>
       <r>  -12.6837    1.0000 </r>
       <r>  -12.6099    1.0000 </r>
       <r>  -12.5985    1.0000 </r>
       <r>  -12.5767    1.0000 </r>
       <r>  -12.5729    1.0000 </r>
       <r>  -12.5514    1.0000 </r>
       <r>  -12.5335    1.0000 </r>
       <r>  -12.4986    1.0000 </r>
       <r>  -12.4378    1.0000 </r>
       <r>  -12.4293    1.0000 </r>
       <r>  -12.4247    1.0000 </r>
       <r>  -12.4228    1.0000 </r>
       <r>  -12.3423    1.0000 </r>
       <r>  -12.3383    1.0000 </r>
       <r>  -12.3219    1.0000 </r>
       <r>  -12.3171    1.0000 </r>
       <r>  -12.2463    1.0000 </r>
       <r>  -12.2453    1.0000 </r>
       <r>  -12.2368    1.0000 </r>
       <r>  -12.2328    1.0000 </r>
       <r>  -12.2191    1.0000 </r>
       <r>  -12.2178    1.0000 </r>
       <r>  -12.2082    1.0000 </r>
       <r>  -12.2051    1.0000 </r>
       <r>  -12.1765    1.0000 </r>
       <r>  -12.1762    1.0000 </r>
       <r>  -12.1708    1.0000 </r>
       <r>  -12.1706    1.0000 </r>
       <r>  -12.0959    1.0000 </r>
       <r>  -12.0957    1.0000 </r>
       <r>  -12.0892    1.0000 </r>
       <r>  -12.0872    1.0000 </r>
       <r>  -12.0872    1.0000 </r>
       <r>  -12.0851    1.0000 </r>
       <r>  -11.9510    1.0000 </r>
       <r>  -11.9481    1.0000 </r>
       <r>  -11.9467    1.0000 </r>
       <r>  -11.9436    1.0000 </r>
       <r>  -11.8160    1.0000 </r>
       <r>  -11.8153    1.0000 </r>
       <r>  -11.8080    1.0000 </r>
       <r>  -11.8074    1.0000 </r>
       <r>  -11.8045    1.0000 </r>
       <r>  -11.8036    1.0000 </r>
       <r>  -11.7851    1.0000 </r>
       <r>  -11.7847    1.0000 </r>
       <r>  -11.7796    1.0000 </r>
       <r>  -11.7792    1.0000 </r>
       <r>  -11.6685    1.0000 </r>
       <r>  -11.6684    1.0000 </r>
       <r>  -11.6613    1.0000 </r>
       <r>  -11.6613    1.0000 </r>
       <r>   -8.3630    1.0000 </r>
       <r>   -7.2839    1.0000 </r>
       <r>   -7.2707    1.0000 </r>
       <r>   -6.7936    1.0000 </r>
       <r>   -6.7046    1.0000 </r>
       <r>   -6.6829    1.0000 </r>
       <r>   -6.4379    1.0000 </r>
       <r>   -6.4061    1.0000 </r>
       <r>   -6.3219    1.0000 </r>
       <r>   -6.3089    1.0000 </r>
       <r>   -6.3061    1.0000 </r>
       <r>   -6.3040    1.0000 </r>
       <r>   -6.2994    1.0000 </r>
       <r>   -6.2870    1.0000 </r>
       <r>   -6.2758    1.0000 </r>
       <r>   -6.2745    1.0000 </r>
       <r>   -6.2691    1.0000 </r>
       <r>   -6.2681    1.0000 </r>
       <r>   -6.2157    1.0000 </r>
       <r>   -6.2156    1.0000 </r>
       <r>   -6.2118    1.0000 </r>
       <r>   -6.2075    1.0000 </r>
       <r>   -6.1960    1.0000 </r>
       <r>   -6.1950    1.0000 </r>
       <r>   -6.1589    1.0000 </r>
       <r>   -6.1587    1.0000 </r>
       <r>   -6.1492    1.0000 </r>
       <r>   -6.1491    1.0000 </r>
       <r>   -6.0725    1.0000 </r>
       <r>   -6.0713    1.0000 </r>
       <r>   -5.9353    1.0000 </r>
       <r>   -5.9280    1.0000 </r>
       <r>   -5.9109    1.0000 </r>
       <r>   -5.9035    1.0000 </r>
       <r>   -5.8440    1.0000 </r>
       <r>   -5.7895    1.0000 </r>
       <r>   -5.7819    1.0000 </r>
       <r>   -5.7718    1.0000 </r>
       <r>   -5.7693    1.0000 </r>
       <r>   -5.7688    1.0000 </r>
       <r>   -5.7641    1.0000 </r>
       <r>   -5.7615    1.0000 </r>
       <r>   -5.7586    1.0000 </r>
       <r>   -5.7582    1.0000 </r>
       <r>   -5.7577    1.0000 </r>
       <r>   -5.7508    1.0000 </r>
       <r>   -5.7393    1.0000 </r>
       <r>   -5.6844    1.0000 </r>
       <r>   -5.6541    1.0000 </r>
       <r>   -5.6419    1.0000 </r>
       <r>   -5.6232    1.0000 </r>
       <r>   -5.6232    1.0000 </r>
       <r>   -5.6200    1.0000 </r>
       <r>   -5.6199    1.0000 </r>
       <r>   -5.2297    1.0000 </r>
       <r>   -5.2267    1.0000 </r>
       <r>   -5.2254    1.0000 </r>
       <r>   -5.2246    1.0000 </r>
       <r>   -5.2238    1.0000 </r>
       <r>   -5.2198    1.0000 </r>
       <r>   -5.2193    1.0000 </r>
       <r>   -5.2187    1.0000 </r>
       <r>   -5.2183    1.0000 </r>
       <r>   -5.2179    1.0000 </r>
       <r>   -5.2168    1.0000 </r>
       <r>   -5.2165    1.0000 </r>
       <r>   -5.1148    1.0000 </r>
       <r>   -5.1103    1.0000 </r>
       <r>   -5.0908    1.0000 </r>
       <r>   -5.0907    1.0000 </r>
       <r>   -5.0879    1.0000 </r>
       <r>   -5.0878    1.0000 </r>
       <r>   -5.0876    1.0000 </r>
       <r>   -5.0875    1.0000 </r>
       <r>   -5.0260    1.0000 </r>
       <r>   -4.9211    1.0000 </r>
       <r>   -4.8319    1.0000 </r>
       <r>   -4.6117    1.0000 </r>
       <r>   -4.5543    1.0000 </r>
       <r>   -4.5412    1.0000 </r>
       <r>   -4.4752    1.0000 </r>
       <r>   -4.4726    1.0000 </r>
       <r>   -4.4722    1.0000 </r>
       <r>   -4.4713    1.0000 </r>
       <r>   -4.4712    1.0000 </r>
       <r>   -4.4689    1.0000 </r>
       <r>   -4.4685    1.0000 </r>
       <r>   -4.4680    1.0000 </r>
       <r>   -4.3413    1.0000 </r>
       <r>   -4.3411    1.0000 </r>
       <r>   -4.3409    1.0000 </r>
       <r>   -4.3408    1.0000 </r>
       <r>   -4.3164    1.0000 </r>
       <r>   -4.2888    1.0000 </r>
       <r>   -4.2018    1.0000 </r>
       <r>   -4.0979    1.0000 </r>
       <r>   -4.0882    1.0000 </r>
       <r>   -4.0874    1.0000 </r>
       <r>   -4.0842    1.0000 </r>
       <r>   -4.0837    1.0000 </r>
       <r>   -4.0766    1.0000 </r>
       <r>   -4.0737    1.0000 </r>
       <r>   -4.0715    1.0000 </r>
       <r>   -4.0692    1.0000 </r>
       <r>   -4.0288    1.0000 </r>
       <r>   -3.9501    1.0000 </r>
       <r>   -3.9501    1.0000 </r>
       <r>   -3.9467    1.0000 </r>
       <r>   -3.9466    1.0000 </r>
       <r>   -3.9093    1.0000 </r>
       <r>   -3.8655    1.0000 </r>
       <r>   -3.7857    1.0000 </r>
       <r>   -3.6235    1.0000 </r>
       <r>   -3.6205    1.0000 </r>
       <r>   -3.6159    1.0000 </r>
       <r>   -3.6141    1.0000 </r>
       <r>   -3.6078    1.0000 </r>
       <r>   -3.6038    1.0000 </r>
       <r>   -3.6018    1.0000 </r>
       <r>   -3.5983    1.0000 </r>
       <r>   -3.5978    1.0000 </r>
       <r>   -3.4797    1.0000 </r>
       <r>   -3.4796    1.0000 </r>
       <r>   -3.4783    1.0000 </r>
       <r>   -3.4741    1.0000 </r>
       <r>   -3.4741    1.0000 </r>
       <r>   -3.4690    1.0000 </r>
       <r>   -3.4672    1.0000 </r>
       <r>   -3.4662    1.0000 </r>
       <r>   -3.4639    1.0000 </r>
       <r>   -3.3904    1.0000 </r>
       <r>   -3.3584    1.0000 </r>
       <r>   -3.3472    1.0000 </r>
       <r>   -3.3403    1.0000 </r>
       <r>   -3.3395    1.0000 </r>
       <r>   -3.3382    1.0000 </r>
       <r>   -3.3381    1.0000 </r>
       <r>   -3.1562    1.0000 </r>
       <r>   -3.0973    1.0000 </r>
       <r>   -3.0769    1.0000 </r>
       <r>   -3.0739    1.0000 </r>
       <r>   -3.0716    1.0000 </r>
       <r>   -3.0668    1.0000 </r>
       <r>   -3.0036    1.0000 </r>
       <r>   -2.9997    1.0000 </r>
       <r>   -2.9918    1.0000 </r>
       <r>   -2.9383    1.0000 </r>
       <r>   -2.9377    1.0000 </r>
       <r>   -2.8560    1.0000 </r>
       <r>   -2.8425    1.0000 </r>
       <r>   -2.7698    1.0000 </r>
       <r>   -2.7660    1.0000 </r>
       <r>   -2.7564    1.0000 </r>
       <r>   -2.7267    1.0000 </r>
       <r>   -2.6771    1.0000 </r>
       <r>   -2.6739    1.0000 </r>
       <r>   -2.6724    1.0000 </r>
       <r>   -2.6628    1.0000 </r>
       <r>   -2.6422    1.0000 </r>
       <r>   -2.5486    1.0000 </r>
       <r>   -2.5456    1.0000 </r>
       <r>   -2.5452    1.0000 </r>
       <r>   -2.5176    1.0000 </r>
       <r>   -2.4675    1.0000 </r>
       <r>   -2.3929    1.0000 </r>
       <r>   -2.3873    1.0000 </r>
       <r>   -2.3771    1.0000 </r>
       <r>   -2.3751    1.0000 </r>
       <r>   -2.3744    1.0000 </r>
       <r>   -2.3722    1.0000 </r>
       <r>   -2.3710    1.0000 </r>
       <r>   -2.3700    1.0000 </r>
       <r>   -2.3694    1.0000 </r>
       <r>   -2.3685    1.0000 </r>
       <r>   -2.3664    1.0000 </r>
       <r>   -2.3476    1.0000 </r>
       <r>   -2.2860    1.0000 </r>
       <r>   -2.2629    1.0000 </r>
       <r>   -2.2573    1.0000 </r>
       <r>   -2.2410    1.0000 </r>
       <r>   -2.2406    1.0000 </r>
       <r>   -2.2405    1.0000 </r>
       <r>   -2.2403    1.0000 </r>
       <r>   -2.2372    1.0000 </r>
       <r>   -2.2085    1.0000 </r>
       <r>   -2.2081    1.0000 </r>
       <r>   -2.1998    1.0000 </r>
       <r>   -2.1649    1.0000 </r>
       <r>   -2.1588    1.0000 </r>
       <r>   -2.1442    1.0000 </r>
       <r>   -2.1263    1.0000 </r>
       <r>   -2.0989    1.0000 </r>
       <r>   -2.0915    1.0000 </r>
       <r>   -2.0909    1.0000 </r>
       <r>   -2.0860    1.0000 </r>
       <r>   -2.0855    1.0000 </r>
       <r>   -2.0591    1.0000 </r>
       <r>   -2.0565    1.0000 </r>
       <r>   -2.0520    1.0000 </r>
       <r>   -2.0494    1.0000 </r>
       <r>   -2.0104    1.0000 </r>
       <r>   -1.9643    1.0000 </r>
       <r>   -1.9430    1.0000 </r>
       <r>   -1.9430    1.0000 </r>
       <r>   -1.9364    1.0000 </r>
       <r>   -1.9331    1.0000 </r>
       <r>   -1.9330    1.0000 </r>
       <r>   -1.9311    1.0000 </r>
       <r>   -1.9067    1.0000 </r>
       <r>   -1.9053    1.0000 </r>
       <r>   -1.8963    1.0000 </r>
       <r>   -1.8835    1.0000 </r>
       <r>   -1.8649    1.0000 </r>
       <r>   -1.8603    1.0000 </r>
       <r>   -1.8600    1.0000 </r>
       <r>   -1.8587    1.0000 </r>
       <r>   -1.8577    1.0000 </r>
       <r>   -1.8565    1.0000 </r>
       <r>   -1.8553    1.0000 </r>
       <r>   -1.8537    1.0000 </r>
       <r>   -1.7803    1.0000 </r>
       <r>   -1.7783    1.0000 </r>
       <r>   -1.7779    1.0000 </r>
       <r>   -1.7769    1.0000 </r>
       <r>   -1.7748    1.0000 </r>
       <r>   -1.7739    1.0000 </r>
       <r>   -1.7732    1.0000 </r>
       <r>   -1.7710    1.0000 </r>
       <r>   -1.7456    1.0000 </r>
       <r>   -1.7437    1.0000 </r>
       <r>   -1.7414    1.0000 </r>
       <r>   -1.7412    1.0000 </r>
       <r>   -1.7153    1.0000 </r>
       <r>   -1.7085    1.0000 </r>
       <r>   -1.6882    1.0000 </r>
       <r>   -1.6616    1.0000 </r>
       <r>   -1.6452    1.0000 </r>
       <r>   -1.6451    1.0000 </r>
       <r>   -1.6449    1.0000 </r>
       <r>   -1.6449    1.0000 </r>
       <r>   -1.6097    1.0000 </r>
       <r>   -1.6091    1.0000 </r>
       <r>   -1.5860    1.0000 </r>
       <r>   -1.5839    1.0000 </r>
       <r>   -1.5797    1.0000 </r>
       <r>   -1.5598    1.0000 </r>
       <r>   -1.5549    1.0000 </r>
       <r>   -1.5500    1.0000 </r>
       <r>   -1.4645    1.0000 </r>
       <r>   -1.4487    1.0000 </r>
       <r>   -1.4411    1.0000 </r>
       <r>   -1.4316    1.0000 </r>
       <r>   -1.2639    1.0000 </r>
       <r>   -1.2557    1.0000 </r>
       <r>   -1.2533    1.0000 </r>
       <r>   -1.2357    1.0000 </r>
       <r>   -1.2349    1.0000 </r>
       <r>   -1.2246    1.0000 </r>
       <r>   -1.2237    1.0000 </r>
       <r>   -1.2089    1.0000 </r>
       <r>   -1.2076    1.0000 </r>
       <r>   -1.2069    1.0000 </r>
       <r>   -1.2059    1.0000 </r>
       <r>   -1.1943    1.0000 </r>
       <r>   -1.1877    1.0000 </r>
       <r>   -1.1871    1.0000 </r>
       <r>   -1.1858    1.0000 </r>
       <r>   -1.1581    1.0000 </r>
       <r>   -1.1199    1.0000 </r>
       <r>   -1.0878    1.0000 </r>
       <r>   -1.0877    1.0000 </r>
       <r>   -1.0825    1.0000 </r>
       <r>   -1.0824    1.0000 </r>
       <r>   -1.0562    1.0000 </r>
       <r>   -1.0159    1.0000 </r>
       <r>   -0.9347    1.0000 </r>
       <r>   -0.9301    1.0000 </r>
       <r>   -0.9158    1.0000 </r>
       <r>   -0.9102    1.0000 </r>
       <r>   -0.9086    1.0000 </r>
       <r>   -0.8572    1.0000 </r>
       <r>   -0.8453    1.0000 </r>
       <r>   -0.8355    1.0000 </r>
       <r>   -0.7765    1.0000 </r>
       <r>   -0.7323    1.0000 </r>
       <r>   -0.7085    1.0000 </r>
       <r>   -0.7057    1.0000 </r>
       <r>   -0.6565    1.0000 </r>
       <r>   -0.6386    1.0000 </r>
       <r>   -0.5976    1.0000 </r>
       <r>   -0.5949    1.0000 </r>
       <r>   -0.5301    1.0000 </r>
       <r>   -0.5183    1.0000 </r>
       <r>   -0.5172    1.0000 </r>
       <r>   -0.5150    1.0000 </r>
       <r>   -0.5137    1.0000 </r>
       <r>   -0.4636    1.0000 </r>
       <r>   -0.4590    1.0000 </r>
       <r>   -0.4577    1.0000 </r>
       <r>   -0.4562    1.0000 </r>
       <r>   -0.4536    1.0000 </r>
       <r>   -0.4532    1.0000 </r>
       <r>   -0.4513    1.0000 </r>
       <r>   -0.4491    1.0000 </r>
       <r>   -0.4182    1.0000 </r>
       <r>   -0.3835    1.0000 </r>
       <r>   -0.3835    1.0000 </r>
       <r>   -0.3771    1.0000 </r>
       <r>   -0.3515    1.0000 </r>
       <r>   -0.3500    1.0000 </r>
       <r>   -0.3470    1.0000 </r>
       <r>   -0.3463    1.0000 </r>
       <r>   -0.3265    1.0000 </r>
       <r>   -0.3261    1.0000 </r>
       <r>   -0.3258    1.0000 </r>
       <r>   -0.3254    1.0000 </r>
       <r>   -0.2800    1.0000 </r>
       <r>   -0.2648    1.0000 </r>
       <r>   -0.2639    1.0000 </r>
       <r>   -0.2582    1.0000 </r>
       <r>   -0.2556    1.0000 </r>
       <r>   -0.2546    1.0000 </r>
       <r>   -0.2517    1.0000 </r>
       <r>   -0.2250    1.0000 </r>
       <r>   -0.2243    1.0000 </r>
       <r>   -0.2179    1.0000 </r>
       <r>   -0.2136    1.0000 </r>
       <r>   -0.1421    1.0000 </r>
       <r>   -0.1403    1.0000 </r>
       <r>   -0.0466    1.0000 </r>
       <r>   -0.0090    1.0000 </r>
       <r>    0.0009    1.0000 </r>
       <r>    0.0098    1.0000 </r>
       <r>    0.0110    1.0000 </r>
       <r>    0.0179    1.0000 </r>
       <r>    0.0184    1.0000 </r>
       <r>    0.0338    1.0000 </r>
       <r>    0.0360    1.0000 </r>
       <r>    0.0496    1.0000 </r>
       <r>    0.1867    1.0000 </r>
       <r>    0.2768    1.0000 </r>
       <r>    0.3159    1.0000 </r>
       <r>    0.3400    1.0000 </r>
       <r>    0.3437    1.0000 </r>
       <r>    0.3459    1.0000 </r>
       <r>    0.3480    1.0000 </r>
       <r>    0.3502    1.0000 </r>
       <r>    0.3946    1.0000 </r>
       <r>    0.4207    1.0000 </r>
       <r>    0.4766    1.0000 </r>
       <r>    0.4773    1.0000 </r>
       <r>    0.4881    1.0000 </r>
       <r>    0.5103    1.0000 </r>
       <r>    0.5571    1.0000 </r>
       <r>    0.5586    1.0000 </r>
       <r>    0.5655    1.0000 </r>
       <r>    0.5774    1.0000 </r>
       <r>    0.5871    1.0000 </r>
       <r>    0.5887    1.0000 </r>
       <r>    0.6156    1.0000 </r>
       <r>    0.6300    1.0000 </r>
       <r>    0.6523    1.0000 </r>
       <r>    0.6940    1.0000 </r>
       <r>    0.7033    1.0000 </r>
       <r>    0.7275    1.0000 </r>
       <r>    0.7283    1.0000 </r>
       <r>    0.8534    1.0000 </r>
       <r>    0.8550    1.0000 </r>
       <r>    0.8567    1.0000 </r>
       <r>    0.8624    1.0000 </r>
       <r>    0.8646    1.0000 </r>
       <r>    0.8655    1.0000 </r>
       <r>    0.8661    1.0000 </r>
       <r>    0.8741    1.0000 </r>
       <r>    0.8755    1.0000 </r>
       <r>    0.8764    1.0000 </r>
       <r>    0.8838    1.0000 </r>
       <r>    0.8860    1.0000 </r>
       <r>    0.8923    1.0000 </r>
       <r>    0.8935    1.0000 </r>
       <r>    0.9045    1.0000 </r>
       <r>    0.9054    1.0000 </r>
       <r>    0.9937    1.0000 </r>
       <r>    1.0028    1.0000 </r>
       <r>    1.0576    1.0000 </r>
       <r>    1.0657    1.0000 </r>
       <r>    1.0777    1.0000 </r>
       <r>    1.0779    1.0000 </r>
       <r>    1.0944    1.0000 </r>
       <r>    1.0949    1.0000 </r>
       <r>    1.1008    1.0000 </r>
       <r>    1.1083    1.0000 </r>
       <r>    1.1094    1.0000 </r>
       <r>    1.2446    1.0000 </r>
       <r>    1.2591    1.0000 </r>
       <r>    1.3043    1.0000 </r>
       <r>    1.4340    1.0000 </r>
       <r>    1.4466    1.0000 </r>
       <r>    1.4564    1.0000 </r>
       <r>    1.4625    1.0000 </r>
       <r>    1.5917    1.0000 </r>
       <r>    1.6014    1.0000 </r>
       <r>    1.6028    1.0000 </r>
       <r>    1.6056    1.0000 </r>
       <r>    1.6139    1.0000 </r>
       <r>    1.6216    1.0000 </r>
       <r>    1.6524    1.0000 </r>
       <r>    1.6658    1.0000 </r>
       <r>    1.7125    1.0000 </r>
       <r>    1.7142    1.0000 </r>
       <r>    1.7674    1.0000 </r>
       <r>    1.7733    1.0000 </r>
       <r>    1.8436    1.0000 </r>
       <r>    1.8518    1.0000 </r>
       <r>    1.8539    1.0000 </r>
       <r>    1.8622    1.0000 </r>
       <r>    1.8662    1.0000 </r>
       <r>    1.8707    1.0000 </r>
       <r>    1.8778    1.0000 </r>
       <r>    1.8793    1.0000 </r>
       <r>    1.9870    1.0000 </r>
       <r>    2.0020    1.0000 </r>
       <r>    2.1867    1.0000 </r>
       <r>    2.1884    1.0000 </r>
       <r>    2.1959    1.0000 </r>
       <r>    2.1999    1.0000 </r>
       <r>    2.2060    1.0000 </r>
       <r>    2.2101    1.0000 </r>
       <r>    2.3789    1.0000 </r>
       <r>    2.3814    1.0000 </r>
       <r>    2.3893    1.0000 </r>
       <r>    2.3893    1.0000 </r>
       <r>    4.6563    1.0000 </r>
       <r>    5.9204    0.0000 </r>
       <r>    6.6056    0.0000 </r>
       <r>    6.6231    0.0000 </r>
       <r>    6.6275    0.0000 </r>
       <r>    6.8743    0.0000 </r>
       <r>    6.9351    0.0000 </r>
       <r>    7.0015    0.0000 </r>
       <r>    7.0142    0.0000 </r>
       <r>    7.0443    0.0000 </r>
       <r>    7.0541    0.0000 </r>
       <r>    7.0681    0.0000 </r>
       <r>    7.0804    0.0000 </r>
       <r>    7.1069    0.0000 </r>
       <r>    7.1148    0.0000 </r>
       <r>    7.1451    0.0000 </r>
       <r>    7.1470    0.0000 </r>
       <r>    7.2306    0.0000 </r>
       <r>    7.2650    0.0000 </r>
       <r>    7.2653    0.0000 </r>
       <r>    7.2861    0.0000 </r>
       <r>    7.2863    0.0000 </r>
       <r>    7.4230    0.0000 </r>
       <r>    7.4493    0.0000 </r>
       <r>    7.4565    0.0000 </r>
       <r>    7.4740    0.0000 </r>
       <r>    7.4836    0.0000 </r>
       <r>    7.5675    0.0000 </r>
       <r>    7.5721    0.0000 </r>
       <r>    7.6150    0.0000 </r>
       <r>    7.6463    0.0000 </r>
       <r>    7.6607    0.0000 </r>
       <r>    7.6647    0.0000 </r>
       <r>    7.6654    0.0000 </r>
       <r>    7.6668    0.0000 </r>
       <r>    7.6827    0.0000 </r>
       <r>    7.7019    0.0000 </r>
       <r>    7.7325    0.0000 </r>
       <r>    7.7351    0.0000 </r>
       <r>    7.7819    0.0000 </r>
       <r>    7.8437    0.0000 </r>
       <r>    7.8758    0.0000 </r>
       <r>    7.8968    0.0000 </r>
       <r>    7.9696    0.0000 </r>
       <r>    7.9764    0.0000 </r>
       <r>    8.0050    0.0000 </r>
       <r>    8.0068    0.0000 </r>
       <r>    8.0820    0.0000 </r>
       <r>    8.0962    0.0000 </r>
       <r>    8.0990    0.0000 </r>
       <r>    8.1903    0.0000 </r>
       <r>    8.2104    0.0000 </r>
       <r>    8.2335    0.0000 </r>
       <r>    8.2812    0.0000 </r>
       <r>    8.3350    0.0000 </r>
       <r>    8.3377    0.0000 </r>
       <r>    8.3619    0.0000 </r>
       <r>    8.4658    0.0000 </r>
       <r>    8.4792    0.0000 </r>
       <r>    8.4889    0.0000 </r>
       <r>    8.4950    0.0000 </r>
       <r>    8.4959    0.0000 </r>
       <r>    8.5079    0.0000 </r>
       <r>    8.5100    0.0000 </r>
       <r>    8.5111    0.0000 </r>
       <r>    8.5327    0.0000 </r>
       <r>    8.5576    0.0000 </r>
       <r>    8.5636    0.0000 </r>
       <r>    8.6270    0.0000 </r>
       <r>    8.7576    0.0000 </r>
       <r>    8.8114    0.0000 </r>
       <r>    8.8793    0.0000 </r>
       <r>    8.8974    0.0000 </r>
       <r>    8.9149    0.0000 </r>
       <r>    8.9644    0.0000 </r>
       <r>    9.0015    0.0000 </r>
       <r>    9.0084    0.0000 </r>
       <r>    9.0163    0.0000 </r>
       <r>    9.0172    0.0000 </r>
       <r>    9.0216    0.0000 </r>
       <r>    9.0288    0.0000 </r>
       <r>    9.0930    0.0000 </r>
       <r>    9.1311    0.0000 </r>
       <r>    9.1621    0.0000 </r>
       <r>    9.1651    0.0000 </r>
       <r>    9.1771    0.0000 </r>
       <r>    9.2071    0.0000 </r>
       <r>    9.2082    0.0000 </r>
       <r>    9.2113    0.0000 </r>
       <r>    9.3007    0.0000 </r>
       <r>    9.3157    0.0000 </r>
       <r>    9.4002    0.0000 </r>
       <r>    9.4267    0.0000 </r>
       <r>    9.4412    0.0000 </r>
       <r>    9.4456    0.0000 </r>
       <r>    9.5808    0.0000 </r>
       <r>    9.6003    0.0000 </r>
       <r>    9.6032    0.0000 </r>
       <r>    9.6060    0.0000 </r>
       <r>    9.6073    0.0000 </r>
       <r>    9.6127    0.0000 </r>
       <r>    9.6352    0.0000 </r>
       <r>    9.6711    0.0000 </r>
       <r>    9.7067    0.0000 </r>
       <r>    9.7106    0.0000 </r>
       <r>    9.7289    0.0000 </r>
       <r>    9.7367    0.0000 </r>
       <r>    9.7730    0.0000 </r>
       <r>    9.8164    0.0000 </r>
       <r>    9.8253    0.0000 </r>
       <r>    9.9220    0.0000 </r>
       <r>    9.9246    0.0000 </r>
       <r>    9.9369    0.0000 </r>
       <r>    9.9646    0.0000 </r>
       <r>    9.9680    0.0000 </r>
       <r>   10.0289    0.0000 </r>
       <r>   10.0654    0.0000 </r>
       <r>   10.1001    0.0000 </r>
       <r>   10.1011    0.0000 </r>
       <r>   10.3005    0.0000 </r>
       <r>   10.3390    0.0000 </r>
       <r>   10.4233    0.0000 </r>
       <r>   10.4270    0.0000 </r>
       <r>   10.5251    0.0000 </r>
       <r>   10.5260    0.0000 </r>
       <r>   10.5476    0.0000 </r>
       <r>   10.5531    0.0000 </r>
       <r>   10.8652    0.0000 </r>
       <r>   10.9852    0.0000 </r>
       <r>   11.2069    0.0000 </r>
       <r>   11.2101    0.0000 </r>
       <r>   11.2802    0.0000 </r>
       <r>   11.4028    0.0000 </r>
       <r>   11.4113    0.0000 </r>
       <r>   11.4329    0.0000 </r>
       <r>   11.4631    0.0000 </r>
       <r>   11.4921    0.0000 </r>
       <r>   11.5299    0.0000 </r>
       <r>   11.5752    0.0000 </r>
       <r>   11.5815    0.0000 </r>
       <r>   11.5873    0.0000 </r>
       <r>   11.6005    0.0000 </r>
       <r>   11.6177    0.0000 </r>
       <r>   11.6480    0.0000 </r>
       <r>   11.7082    0.0000 </r>
       <r>   11.7404    0.0000 </r>
       <r>   11.8059    0.0000 </r>
       <r>   11.8677    0.0000 </r>
       <r>   11.9305    0.0000 </r>
       <r>   11.9648    0.0000 </r>
       <r>   11.9953    0.0000 </r>
       <r>   12.0572    0.0000 </r>
      </set>
      <set comment="kpoint 7">
       <r>  -17.2936    1.0000 </r>
       <r>  -15.7751    1.0000 </r>
       <r>  -15.7302    1.0000 </r>
       <r>  -15.4176    1.0000 </r>
       <r>  -15.3045    1.0000 </r>
       <r>  -15.2756    1.0000 </r>
       <r>  -15.2416    1.0000 </r>
       <r>  -15.2054    1.0000 </r>
       <r>  -15.1439    1.0000 </r>
       <r>  -15.0917    1.0000 </r>
       <r>  -15.0608    1.0000 </r>
       <r>  -15.0343    1.0000 </r>
       <r>  -15.0147    1.0000 </r>
       <r>  -14.9845    1.0000 </r>
       <r>  -14.9843    1.0000 </r>
       <r>  -14.9073    1.0000 </r>
       <r>  -14.9002    1.0000 </r>
       <r>  -14.8552    1.0000 </r>
       <r>  -14.7583    1.0000 </r>
       <r>  -14.7572    1.0000 </r>
       <r>  -14.6190    1.0000 </r>
       <r>  -14.5680    1.0000 </r>
       <r>  -14.5519    1.0000 </r>
       <r>  -14.4666    1.0000 </r>
       <r>  -14.4632    1.0000 </r>
       <r>  -14.4596    1.0000 </r>
       <r>  -14.4584    1.0000 </r>
       <r>  -14.4248    1.0000 </r>
       <r>  -14.4028    1.0000 </r>
       <r>  -14.3958    1.0000 </r>
       <r>  -14.3854    1.0000 </r>
       <r>  -14.3439    1.0000 </r>
       <r>  -14.2473    1.0000 </r>
       <r>  -14.2456    1.0000 </r>
       <r>  -14.2434    1.0000 </r>
       <r>  -14.2427    1.0000 </r>
       <r>  -14.2078    1.0000 </r>
       <r>  -14.2065    1.0000 </r>
       <r>  -14.1715    1.0000 </r>
       <r>  -14.1502    1.0000 </r>
       <r>  -14.1109    1.0000 </r>
       <r>  -14.0357    1.0000 </r>
       <r>  -13.9977    1.0000 </r>
       <r>  -13.9973    1.0000 </r>
       <r>  -13.9481    1.0000 </r>
       <r>  -13.7881    1.0000 </r>
       <r>  -13.7425    1.0000 </r>
       <r>  -13.7411    1.0000 </r>
       <r>  -13.7115    1.0000 </r>
       <r>  -13.7108    1.0000 </r>
       <r>  -13.7036    1.0000 </r>
       <r>  -13.6826    1.0000 </r>
       <r>  -13.6569    1.0000 </r>
       <r>  -13.6549    1.0000 </r>
       <r>  -13.6046    1.0000 </r>
       <r>  -13.5333    1.0000 </r>
       <r>  -13.5330    1.0000 </r>
       <r>  -13.5183    1.0000 </r>
       <r>  -13.5181    1.0000 </r>
       <r>  -13.5054    1.0000 </r>
       <r>  -13.3597    1.0000 </r>
       <r>  -13.3379    1.0000 </r>
       <r>  -13.2556    1.0000 </r>
       <r>  -13.2233    1.0000 </r>
       <r>  -13.1101    1.0000 </r>
       <r>  -13.0697    1.0000 </r>
       <r>  -13.0634    1.0000 </r>
       <r>  -13.0619    1.0000 </r>
       <r>  -13.0599    1.0000 </r>
       <r>  -13.0343    1.0000 </r>
       <r>  -13.0261    1.0000 </r>
       <r>  -13.0230    1.0000 </r>
       <r>  -13.0159    1.0000 </r>
       <r>  -12.9743    1.0000 </r>
       <r>  -12.9292    1.0000 </r>
       <r>  -12.8944    1.0000 </r>
       <r>  -12.8924    1.0000 </r>
       <r>  -12.8888    1.0000 </r>
       <r>  -12.8883    1.0000 </r>
       <r>  -12.8790    1.0000 </r>
       <r>  -12.8777    1.0000 </r>
       <r>  -12.8772    1.0000 </r>
       <r>  -12.8768    1.0000 </r>
       <r>  -12.8666    1.0000 </r>
       <r>  -12.8605    1.0000 </r>
       <r>  -12.8571    1.0000 </r>
       <r>  -12.8506    1.0000 </r>
       <r>  -12.8498    1.0000 </r>
       <r>  -12.7155    1.0000 </r>
       <r>  -12.7152    1.0000 </r>
       <r>  -12.7147    1.0000 </r>
       <r>  -12.7145    1.0000 </r>
       <r>  -12.6838    1.0000 </r>
       <r>  -12.6102    1.0000 </r>
       <r>  -12.5994    1.0000 </r>
       <r>  -12.5778    1.0000 </r>
       <r>  -12.5718    1.0000 </r>
       <r>  -12.5499    1.0000 </r>
       <r>  -12.5329    1.0000 </r>
       <r>  -12.4982    1.0000 </r>
       <r>  -12.4377    1.0000 </r>
       <r>  -12.4294    1.0000 </r>
       <r>  -12.4248    1.0000 </r>
       <r>  -12.4225    1.0000 </r>
       <r>  -12.3432    1.0000 </r>
       <r>  -12.3387    1.0000 </r>
       <r>  -12.3229    1.0000 </r>
       <r>  -12.3175    1.0000 </r>
       <r>  -12.2474    1.0000 </r>
       <r>  -12.2454    1.0000 </r>
       <r>  -12.2377    1.0000 </r>
       <r>  -12.2327    1.0000 </r>
       <r>  -12.2181    1.0000 </r>
       <r>  -12.2174    1.0000 </r>
       <r>  -12.2070    1.0000 </r>
       <r>  -12.2045    1.0000 </r>
       <r>  -12.1764    1.0000 </r>
       <r>  -12.1763    1.0000 </r>
       <r>  -12.1712    1.0000 </r>
       <r>  -12.1709    1.0000 </r>
       <r>  -12.0960    1.0000 </r>
       <r>  -12.0959    1.0000 </r>
       <r>  -12.0891    1.0000 </r>
       <r>  -12.0869    1.0000 </r>
       <r>  -12.0869    1.0000 </r>
       <r>  -12.0849    1.0000 </r>
       <r>  -11.9510    1.0000 </r>
       <r>  -11.9475    1.0000 </r>
       <r>  -11.9466    1.0000 </r>
       <r>  -11.9429    1.0000 </r>
       <r>  -11.8163    1.0000 </r>
       <r>  -11.8155    1.0000 </r>
       <r>  -11.8094    1.0000 </r>
       <r>  -11.8087    1.0000 </r>
       <r>  -11.8055    1.0000 </r>
       <r>  -11.8045    1.0000 </r>
       <r>  -11.7842    1.0000 </r>
       <r>  -11.7839    1.0000 </r>
       <r>  -11.7784    1.0000 </r>
       <r>  -11.7780    1.0000 </r>
       <r>  -11.6687    1.0000 </r>
       <r>  -11.6686    1.0000 </r>
       <r>  -11.6611    1.0000 </r>
       <r>  -11.6611    1.0000 </r>
       <r>   -8.3630    1.0000 </r>
       <r>   -7.2840    1.0000 </r>
       <r>   -7.2707    1.0000 </r>
       <r>   -6.7935    1.0000 </r>
       <r>   -6.7045    1.0000 </r>
       <r>   -6.6827    1.0000 </r>
       <r>   -6.4380    1.0000 </r>
       <r>   -6.4061    1.0000 </r>
       <r>   -6.3223    1.0000 </r>
       <r>   -6.3099    1.0000 </r>
       <r>   -6.3070    1.0000 </r>
       <r>   -6.3047    1.0000 </r>
       <r>   -6.3000    1.0000 </r>
       <r>   -6.2872    1.0000 </r>
       <r>   -6.2753    1.0000 </r>
       <r>   -6.2737    1.0000 </r>
       <r>   -6.2686    1.0000 </r>
       <r>   -6.2671    1.0000 </r>
       <r>   -6.2157    1.0000 </r>
       <r>   -6.2156    1.0000 </r>
       <r>   -6.2118    1.0000 </r>
       <r>   -6.2070    1.0000 </r>
       <r>   -6.1956    1.0000 </r>
       <r>   -6.1950    1.0000 </r>
       <r>   -6.1592    1.0000 </r>
       <r>   -6.1590    1.0000 </r>
       <r>   -6.1490    1.0000 </r>
       <r>   -6.1489    1.0000 </r>
       <r>   -6.0726    1.0000 </r>
       <r>   -6.0712    1.0000 </r>
       <r>   -5.9358    1.0000 </r>
       <r>   -5.9284    1.0000 </r>
       <r>   -5.9101    1.0000 </r>
       <r>   -5.9025    1.0000 </r>
       <r>   -5.8438    1.0000 </r>
       <r>   -5.7897    1.0000 </r>
       <r>   -5.7817    1.0000 </r>
       <r>   -5.7719    1.0000 </r>
       <r>   -5.7703    1.0000 </r>
       <r>   -5.7695    1.0000 </r>
       <r>   -5.7640    1.0000 </r>
       <r>   -5.7624    1.0000 </r>
       <r>   -5.7583    1.0000 </r>
       <r>   -5.7580    1.0000 </r>
       <r>   -5.7574    1.0000 </r>
       <r>   -5.7503    1.0000 </r>
       <r>   -5.7390    1.0000 </r>
       <r>   -5.6844    1.0000 </r>
       <r>   -5.6541    1.0000 </r>
       <r>   -5.6418    1.0000 </r>
       <r>   -5.6233    1.0000 </r>
       <r>   -5.6233    1.0000 </r>
       <r>   -5.6199    1.0000 </r>
       <r>   -5.6198    1.0000 </r>
       <r>   -5.2290    1.0000 </r>
       <r>   -5.2287    1.0000 </r>
       <r>   -5.2246    1.0000 </r>
       <r>   -5.2242    1.0000 </r>
       <r>   -5.2225    1.0000 </r>
       <r>   -5.2215    1.0000 </r>
       <r>   -5.2198    1.0000 </r>
       <r>   -5.2190    1.0000 </r>
       <r>   -5.2179    1.0000 </r>
       <r>   -5.2175    1.0000 </r>
       <r>   -5.2174    1.0000 </r>
       <r>   -5.2170    1.0000 </r>
       <r>   -5.1149    1.0000 </r>
       <r>   -5.1102    1.0000 </r>
       <r>   -5.0908    1.0000 </r>
       <r>   -5.0907    1.0000 </r>
       <r>   -5.0879    1.0000 </r>
       <r>   -5.0879    1.0000 </r>
       <r>   -5.0875    1.0000 </r>
       <r>   -5.0875    1.0000 </r>
       <r>   -5.0261    1.0000 </r>
       <r>   -4.9211    1.0000 </r>
       <r>   -4.8319    1.0000 </r>
       <r>   -4.6118    1.0000 </r>
       <r>   -4.5541    1.0000 </r>
       <r>   -4.5412    1.0000 </r>
       <r>   -4.4763    1.0000 </r>
       <r>   -4.4728    1.0000 </r>
       <r>   -4.4725    1.0000 </r>
       <r>   -4.4708    1.0000 </r>
       <r>   -4.4703    1.0000 </r>
       <r>   -4.4688    1.0000 </r>
       <r>   -4.4678    1.0000 </r>
       <r>   -4.4663    1.0000 </r>
       <r>   -4.3414    1.0000 </r>
       <r>   -4.3412    1.0000 </r>
       <r>   -4.3408    1.0000 </r>
       <r>   -4.3407    1.0000 </r>
       <r>   -4.3164    1.0000 </r>
       <r>   -4.2888    1.0000 </r>
       <r>   -4.2019    1.0000 </r>
       <r>   -4.0979    1.0000 </r>
       <r>   -4.0901    1.0000 </r>
       <r>   -4.0873    1.0000 </r>
       <r>   -4.0851    1.0000 </r>
       <r>   -4.0833    1.0000 </r>
       <r>   -4.0741    1.0000 </r>
       <r>   -4.0737    1.0000 </r>
       <r>   -4.0707    1.0000 </r>
       <r>   -4.0692    1.0000 </r>
       <r>   -4.0287    1.0000 </r>
       <r>   -3.9503    1.0000 </r>
       <r>   -3.9502    1.0000 </r>
       <r>   -3.9466    1.0000 </r>
       <r>   -3.9465    1.0000 </r>
       <r>   -3.9095    1.0000 </r>
       <r>   -3.8655    1.0000 </r>
       <r>   -3.7859    1.0000 </r>
       <r>   -3.6247    1.0000 </r>
       <r>   -3.6230    1.0000 </r>
       <r>   -3.6166    1.0000 </r>
       <r>   -3.6156    1.0000 </r>
       <r>   -3.6076    1.0000 </r>
       <r>   -3.6026    1.0000 </r>
       <r>   -3.6013    1.0000 </r>
       <r>   -3.5975    1.0000 </r>
       <r>   -3.5963    1.0000 </r>
       <r>   -3.4797    1.0000 </r>
       <r>   -3.4796    1.0000 </r>
       <r>   -3.4785    1.0000 </r>
       <r>   -3.4741    1.0000 </r>
       <r>   -3.4740    1.0000 </r>
       <r>   -3.4688    1.0000 </r>
       <r>   -3.4669    1.0000 </r>
       <r>   -3.4663    1.0000 </r>
       <r>   -3.4634    1.0000 </r>
       <r>   -3.3908    1.0000 </r>
       <r>   -3.3581    1.0000 </r>
       <r>   -3.3470    1.0000 </r>
       <r>   -3.3411    1.0000 </r>
       <r>   -3.3395    1.0000 </r>
       <r>   -3.3383    1.0000 </r>
       <r>   -3.3381    1.0000 </r>
       <r>   -3.1561    1.0000 </r>
       <r>   -3.0974    1.0000 </r>
       <r>   -3.0793    1.0000 </r>
       <r>   -3.0738    1.0000 </r>
       <r>   -3.0726    1.0000 </r>
       <r>   -3.0659    1.0000 </r>
       <r>   -3.0039    1.0000 </r>
       <r>   -2.9996    1.0000 </r>
       <r>   -2.9917    1.0000 </r>
       <r>   -2.9385    1.0000 </r>
       <r>   -2.9376    1.0000 </r>
       <r>   -2.8559    1.0000 </r>
       <r>   -2.8421    1.0000 </r>
       <r>   -2.7698    1.0000 </r>
       <r>   -2.7659    1.0000 </r>
       <r>   -2.7563    1.0000 </r>
       <r>   -2.7266    1.0000 </r>
       <r>   -2.6762    1.0000 </r>
       <r>   -2.6739    1.0000 </r>
       <r>   -2.6708    1.0000 </r>
       <r>   -2.6629    1.0000 </r>
       <r>   -2.6419    1.0000 </r>
       <r>   -2.5483    1.0000 </r>
       <r>   -2.5455    1.0000 </r>
       <r>   -2.5452    1.0000 </r>
       <r>   -2.5176    1.0000 </r>
       <r>   -2.4675    1.0000 </r>
       <r>   -2.3928    1.0000 </r>
       <r>   -2.3873    1.0000 </r>
       <r>   -2.3792    1.0000 </r>
       <r>   -2.3772    1.0000 </r>
       <r>   -2.3731    1.0000 </r>
       <r>   -2.3724    1.0000 </r>
       <r>   -2.3715    1.0000 </r>
       <r>   -2.3711    1.0000 </r>
       <r>   -2.3702    1.0000 </r>
       <r>   -2.3680    1.0000 </r>
       <r>   -2.3651    1.0000 </r>
       <r>   -2.3477    1.0000 </r>
       <r>   -2.2861    1.0000 </r>
       <r>   -2.2629    1.0000 </r>
       <r>   -2.2575    1.0000 </r>
       <r>   -2.2411    1.0000 </r>
       <r>   -2.2407    1.0000 </r>
       <r>   -2.2405    1.0000 </r>
       <r>   -2.2402    1.0000 </r>
       <r>   -2.2370    1.0000 </r>
       <r>   -2.2086    1.0000 </r>
       <r>   -2.2081    1.0000 </r>
       <r>   -2.1998    1.0000 </r>
       <r>   -2.1649    1.0000 </r>
       <r>   -2.1589    1.0000 </r>
       <r>   -2.1445    1.0000 </r>
       <r>   -2.1267    1.0000 </r>
       <r>   -2.0987    1.0000 </r>
       <r>   -2.0930    1.0000 </r>
       <r>   -2.0903    1.0000 </r>
       <r>   -2.0869    1.0000 </r>
       <r>   -2.0847    1.0000 </r>
       <r>   -2.0568    1.0000 </r>
       <r>   -2.0564    1.0000 </r>
       <r>   -2.0498    1.0000 </r>
       <r>   -2.0496    1.0000 </r>
       <r>   -2.0108    1.0000 </r>
       <r>   -1.9646    1.0000 </r>
       <r>   -1.9433    1.0000 </r>
       <r>   -1.9432    1.0000 </r>
       <r>   -1.9367    1.0000 </r>
       <r>   -1.9328    1.0000 </r>
       <r>   -1.9328    1.0000 </r>
       <r>   -1.9308    1.0000 </r>
       <r>   -1.9068    1.0000 </r>
       <r>   -1.9051    1.0000 </r>
       <r>   -1.8961    1.0000 </r>
       <r>   -1.8842    1.0000 </r>
       <r>   -1.8634    1.0000 </r>
       <r>   -1.8623    1.0000 </r>
       <r>   -1.8594    1.0000 </r>
       <r>   -1.8586    1.0000 </r>
       <r>   -1.8578    1.0000 </r>
       <r>   -1.8570    1.0000 </r>
       <r>   -1.8558    1.0000 </r>
       <r>   -1.8543    1.0000 </r>
       <r>   -1.7800    1.0000 </r>
       <r>   -1.7786    1.0000 </r>
       <r>   -1.7778    1.0000 </r>
       <r>   -1.7765    1.0000 </r>
       <r>   -1.7748    1.0000 </r>
       <r>   -1.7743    1.0000 </r>
       <r>   -1.7730    1.0000 </r>
       <r>   -1.7688    1.0000 </r>
       <r>   -1.7456    1.0000 </r>
       <r>   -1.7436    1.0000 </r>
       <r>   -1.7414    1.0000 </r>
       <r>   -1.7412    1.0000 </r>
       <r>   -1.7153    1.0000 </r>
       <r>   -1.7084    1.0000 </r>
       <r>   -1.6883    1.0000 </r>
       <r>   -1.6618    1.0000 </r>
       <r>   -1.6453    1.0000 </r>
       <r>   -1.6452    1.0000 </r>
       <r>   -1.6448    1.0000 </r>
       <r>   -1.6448    1.0000 </r>
       <r>   -1.6095    1.0000 </r>
       <r>   -1.6093    1.0000 </r>
       <r>   -1.5863    1.0000 </r>
       <r>   -1.5858    1.0000 </r>
       <r>   -1.5809    1.0000 </r>
       <r>   -1.5595    1.0000 </r>
       <r>   -1.5549    1.0000 </r>
       <r>   -1.5500    1.0000 </r>
       <r>   -1.4637    1.0000 </r>
       <r>   -1.4489    1.0000 </r>
       <r>   -1.4413    1.0000 </r>
       <r>   -1.4314    1.0000 </r>
       <r>   -1.2636    1.0000 </r>
       <r>   -1.2561    1.0000 </r>
       <r>   -1.2536    1.0000 </r>
       <r>   -1.2349    1.0000 </r>
       <r>   -1.2339    1.0000 </r>
       <r>   -1.2249    1.0000 </r>
       <r>   -1.2226    1.0000 </r>
       <r>   -1.2083    1.0000 </r>
       <r>   -1.2077    1.0000 </r>
       <r>   -1.2067    1.0000 </r>
       <r>   -1.2054    1.0000 </r>
       <r>   -1.1940    1.0000 </r>
       <r>   -1.1876    1.0000 </r>
       <r>   -1.1871    1.0000 </r>
       <r>   -1.1848    1.0000 </r>
       <r>   -1.1581    1.0000 </r>
       <r>   -1.1194    1.0000 </r>
       <r>   -1.0880    1.0000 </r>
       <r>   -1.0878    1.0000 </r>
       <r>   -1.0823    1.0000 </r>
       <r>   -1.0822    1.0000 </r>
       <r>   -1.0562    1.0000 </r>
       <r>   -1.0160    1.0000 </r>
       <r>   -0.9347    1.0000 </r>
       <r>   -0.9301    1.0000 </r>
       <r>   -0.9160    1.0000 </r>
       <r>   -0.9099    1.0000 </r>
       <r>   -0.9086    1.0000 </r>
       <r>   -0.8573    1.0000 </r>
       <r>   -0.8454    1.0000 </r>
       <r>   -0.8363    1.0000 </r>
       <r>   -0.7767    1.0000 </r>
       <r>   -0.7323    1.0000 </r>
       <r>   -0.7084    1.0000 </r>
       <r>   -0.7055    1.0000 </r>
       <r>   -0.6562    1.0000 </r>
       <r>   -0.6387    1.0000 </r>
       <r>   -0.5976    1.0000 </r>
       <r>   -0.5949    1.0000 </r>
       <r>   -0.5299    1.0000 </r>
       <r>   -0.5205    1.0000 </r>
       <r>   -0.5180    1.0000 </r>
       <r>   -0.5154    1.0000 </r>
       <r>   -0.5145    1.0000 </r>
       <r>   -0.4611    1.0000 </r>
       <r>   -0.4597    1.0000 </r>
       <r>   -0.4579    1.0000 </r>
       <r>   -0.4560    1.0000 </r>
       <r>   -0.4554    1.0000 </r>
       <r>   -0.4539    1.0000 </r>
       <r>   -0.4503    1.0000 </r>
       <r>   -0.4498    1.0000 </r>
       <r>   -0.4182    1.0000 </r>
       <r>   -0.3835    1.0000 </r>
       <r>   -0.3835    1.0000 </r>
       <r>   -0.3766    1.0000 </r>
       <r>   -0.3537    1.0000 </r>
       <r>   -0.3501    1.0000 </r>
       <r>   -0.3474    1.0000 </r>
       <r>   -0.3463    1.0000 </r>
       <r>   -0.3266    1.0000 </r>
       <r>   -0.3261    1.0000 </r>
       <r>   -0.3258    1.0000 </r>
       <r>   -0.3254    1.0000 </r>
       <r>   -0.2798    1.0000 </r>
       <r>   -0.2645    1.0000 </r>
       <r>   -0.2643    1.0000 </r>
       <r>   -0.2583    1.0000 </r>
       <r>   -0.2556    1.0000 </r>
       <r>   -0.2541    1.0000 </r>
       <r>   -0.2527    1.0000 </r>
       <r>   -0.2251    1.0000 </r>
       <r>   -0.2243    1.0000 </r>
       <r>   -0.2182    1.0000 </r>
       <r>   -0.2139    1.0000 </r>
       <r>   -0.1412    1.0000 </r>
       <r>   -0.1406    1.0000 </r>
       <r>   -0.0464    1.0000 </r>
       <r>   -0.0095    1.0000 </r>
       <r>    0.0006    1.0000 </r>
       <r>    0.0090    1.0000 </r>
       <r>    0.0119    1.0000 </r>
       <r>    0.0179    1.0000 </r>
       <r>    0.0183    1.0000 </r>
       <r>    0.0353    1.0000 </r>
       <r>    0.0354    1.0000 </r>
       <r>    0.0494    1.0000 </r>
       <r>    0.1863    1.0000 </r>
       <r>    0.2769    1.0000 </r>
       <r>    0.3161    1.0000 </r>
       <r>    0.3398    1.0000 </r>
       <r>    0.3436    1.0000 </r>
       <r>    0.3459    1.0000 </r>
       <r>    0.3495    1.0000 </r>
       <r>    0.3529    1.0000 </r>
       <r>    0.3943    1.0000 </r>
       <r>    0.4203    1.0000 </r>
       <r>    0.4766    1.0000 </r>
       <r>    0.4774    1.0000 </r>
       <r>    0.4872    1.0000 </r>
       <r>    0.5109    1.0000 </r>
       <r>    0.5575    1.0000 </r>
       <r>    0.5614    1.0000 </r>
       <r>    0.5657    1.0000 </r>
       <r>    0.5776    1.0000 </r>
       <r>    0.5876    1.0000 </r>
       <r>    0.5905    1.0000 </r>
       <r>    0.6154    1.0000 </r>
       <r>    0.6295    1.0000 </r>
       <r>    0.6529    1.0000 </r>
       <r>    0.6938    1.0000 </r>
       <r>    0.7036    1.0000 </r>
       <r>    0.7278    1.0000 </r>
       <r>    0.7289    1.0000 </r>
       <r>    0.8500    1.0000 </r>
       <r>    0.8530    1.0000 </r>
       <r>    0.8559    1.0000 </r>
       <r>    0.8624    1.0000 </r>
       <r>    0.8647    1.0000 </r>
       <r>    0.8656    1.0000 </r>
       <r>    0.8664    1.0000 </r>
       <r>    0.8738    1.0000 </r>
       <r>    0.8746    1.0000 </r>
       <r>    0.8761    1.0000 </r>
       <r>    0.8839    1.0000 </r>
       <r>    0.8861    1.0000 </r>
       <r>    0.8925    1.0000 </r>
       <r>    0.8941    1.0000 </r>
       <r>    0.9047    1.0000 </r>
       <r>    0.9060    1.0000 </r>
       <r>    0.9935    1.0000 </r>
       <r>    1.0029    1.0000 </r>
       <r>    1.0576    1.0000 </r>
       <r>    1.0655    1.0000 </r>
       <r>    1.0778    1.0000 </r>
       <r>    1.0788    1.0000 </r>
       <r>    1.0938    1.0000 </r>
       <r>    1.0944    1.0000 </r>
       <r>    1.1000    1.0000 </r>
       <r>    1.1091    1.0000 </r>
       <r>    1.1096    1.0000 </r>
       <r>    1.2448    1.0000 </r>
       <r>    1.2590    1.0000 </r>
       <r>    1.3043    1.0000 </r>
       <r>    1.4334    1.0000 </r>
       <r>    1.4476    1.0000 </r>
       <r>    1.4569    1.0000 </r>
       <r>    1.4620    1.0000 </r>
       <r>    1.5908    1.0000 </r>
       <r>    1.6007    1.0000 </r>
       <r>    1.6022    1.0000 </r>
       <r>    1.6058    1.0000 </r>
       <r>    1.6137    1.0000 </r>
       <r>    1.6222    1.0000 </r>
       <r>    1.6530    1.0000 </r>
       <r>    1.6657    1.0000 </r>
       <r>    1.7135    1.0000 </r>
       <r>    1.7137    1.0000 </r>
       <r>    1.7672    1.0000 </r>
       <r>    1.7735    1.0000 </r>
       <r>    1.8437    1.0000 </r>
       <r>    1.8514    1.0000 </r>
       <r>    1.8530    1.0000 </r>
       <r>    1.8623    1.0000 </r>
       <r>    1.8657    1.0000 </r>
       <r>    1.8715    1.0000 </r>
       <r>    1.8787    1.0000 </r>
       <r>    1.8793    1.0000 </r>
       <r>    1.9864    1.0000 </r>
       <r>    2.0023    1.0000 </r>
       <r>    2.1867    1.0000 </r>
       <r>    2.1887    1.0000 </r>
       <r>    2.1956    1.0000 </r>
       <r>    2.2001    1.0000 </r>
       <r>    2.2059    1.0000 </r>
       <r>    2.2099    1.0000 </r>
       <r>    2.3786    1.0000 </r>
       <r>    2.3811    1.0000 </r>
       <r>    2.3895    1.0000 </r>
       <r>    2.3896    1.0000 </r>
       <r>    4.6563    1.0000 </r>
       <r>    5.9204    0.0000 </r>
       <r>    6.6055    0.0000 </r>
       <r>    6.6229    0.0000 </r>
       <r>    6.6277    0.0000 </r>
       <r>    6.8746    0.0000 </r>
       <r>    6.9355    0.0000 </r>
       <r>    7.0008    0.0000 </r>
       <r>    7.0141    0.0000 </r>
       <r>    7.0443    0.0000 </r>
       <r>    7.0547    0.0000 </r>
       <r>    7.0681    0.0000 </r>
       <r>    7.0799    0.0000 </r>
       <r>    7.1060    0.0000 </r>
       <r>    7.1145    0.0000 </r>
       <r>    7.1459    0.0000 </r>
       <r>    7.1472    0.0000 </r>
       <r>    7.2308    0.0000 </r>
       <r>    7.2644    0.0000 </r>
       <r>    7.2647    0.0000 </r>
       <r>    7.2862    0.0000 </r>
       <r>    7.2868    0.0000 </r>
       <r>    7.4234    0.0000 </r>
       <r>    7.4500    0.0000 </r>
       <r>    7.4569    0.0000 </r>
       <r>    7.4748    0.0000 </r>
       <r>    7.4835    0.0000 </r>
       <r>    7.5674    0.0000 </r>
       <r>    7.5734    0.0000 </r>
       <r>    7.6141    0.0000 </r>
       <r>    7.6457    0.0000 </r>
       <r>    7.6606    0.0000 </r>
       <r>    7.6649    0.0000 </r>
       <r>    7.6652    0.0000 </r>
       <r>    7.6672    0.0000 </r>
       <r>    7.6836    0.0000 </r>
       <r>    7.6999    0.0000 </r>
       <r>    7.7327    0.0000 </r>
       <r>    7.7359    0.0000 </r>
       <r>    7.7813    0.0000 </r>
       <r>    7.8442    0.0000 </r>
       <r>    7.8754    0.0000 </r>
       <r>    7.8965    0.0000 </r>
       <r>    7.9679    0.0000 </r>
       <r>    7.9758    0.0000 </r>
       <r>    8.0059    0.0000 </r>
       <r>    8.0066    0.0000 </r>
       <r>    8.0819    0.0000 </r>
       <r>    8.0964    0.0000 </r>
       <r>    8.0988    0.0000 </r>
       <r>    8.1902    0.0000 </r>
       <r>    8.2101    0.0000 </r>
       <r>    8.2345    0.0000 </r>
       <r>    8.2814    0.0000 </r>
       <r>    8.3348    0.0000 </r>
       <r>    8.3377    0.0000 </r>
       <r>    8.3628    0.0000 </r>
       <r>    8.4659    0.0000 </r>
       <r>    8.4787    0.0000 </r>
       <r>    8.4887    0.0000 </r>
       <r>    8.4942    0.0000 </r>
       <r>    8.4979    0.0000 </r>
       <r>    8.5081    0.0000 </r>
       <r>    8.5099    0.0000 </r>
       <r>    8.5106    0.0000 </r>
       <r>    8.5331    0.0000 </r>
       <r>    8.5571    0.0000 </r>
       <r>    8.5632    0.0000 </r>
       <r>    8.6275    0.0000 </r>
       <r>    8.7566    0.0000 </r>
       <r>    8.8116    0.0000 </r>
       <r>    8.8783    0.0000 </r>
       <r>    8.8971    0.0000 </r>
       <r>    8.9164    0.0000 </r>
       <r>    8.9642    0.0000 </r>
       <r>    9.0012    0.0000 </r>
       <r>    9.0081    0.0000 </r>
       <r>    9.0159    0.0000 </r>
       <r>    9.0174    0.0000 </r>
       <r>    9.0218    0.0000 </r>
       <r>    9.0293    0.0000 </r>
       <r>    9.0923    0.0000 </r>
       <r>    9.1310    0.0000 </r>
       <r>    9.1633    0.0000 </r>
       <r>    9.1650    0.0000 </r>
       <r>    9.1759    0.0000 </r>
       <r>    9.2079    0.0000 </r>
       <r>    9.2081    0.0000 </r>
       <r>    9.2116    0.0000 </r>
       <r>    9.3007    0.0000 </r>
       <r>    9.3163    0.0000 </r>
       <r>    9.3985    0.0000 </r>
       <r>    9.4266    0.0000 </r>
       <r>    9.4431    0.0000 </r>
       <r>    9.4463    0.0000 </r>
       <r>    9.5815    0.0000 </r>
       <r>    9.5997    0.0000 </r>
       <r>    9.6033    0.0000 </r>
       <r>    9.6067    0.0000 </r>
       <r>    9.6082    0.0000 </r>
       <r>    9.6126    0.0000 </r>
       <r>    9.6347    0.0000 </r>
       <r>    9.6713    0.0000 </r>
       <r>    9.7073    0.0000 </r>
       <r>    9.7107    0.0000 </r>
       <r>    9.7296    0.0000 </r>
       <r>    9.7356    0.0000 </r>
       <r>    9.7718    0.0000 </r>
       <r>    9.8160    0.0000 </r>
       <r>    9.8250    0.0000 </r>
       <r>    9.9219    0.0000 </r>
       <r>    9.9245    0.0000 </r>
       <r>    9.9367    0.0000 </r>
       <r>    9.9656    0.0000 </r>
       <r>    9.9677    0.0000 </r>
       <r>   10.0284    0.0000 </r>
       <r>   10.0648    0.0000 </r>
       <r>   10.1002    0.0000 </r>
       <r>   10.1018    0.0000 </r>
       <r>   10.2992    0.0000 </r>
       <r>   10.3383    0.0000 </r>
       <r>   10.4253    0.0000 </r>
       <r>   10.4264    0.0000 </r>
       <r>   10.5241    0.0000 </r>
       <r>   10.5257    0.0000 </r>
       <r>   10.5497    0.0000 </r>
       <r>   10.5522    0.0000 </r>
       <r>   10.8620    0.0000 </r>
       <r>   10.9836    0.0000 </r>
       <r>   11.2074    0.0000 </r>
       <r>   11.2128    0.0000 </r>
       <r>   11.2746    0.0000 </r>
       <r>   11.4025    0.0000 </r>
       <r>   11.4122    0.0000 </r>
       <r>   11.4350    0.0000 </r>
       <r>   11.4700    0.0000 </r>
       <r>   11.5009    0.0000 </r>
       <r>   11.5249    0.0000 </r>
       <r>   11.5396    0.0000 </r>
       <r>   11.5757    0.0000 </r>
       <r>   11.5894    0.0000 </r>
       <r>   11.6006    0.0000 </r>
       <r>   11.6102    0.0000 </r>
       <r>   11.6228    0.0000 </r>
       <r>   11.6684    0.0000 </r>
       <r>   11.7456    0.0000 </r>
       <r>   11.8006    0.0000 </r>
       <r>   11.8496    0.0000 </r>
       <r>   11.8729    0.0000 </r>
       <r>   11.9236    0.0000 </r>
       <r>   12.0037    0.0000 </r>
       <r>   12.0325    0.0000 </r>
      </set>
      <set comment="kpoint 8">
       <r>  -17.2936    1.0000 </r>
       <r>  -15.7754    1.0000 </r>
       <r>  -15.7300    1.0000 </r>
       <r>  -15.4165    1.0000 </r>
       <r>  -15.3051    1.0000 </r>
       <r>  -15.2747    1.0000 </r>
       <r>  -15.2427    1.0000 </r>
       <r>  -15.2048    1.0000 </r>
       <r>  -15.1450    1.0000 </r>
       <r>  -15.0920    1.0000 </r>
       <r>  -15.0613    1.0000 </r>
       <r>  -15.0339    1.0000 </r>
       <r>  -15.0154    1.0000 </r>
       <r>  -14.9845    1.0000 </r>
       <r>  -14.9837    1.0000 </r>
       <r>  -14.9067    1.0000 </r>
       <r>  -14.9001    1.0000 </r>
       <r>  -14.8554    1.0000 </r>
       <r>  -14.7581    1.0000 </r>
       <r>  -14.7572    1.0000 </r>
       <r>  -14.6188    1.0000 </r>
       <r>  -14.5677    1.0000 </r>
       <r>  -14.5514    1.0000 </r>
       <r>  -14.4668    1.0000 </r>
       <r>  -14.4631    1.0000 </r>
       <r>  -14.4598    1.0000 </r>
       <r>  -14.4587    1.0000 </r>
       <r>  -14.4249    1.0000 </r>
       <r>  -14.4029    1.0000 </r>
       <r>  -14.3961    1.0000 </r>
       <r>  -14.3856    1.0000 </r>
       <r>  -14.3434    1.0000 </r>
       <r>  -14.2474    1.0000 </r>
       <r>  -14.2456    1.0000 </r>
       <r>  -14.2435    1.0000 </r>
       <r>  -14.2428    1.0000 </r>
       <r>  -14.2076    1.0000 </r>
       <r>  -14.2064    1.0000 </r>
       <r>  -14.1714    1.0000 </r>
       <r>  -14.1501    1.0000 </r>
       <r>  -14.1111    1.0000 </r>
       <r>  -14.0360    1.0000 </r>
       <r>  -13.9977    1.0000 </r>
       <r>  -13.9973    1.0000 </r>
       <r>  -13.9486    1.0000 </r>
       <r>  -13.7879    1.0000 </r>
       <r>  -13.7412    1.0000 </r>
       <r>  -13.7396    1.0000 </r>
       <r>  -13.7127    1.0000 </r>
       <r>  -13.7116    1.0000 </r>
       <r>  -13.7023    1.0000 </r>
       <r>  -13.6813    1.0000 </r>
       <r>  -13.6581    1.0000 </r>
       <r>  -13.6559    1.0000 </r>
       <r>  -13.6050    1.0000 </r>
       <r>  -13.5326    1.0000 </r>
       <r>  -13.5322    1.0000 </r>
       <r>  -13.5190    1.0000 </r>
       <r>  -13.5187    1.0000 </r>
       <r>  -13.5057    1.0000 </r>
       <r>  -13.3596    1.0000 </r>
       <r>  -13.3378    1.0000 </r>
       <r>  -13.2554    1.0000 </r>
       <r>  -13.2231    1.0000 </r>
       <r>  -13.1101    1.0000 </r>
       <r>  -13.0693    1.0000 </r>
       <r>  -13.0640    1.0000 </r>
       <r>  -13.0627    1.0000 </r>
       <r>  -13.0598    1.0000 </r>
       <r>  -13.0337    1.0000 </r>
       <r>  -13.0272    1.0000 </r>
       <r>  -13.0228    1.0000 </r>
       <r>  -13.0166    1.0000 </r>
       <r>  -12.9737    1.0000 </r>
       <r>  -12.9290    1.0000 </r>
       <r>  -12.8940    1.0000 </r>
       <r>  -12.8919    1.0000 </r>
       <r>  -12.8892    1.0000 </r>
       <r>  -12.8889    1.0000 </r>
       <r>  -12.8786    1.0000 </r>
       <r>  -12.8778    1.0000 </r>
       <r>  -12.8773    1.0000 </r>
       <r>  -12.8767    1.0000 </r>
       <r>  -12.8668    1.0000 </r>
       <r>  -12.8597    1.0000 </r>
       <r>  -12.8564    1.0000 </r>
       <r>  -12.8510    1.0000 </r>
       <r>  -12.8503    1.0000 </r>
       <r>  -12.7154    1.0000 </r>
       <r>  -12.7151    1.0000 </r>
       <r>  -12.7147    1.0000 </r>
       <r>  -12.7146    1.0000 </r>
       <r>  -12.6833    1.0000 </r>
       <r>  -12.6101    1.0000 </r>
       <r>  -12.5976    1.0000 </r>
       <r>  -12.5759    1.0000 </r>
       <r>  -12.5739    1.0000 </r>
       <r>  -12.5525    1.0000 </r>
       <r>  -12.5338    1.0000 </r>
       <r>  -12.4991    1.0000 </r>
       <r>  -12.4378    1.0000 </r>
       <r>  -12.4291    1.0000 </r>
       <r>  -12.4247    1.0000 </r>
       <r>  -12.4230    1.0000 </r>
       <r>  -12.3419    1.0000 </r>
       <r>  -12.3380    1.0000 </r>
       <r>  -12.3214    1.0000 </r>
       <r>  -12.3166    1.0000 </r>
       <r>  -12.2455    1.0000 </r>
       <r>  -12.2447    1.0000 </r>
       <r>  -12.2357    1.0000 </r>
       <r>  -12.2322    1.0000 </r>
       <r>  -12.2196    1.0000 </r>
       <r>  -12.2193    1.0000 </r>
       <r>  -12.2085    1.0000 </r>
       <r>  -12.2068    1.0000 </r>
       <r>  -12.1764    1.0000 </r>
       <r>  -12.1762    1.0000 </r>
       <r>  -12.1704    1.0000 </r>
       <r>  -12.1702    1.0000 </r>
       <r>  -12.0956    1.0000 </r>
       <r>  -12.0955    1.0000 </r>
       <r>  -12.0894    1.0000 </r>
       <r>  -12.0876    1.0000 </r>
       <r>  -12.0875    1.0000 </r>
       <r>  -12.0852    1.0000 </r>
       <r>  -11.9513    1.0000 </r>
       <r>  -11.9484    1.0000 </r>
       <r>  -11.9469    1.0000 </r>
       <r>  -11.9439    1.0000 </r>
       <r>  -11.8159    1.0000 </r>
       <r>  -11.8152    1.0000 </r>
       <r>  -11.8074    1.0000 </r>
       <r>  -11.8064    1.0000 </r>
       <r>  -11.8032    1.0000 </r>
       <r>  -11.8017    1.0000 </r>
       <r>  -11.7863    1.0000 </r>
       <r>  -11.7857    1.0000 </r>
       <r>  -11.7805    1.0000 </r>
       <r>  -11.7801    1.0000 </r>
       <r>  -11.6682    1.0000 </r>
       <r>  -11.6682    1.0000 </r>
       <r>  -11.6616    1.0000 </r>
       <r>  -11.6615    1.0000 </r>
       <r>   -8.3630    1.0000 </r>
       <r>   -7.2839    1.0000 </r>
       <r>   -7.2707    1.0000 </r>
       <r>   -6.7937    1.0000 </r>
       <r>   -6.7049    1.0000 </r>
       <r>   -6.6829    1.0000 </r>
       <r>   -6.4377    1.0000 </r>
       <r>   -6.4061    1.0000 </r>
       <r>   -6.3217    1.0000 </r>
       <r>   -6.3084    1.0000 </r>
       <r>   -6.3052    1.0000 </r>
       <r>   -6.3034    1.0000 </r>
       <r>   -6.2987    1.0000 </r>
       <r>   -6.2868    1.0000 </r>
       <r>   -6.2770    1.0000 </r>
       <r>   -6.2745    1.0000 </r>
       <r>   -6.2698    1.0000 </r>
       <r>   -6.2683    1.0000 </r>
       <r>   -6.2160    1.0000 </r>
       <r>   -6.2156    1.0000 </r>
       <r>   -6.2121    1.0000 </r>
       <r>   -6.2077    1.0000 </r>
       <r>   -6.1962    1.0000 </r>
       <r>   -6.1950    1.0000 </r>
       <r>   -6.1587    1.0000 </r>
       <r>   -6.1585    1.0000 </r>
       <r>   -6.1495    1.0000 </r>
       <r>   -6.1494    1.0000 </r>
       <r>   -6.0726    1.0000 </r>
       <r>   -6.0713    1.0000 </r>
       <r>   -5.9346    1.0000 </r>
       <r>   -5.9271    1.0000 </r>
       <r>   -5.9122    1.0000 </r>
       <r>   -5.9046    1.0000 </r>
       <r>   -5.8440    1.0000 </r>
       <r>   -5.7893    1.0000 </r>
       <r>   -5.7821    1.0000 </r>
       <r>   -5.7717    1.0000 </r>
       <r>   -5.7694    1.0000 </r>
       <r>   -5.7680    1.0000 </r>
       <r>   -5.7639    1.0000 </r>
       <r>   -5.7616    1.0000 </r>
       <r>   -5.7590    1.0000 </r>
       <r>   -5.7580    1.0000 </r>
       <r>   -5.7574    1.0000 </r>
       <r>   -5.7509    1.0000 </r>
       <r>   -5.7393    1.0000 </r>
       <r>   -5.6845    1.0000 </r>
       <r>   -5.6543    1.0000 </r>
       <r>   -5.6419    1.0000 </r>
       <r>   -5.6231    1.0000 </r>
       <r>   -5.6230    1.0000 </r>
       <r>   -5.6201    1.0000 </r>
       <r>   -5.6201    1.0000 </r>
       <r>   -5.2289    1.0000 </r>
       <r>   -5.2273    1.0000 </r>
       <r>   -5.2252    1.0000 </r>
       <r>   -5.2244    1.0000 </r>
       <r>   -5.2223    1.0000 </r>
       <r>   -5.2207    1.0000 </r>
       <r>   -5.2191    1.0000 </r>
       <r>   -5.2190    1.0000 </r>
       <r>   -5.2182    1.0000 </r>
       <r>   -5.2176    1.0000 </r>
       <r>   -5.2170    1.0000 </r>
       <r>   -5.2158    1.0000 </r>
       <r>   -5.1148    1.0000 </r>
       <r>   -5.1104    1.0000 </r>
       <r>   -5.0908    1.0000 </r>
       <r>   -5.0906    1.0000 </r>
       <r>   -5.0879    1.0000 </r>
       <r>   -5.0878    1.0000 </r>
       <r>   -5.0875    1.0000 </r>
       <r>   -5.0875    1.0000 </r>
       <r>   -5.0261    1.0000 </r>
       <r>   -4.9210    1.0000 </r>
       <r>   -4.8318    1.0000 </r>
       <r>   -4.6116    1.0000 </r>
       <r>   -4.5544    1.0000 </r>
       <r>   -4.5413    1.0000 </r>
       <r>   -4.4756    1.0000 </r>
       <r>   -4.4735    1.0000 </r>
       <r>   -4.4725    1.0000 </r>
       <r>   -4.4719    1.0000 </r>
       <r>   -4.4708    1.0000 </r>
       <r>   -4.4693    1.0000 </r>
       <r>   -4.4688    1.0000 </r>
       <r>   -4.4680    1.0000 </r>
       <r>   -4.3414    1.0000 </r>
       <r>   -4.3411    1.0000 </r>
       <r>   -4.3409    1.0000 </r>
       <r>   -4.3408    1.0000 </r>
       <r>   -4.3163    1.0000 </r>
       <r>   -4.2888    1.0000 </r>
       <r>   -4.2017    1.0000 </r>
       <r>   -4.0979    1.0000 </r>
       <r>   -4.0876    1.0000 </r>
       <r>   -4.0871    1.0000 </r>
       <r>   -4.0843    1.0000 </r>
       <r>   -4.0825    1.0000 </r>
       <r>   -4.0774    1.0000 </r>
       <r>   -4.0741    1.0000 </r>
       <r>   -4.0725    1.0000 </r>
       <r>   -4.0700    1.0000 </r>
       <r>   -4.0289    1.0000 </r>
       <r>   -3.9500    1.0000 </r>
       <r>   -3.9500    1.0000 </r>
       <r>   -3.9468    1.0000 </r>
       <r>   -3.9467    1.0000 </r>
       <r>   -3.9092    1.0000 </r>
       <r>   -3.8654    1.0000 </r>
       <r>   -3.7855    1.0000 </r>
       <r>   -3.6227    1.0000 </r>
       <r>   -3.6201    1.0000 </r>
       <r>   -3.6151    1.0000 </r>
       <r>   -3.6136    1.0000 </r>
       <r>   -3.6080    1.0000 </r>
       <r>   -3.6039    1.0000 </r>
       <r>   -3.6019    1.0000 </r>
       <r>   -3.5986    1.0000 </r>
       <r>   -3.5973    1.0000 </r>
       <r>   -3.4795    1.0000 </r>
       <r>   -3.4794    1.0000 </r>
       <r>   -3.4781    1.0000 </r>
       <r>   -3.4743    1.0000 </r>
       <r>   -3.4743    1.0000 </r>
       <r>   -3.4696    1.0000 </r>
       <r>   -3.4671    1.0000 </r>
       <r>   -3.4665    1.0000 </r>
       <r>   -3.4646    1.0000 </r>
       <r>   -3.3900    1.0000 </r>
       <r>   -3.3588    1.0000 </r>
       <r>   -3.3474    1.0000 </r>
       <r>   -3.3397    1.0000 </r>
       <r>   -3.3393    1.0000 </r>
       <r>   -3.3382    1.0000 </r>
       <r>   -3.3381    1.0000 </r>
       <r>   -3.1563    1.0000 </r>
       <r>   -3.0974    1.0000 </r>
       <r>   -3.0771    1.0000 </r>
       <r>   -3.0730    1.0000 </r>
       <r>   -3.0714    1.0000 </r>
       <r>   -3.0655    1.0000 </r>
       <r>   -3.0036    1.0000 </r>
       <r>   -2.9997    1.0000 </r>
       <r>   -2.9920    1.0000 </r>
       <r>   -2.9384    1.0000 </r>
       <r>   -2.9376    1.0000 </r>
       <r>   -2.8560    1.0000 </r>
       <r>   -2.8431    1.0000 </r>
       <r>   -2.7699    1.0000 </r>
       <r>   -2.7666    1.0000 </r>
       <r>   -2.7563    1.0000 </r>
       <r>   -2.7266    1.0000 </r>
       <r>   -2.6770    1.0000 </r>
       <r>   -2.6754    1.0000 </r>
       <r>   -2.6723    1.0000 </r>
       <r>   -2.6636    1.0000 </r>
       <r>   -2.6425    1.0000 </r>
       <r>   -2.5484    1.0000 </r>
       <r>   -2.5456    1.0000 </r>
       <r>   -2.5453    1.0000 </r>
       <r>   -2.5177    1.0000 </r>
       <r>   -2.4675    1.0000 </r>
       <r>   -2.3929    1.0000 </r>
       <r>   -2.3875    1.0000 </r>
       <r>   -2.3779    1.0000 </r>
       <r>   -2.3743    1.0000 </r>
       <r>   -2.3733    1.0000 </r>
       <r>   -2.3724    1.0000 </r>
       <r>   -2.3711    1.0000 </r>
       <r>   -2.3707    1.0000 </r>
       <r>   -2.3692    1.0000 </r>
       <r>   -2.3673    1.0000 </r>
       <r>   -2.3646    1.0000 </r>
       <r>   -2.3477    1.0000 </r>
       <r>   -2.2858    1.0000 </r>
       <r>   -2.2630    1.0000 </r>
       <r>   -2.2574    1.0000 </r>
       <r>   -2.2410    1.0000 </r>
       <r>   -2.2406    1.0000 </r>
       <r>   -2.2405    1.0000 </r>
       <r>   -2.2402    1.0000 </r>
       <r>   -2.2371    1.0000 </r>
       <r>   -2.2086    1.0000 </r>
       <r>   -2.2081    1.0000 </r>
       <r>   -2.1999    1.0000 </r>
       <r>   -2.1648    1.0000 </r>
       <r>   -2.1585    1.0000 </r>
       <r>   -2.1439    1.0000 </r>
       <r>   -2.1261    1.0000 </r>
       <r>   -2.0992    1.0000 </r>
       <r>   -2.0915    1.0000 </r>
       <r>   -2.0899    1.0000 </r>
       <r>   -2.0859    1.0000 </r>
       <r>   -2.0840    1.0000 </r>
       <r>   -2.0601    1.0000 </r>
       <r>   -2.0587    1.0000 </r>
       <r>   -2.0524    1.0000 </r>
       <r>   -2.0518    1.0000 </r>
       <r>   -2.0099    1.0000 </r>
       <r>   -1.9638    1.0000 </r>
       <r>   -1.9428    1.0000 </r>
       <r>   -1.9428    1.0000 </r>
       <r>   -1.9359    1.0000 </r>
       <r>   -1.9334    1.0000 </r>
       <r>   -1.9333    1.0000 </r>
       <r>   -1.9315    1.0000 </r>
       <r>   -1.9068    1.0000 </r>
       <r>   -1.9053    1.0000 </r>
       <r>   -1.8964    1.0000 </r>
       <r>   -1.8830    1.0000 </r>
       <r>   -1.8635    1.0000 </r>
       <r>   -1.8617    1.0000 </r>
       <r>   -1.8592    1.0000 </r>
       <r>   -1.8584    1.0000 </r>
       <r>   -1.8580    1.0000 </r>
       <r>   -1.8573    1.0000 </r>
       <r>   -1.8553    1.0000 </r>
       <r>   -1.8530    1.0000 </r>
       <r>   -1.7815    1.0000 </r>
       <r>   -1.7783    1.0000 </r>
       <r>   -1.7777    1.0000 </r>
       <r>   -1.7771    1.0000 </r>
       <r>   -1.7753    1.0000 </r>
       <r>   -1.7736    1.0000 </r>
       <r>   -1.7725    1.0000 </r>
       <r>   -1.7718    1.0000 </r>
       <r>   -1.7456    1.0000 </r>
       <r>   -1.7437    1.0000 </r>
       <r>   -1.7415    1.0000 </r>
       <r>   -1.7412    1.0000 </r>
       <r>   -1.7153    1.0000 </r>
       <r>   -1.7086    1.0000 </r>
       <r>   -1.6881    1.0000 </r>
       <r>   -1.6614    1.0000 </r>
       <r>   -1.6452    1.0000 </r>
       <r>   -1.6451    1.0000 </r>
       <r>   -1.6449    1.0000 </r>
       <r>   -1.6448    1.0000 </r>
       <r>   -1.6098    1.0000 </r>
       <r>   -1.6091    1.0000 </r>
       <r>   -1.5862    1.0000 </r>
       <r>   -1.5832    1.0000 </r>
       <r>   -1.5787    1.0000 </r>
       <r>   -1.5600    1.0000 </r>
       <r>   -1.5544    1.0000 </r>
       <r>   -1.5491    1.0000 </r>
       <r>   -1.4642    1.0000 </r>
       <r>   -1.4496    1.0000 </r>
       <r>   -1.4407    1.0000 </r>
       <r>   -1.4319    1.0000 </r>
       <r>   -1.2642    1.0000 </r>
       <r>   -1.2554    1.0000 </r>
       <r>   -1.2526    1.0000 </r>
       <r>   -1.2369    1.0000 </r>
       <r>   -1.2354    1.0000 </r>
       <r>   -1.2244    1.0000 </r>
       <r>   -1.2224    1.0000 </r>
       <r>   -1.2111    1.0000 </r>
       <r>   -1.2089    1.0000 </r>
       <r>   -1.2065    1.0000 </r>
       <r>   -1.2057    1.0000 </r>
       <r>   -1.1946    1.0000 </r>
       <r>   -1.1893    1.0000 </r>
       <r>   -1.1880    1.0000 </r>
       <r>   -1.1863    1.0000 </r>
       <r>   -1.1585    1.0000 </r>
       <r>   -1.1196    1.0000 </r>
       <r>   -1.0877    1.0000 </r>
       <r>   -1.0876    1.0000 </r>
       <r>   -1.0827    1.0000 </r>
       <r>   -1.0826    1.0000 </r>
       <r>   -1.0562    1.0000 </r>
       <r>   -1.0156    1.0000 </r>
       <r>   -0.9343    1.0000 </r>
       <r>   -0.9300    1.0000 </r>
       <r>   -0.9159    1.0000 </r>
       <r>   -0.9101    1.0000 </r>
       <r>   -0.9087    1.0000 </r>
       <r>   -0.8571    1.0000 </r>
       <r>   -0.8453    1.0000 </r>
       <r>   -0.8356    1.0000 </r>
       <r>   -0.7764    1.0000 </r>
       <r>   -0.7324    1.0000 </r>
       <r>   -0.7087    1.0000 </r>
       <r>   -0.7058    1.0000 </r>
       <r>   -0.6566    1.0000 </r>
       <r>   -0.6390    1.0000 </r>
       <r>   -0.5975    1.0000 </r>
       <r>   -0.5948    1.0000 </r>
       <r>   -0.5298    1.0000 </r>
       <r>   -0.5178    1.0000 </r>
       <r>   -0.5172    1.0000 </r>
       <r>   -0.5144    1.0000 </r>
       <r>   -0.5119    1.0000 </r>
       <r>   -0.4612    1.0000 </r>
       <r>   -0.4595    1.0000 </r>
       <r>   -0.4573    1.0000 </r>
       <r>   -0.4569    1.0000 </r>
       <r>   -0.4547    1.0000 </r>
       <r>   -0.4527    1.0000 </r>
       <r>   -0.4516    1.0000 </r>
       <r>   -0.4485    1.0000 </r>
       <r>   -0.4182    1.0000 </r>
       <r>   -0.3835    1.0000 </r>
       <r>   -0.3834    1.0000 </r>
       <r>   -0.3762    1.0000 </r>
       <r>   -0.3518    1.0000 </r>
       <r>   -0.3492    1.0000 </r>
       <r>   -0.3470    1.0000 </r>
       <r>   -0.3432    1.0000 </r>
       <r>   -0.3265    1.0000 </r>
       <r>   -0.3260    1.0000 </r>
       <r>   -0.3258    1.0000 </r>
       <r>   -0.3254    1.0000 </r>
       <r>   -0.2801    1.0000 </r>
       <r>   -0.2643    1.0000 </r>
       <r>   -0.2641    1.0000 </r>
       <r>   -0.2583    1.0000 </r>
       <r>   -0.2561    1.0000 </r>
       <r>   -0.2538    1.0000 </r>
       <r>   -0.2522    1.0000 </r>
       <r>   -0.2250    1.0000 </r>
       <r>   -0.2243    1.0000 </r>
       <r>   -0.2175    1.0000 </r>
       <r>   -0.2130    1.0000 </r>
       <r>   -0.1419    1.0000 </r>
       <r>   -0.1413    1.0000 </r>
       <r>   -0.0467    1.0000 </r>
       <r>   -0.0085    1.0000 </r>
       <r>    0.0015    1.0000 </r>
       <r>    0.0095    1.0000 </r>
       <r>    0.0114    1.0000 </r>
       <r>    0.0174    1.0000 </r>
       <r>    0.0186    1.0000 </r>
       <r>    0.0340    1.0000 </r>
       <r>    0.0346    1.0000 </r>
       <r>    0.0498    1.0000 </r>
       <r>    0.1870    1.0000 </r>
       <r>    0.2773    1.0000 </r>
       <r>    0.3157    1.0000 </r>
       <r>    0.3401    1.0000 </r>
       <r>    0.3427    1.0000 </r>
       <r>    0.3445    1.0000 </r>
       <r>    0.3457    1.0000 </r>
       <r>    0.3499    1.0000 </r>
       <r>    0.3950    1.0000 </r>
       <r>    0.4205    1.0000 </r>
       <r>    0.4765    1.0000 </r>
       <r>    0.4773    1.0000 </r>
       <r>    0.4886    1.0000 </r>
       <r>    0.5101    1.0000 </r>
       <r>    0.5571    1.0000 </r>
       <r>    0.5586    1.0000 </r>
       <r>    0.5653    1.0000 </r>
       <r>    0.5773    1.0000 </r>
       <r>    0.5831    1.0000 </r>
       <r>    0.5879    1.0000 </r>
       <r>    0.6148    1.0000 </r>
       <r>    0.6297    1.0000 </r>
       <r>    0.6533    1.0000 </r>
       <r>    0.6942    1.0000 </r>
       <r>    0.7031    1.0000 </r>
       <r>    0.7274    1.0000 </r>
       <r>    0.7284    1.0000 </r>
       <r>    0.8535    1.0000 </r>
       <r>    0.8556    1.0000 </r>
       <r>    0.8581    1.0000 </r>
       <r>    0.8624    1.0000 </r>
       <r>    0.8642    1.0000 </r>
       <r>    0.8655    1.0000 </r>
       <r>    0.8668    1.0000 </r>
       <r>    0.8739    1.0000 </r>
       <r>    0.8748    1.0000 </r>
       <r>    0.8759    1.0000 </r>
       <r>    0.8844    1.0000 </r>
       <r>    0.8888    1.0000 </r>
       <r>    0.8919    1.0000 </r>
       <r>    0.8931    1.0000 </r>
       <r>    0.9049    1.0000 </r>
       <r>    0.9058    1.0000 </r>
       <r>    0.9940    1.0000 </r>
       <r>    1.0025    1.0000 </r>
       <r>    1.0575    1.0000 </r>
       <r>    1.0655    1.0000 </r>
       <r>    1.0774    1.0000 </r>
       <r>    1.0784    1.0000 </r>
       <r>    1.0947    1.0000 </r>
       <r>    1.0953    1.0000 </r>
       <r>    1.1008    1.0000 </r>
       <r>    1.1078    1.0000 </r>
       <r>    1.1085    1.0000 </r>
       <r>    1.2448    1.0000 </r>
       <r>    1.2597    1.0000 </r>
       <r>    1.3040    1.0000 </r>
       <r>    1.4344    1.0000 </r>
       <r>    1.4476    1.0000 </r>
       <r>    1.4561    1.0000 </r>
       <r>    1.4630    1.0000 </r>
       <r>    1.5919    1.0000 </r>
       <r>    1.6015    1.0000 </r>
       <r>    1.6029    1.0000 </r>
       <r>    1.6061    1.0000 </r>
       <r>    1.6143    1.0000 </r>
       <r>    1.6214    1.0000 </r>
       <r>    1.6526    1.0000 </r>
       <r>    1.6661    1.0000 </r>
       <r>    1.7119    1.0000 </r>
       <r>    1.7127    1.0000 </r>
       <r>    1.7674    1.0000 </r>
       <r>    1.7735    1.0000 </r>
       <r>    1.8441    1.0000 </r>
       <r>    1.8516    1.0000 </r>
       <r>    1.8545    1.0000 </r>
       <r>    1.8625    1.0000 </r>
       <r>    1.8655    1.0000 </r>
       <r>    1.8705    1.0000 </r>
       <r>    1.8777    1.0000 </r>
       <r>    1.8785    1.0000 </r>
       <r>    1.9869    1.0000 </r>
       <r>    2.0020    1.0000 </r>
       <r>    2.1860    1.0000 </r>
       <r>    2.1879    1.0000 </r>
       <r>    2.1959    1.0000 </r>
       <r>    2.2000    1.0000 </r>
       <r>    2.2069    1.0000 </r>
       <r>    2.2108    1.0000 </r>
       <r>    2.3791    1.0000 </r>
       <r>    2.3817    1.0000 </r>
       <r>    2.3889    1.0000 </r>
       <r>    2.3892    1.0000 </r>
       <r>    4.6563    1.0000 </r>
       <r>    5.9204    0.0000 </r>
       <r>    6.6055    0.0000 </r>
       <r>    6.6231    0.0000 </r>
       <r>    6.6277    0.0000 </r>
       <r>    6.8741    0.0000 </r>
       <r>    6.9348    0.0000 </r>
       <r>    7.0016    0.0000 </r>
       <r>    7.0141    0.0000 </r>
       <r>    7.0439    0.0000 </r>
       <r>    7.0538    0.0000 </r>
       <r>    7.0684    0.0000 </r>
       <r>    7.0806    0.0000 </r>
       <r>    7.1073    0.0000 </r>
       <r>    7.1156    0.0000 </r>
       <r>    7.1452    0.0000 </r>
       <r>    7.1461    0.0000 </r>
       <r>    7.2307    0.0000 </r>
       <r>    7.2655    0.0000 </r>
       <r>    7.2659    0.0000 </r>
       <r>    7.2855    0.0000 </r>
       <r>    7.2861    0.0000 </r>
       <r>    7.4224    0.0000 </r>
       <r>    7.4494    0.0000 </r>
       <r>    7.4567    0.0000 </r>
       <r>    7.4743    0.0000 </r>
       <r>    7.4829    0.0000 </r>
       <r>    7.5676    0.0000 </r>
       <r>    7.5713    0.0000 </r>
       <r>    7.6156    0.0000 </r>
       <r>    7.6465    0.0000 </r>
       <r>    7.6609    0.0000 </r>
       <r>    7.6650    0.0000 </r>
       <r>    7.6651    0.0000 </r>
       <r>    7.6669    0.0000 </r>
       <r>    7.6815    0.0000 </r>
       <r>    7.7027    0.0000 </r>
       <r>    7.7324    0.0000 </r>
       <r>    7.7346    0.0000 </r>
       <r>    7.7818    0.0000 </r>
       <r>    7.8443    0.0000 </r>
       <r>    7.8759    0.0000 </r>
       <r>    7.8965    0.0000 </r>
       <r>    7.9702    0.0000 </r>
       <r>    7.9770    0.0000 </r>
       <r>    8.0056    0.0000 </r>
       <r>    8.0064    0.0000 </r>
       <r>    8.0819    0.0000 </r>
       <r>    8.0965    0.0000 </r>
       <r>    8.0992    0.0000 </r>
       <r>    8.1904    0.0000 </r>
       <r>    8.2096    0.0000 </r>
       <r>    8.2341    0.0000 </r>
       <r>    8.2813    0.0000 </r>
       <r>    8.3351    0.0000 </r>
       <r>    8.3386    0.0000 </r>
       <r>    8.3606    0.0000 </r>
       <r>    8.4656    0.0000 </r>
       <r>    8.4794    0.0000 </r>
       <r>    8.4882    0.0000 </r>
       <r>    8.4942    0.0000 </r>
       <r>    8.4974    0.0000 </r>
       <r>    8.5081    0.0000 </r>
       <r>    8.5104    0.0000 </r>
       <r>    8.5108    0.0000 </r>
       <r>    8.5316    0.0000 </r>
       <r>    8.5579    0.0000 </r>
       <r>    8.5639    0.0000 </r>
       <r>    8.6264    0.0000 </r>
       <r>    8.7571    0.0000 </r>
       <r>    8.8117    0.0000 </r>
       <r>    8.8787    0.0000 </r>
       <r>    8.8970    0.0000 </r>
       <r>    8.9169    0.0000 </r>
       <r>    8.9642    0.0000 </r>
       <r>    9.0017    0.0000 </r>
       <r>    9.0077    0.0000 </r>
       <r>    9.0166    0.0000 </r>
       <r>    9.0178    0.0000 </r>
       <r>    9.0217    0.0000 </r>
       <r>    9.0292    0.0000 </r>
       <r>    9.0925    0.0000 </r>
       <r>    9.1312    0.0000 </r>
       <r>    9.1629    0.0000 </r>
       <r>    9.1645    0.0000 </r>
       <r>    9.1775    0.0000 </r>
       <r>    9.2064    0.0000 </r>
       <r>    9.2091    0.0000 </r>
       <r>    9.2108    0.0000 </r>
       <r>    9.3004    0.0000 </r>
       <r>    9.3156    0.0000 </r>
       <r>    9.3993    0.0000 </r>
       <r>    9.4262    0.0000 </r>
       <r>    9.4402    0.0000 </r>
       <r>    9.4465    0.0000 </r>
       <r>    9.5808    0.0000 </r>
       <r>    9.6001    0.0000 </r>
       <r>    9.6028    0.0000 </r>
       <r>    9.6059    0.0000 </r>
       <r>    9.6073    0.0000 </r>
       <r>    9.6123    0.0000 </r>
       <r>    9.6354    0.0000 </r>
       <r>    9.6714    0.0000 </r>
       <r>    9.7065    0.0000 </r>
       <r>    9.7105    0.0000 </r>
       <r>    9.7292    0.0000 </r>
       <r>    9.7364    0.0000 </r>
       <r>    9.7727    0.0000 </r>
       <r>    9.8169    0.0000 </r>
       <r>    9.8253    0.0000 </r>
       <r>    9.9221    0.0000 </r>
       <r>    9.9247    0.0000 </r>
       <r>    9.9368    0.0000 </r>
       <r>    9.9652    0.0000 </r>
       <r>    9.9671    0.0000 </r>
       <r>   10.0288    0.0000 </r>
       <r>   10.0640    0.0000 </r>
       <r>   10.1008    0.0000 </r>
       <r>   10.1019    0.0000 </r>
       <r>   10.3009    0.0000 </r>
       <r>   10.3400    0.0000 </r>
       <r>   10.4239    0.0000 </r>
       <r>   10.4258    0.0000 </r>
       <r>   10.5254    0.0000 </r>
       <r>   10.5270    0.0000 </r>
       <r>   10.5481    0.0000 </r>
       <r>   10.5509    0.0000 </r>
       <r>   10.8628    0.0000 </r>
       <r>   10.9844    0.0000 </r>
       <r>   11.2070    0.0000 </r>
       <r>   11.2111    0.0000 </r>
       <r>   11.2837    0.0000 </r>
       <r>   11.4049    0.0000 </r>
       <r>   11.4177    0.0000 </r>
       <r>   11.4324    0.0000 </r>
       <r>   11.4438    0.0000 </r>
       <r>   11.4856    0.0000 </r>
       <r>   11.5112    0.0000 </r>
       <r>   11.5364    0.0000 </r>
       <r>   11.5751    0.0000 </r>
       <r>   11.5831    0.0000 </r>
       <r>   11.5932    0.0000 </r>
       <r>   11.6121    0.0000 </r>
       <r>   11.6356    0.0000 </r>
       <r>   11.6668    0.0000 </r>
       <r>   11.7017    0.0000 </r>
       <r>   11.7707    0.0000 </r>
       <r>   11.8233    0.0000 </r>
       <r>   11.8708    0.0000 </r>
       <r>   11.9115    0.0000 </r>
       <r>   11.9613    0.0000 </r>
       <r>   12.0527    0.0000 </r>
      </set>
     </set>
     <set comment="spin 2">
      <set comment="kpoint 1">
       <r>  -17.1662    1.0000 </r>
       <r>  -15.6764    1.0000 </r>
       <r>  -15.6761    1.0000 </r>
       <r>  -15.5709    1.0000 </r>
       <r>  -15.3631    1.0000 </r>
       <r>  -15.3442    1.0000 </r>
       <r>  -15.1577    1.0000 </r>
       <r>  -15.1571    1.0000 </r>
       <r>  -15.1527    1.0000 </r>
       <r>  -15.0719    1.0000 </r>
       <r>  -14.8856    1.0000 </r>
       <r>  -14.8718    1.0000 </r>
       <r>  -14.8706    1.0000 </r>
       <r>  -14.8453    1.0000 </r>
       <r>  -14.8197    1.0000 </r>
       <r>  -14.8184    1.0000 </r>
       <r>  -14.8179    1.0000 </r>
       <r>  -14.8167    1.0000 </r>
       <r>  -14.8007    1.0000 </r>
       <r>  -14.7883    1.0000 </r>
       <r>  -14.7867    1.0000 </r>
       <r>  -14.7747    1.0000 </r>
       <r>  -14.7209    1.0000 </r>
       <r>  -14.7205    1.0000 </r>
       <r>  -14.6472    1.0000 </r>
       <r>  -14.6258    1.0000 </r>
       <r>  -14.6251    1.0000 </r>
       <r>  -14.6144    1.0000 </r>
       <r>  -14.6135    1.0000 </r>
       <r>  -14.6063    1.0000 </r>
       <r>  -14.5443    1.0000 </r>
       <r>  -14.2500    1.0000 </r>
       <r>  -14.2498    1.0000 </r>
       <r>  -14.2411    1.0000 </r>
       <r>  -13.9168    1.0000 </r>
       <r>  -13.9164    1.0000 </r>
       <r>  -13.8638    1.0000 </r>
       <r>  -13.8300    1.0000 </r>
       <r>  -13.8297    1.0000 </r>
       <r>  -13.8258    1.0000 </r>
       <r>  -13.8240    1.0000 </r>
       <r>  -13.8125    1.0000 </r>
       <r>  -13.8115    1.0000 </r>
       <r>  -13.8113    1.0000 </r>
       <r>  -13.8066    1.0000 </r>
       <r>  -13.8062    1.0000 </r>
       <r>  -13.8014    1.0000 </r>
       <r>  -13.8010    1.0000 </r>
       <r>  -13.7994    1.0000 </r>
       <r>  -13.7606    1.0000 </r>
       <r>  -13.7549    1.0000 </r>
       <r>  -13.7548    1.0000 </r>
       <r>  -13.6368    1.0000 </r>
       <r>  -13.6350    1.0000 </r>
       <r>  -13.6350    1.0000 </r>
       <r>  -13.6335    1.0000 </r>
       <r>  -13.6334    1.0000 </r>
       <r>  -13.6330    1.0000 </r>
       <r>  -13.3977    1.0000 </r>
       <r>  -13.3965    1.0000 </r>
       <r>  -13.3883    1.0000 </r>
       <r>  -13.3828    1.0000 </r>
       <r>  -13.3823    1.0000 </r>
       <r>  -13.3817    1.0000 </r>
       <r>  -13.3682    1.0000 </r>
       <r>  -13.3641    1.0000 </r>
       <r>  -13.3636    1.0000 </r>
       <r>  -13.3630    1.0000 </r>
       <r>  -13.3613    1.0000 </r>
       <r>  -13.3600    1.0000 </r>
       <r>  -13.2691    1.0000 </r>
       <r>  -13.2689    1.0000 </r>
       <r>  -13.2038    1.0000 </r>
       <r>  -13.2020    1.0000 </r>
       <r>  -13.2019    1.0000 </r>
       <r>  -13.2015    1.0000 </r>
       <r>  -13.1995    1.0000 </r>
       <r>  -13.1992    1.0000 </r>
       <r>  -12.8861    1.0000 </r>
       <r>  -12.8555    1.0000 </r>
       <r>  -12.8554    1.0000 </r>
       <r>  -12.7715    1.0000 </r>
       <r>  -12.6718    1.0000 </r>
       <r>  -12.5887    1.0000 </r>
       <r>  -12.5885    1.0000 </r>
       <r>  -12.5881    1.0000 </r>
       <r>  -12.5327    1.0000 </r>
       <r>  -12.5324    1.0000 </r>
       <r>  -12.4968    1.0000 </r>
       <r>  -12.4967    1.0000 </r>
       <r>  -12.4677    1.0000 </r>
       <r>  -12.3442    1.0000 </r>
       <r>  -12.3394    1.0000 </r>
       <r>  -12.3266    1.0000 </r>
       <r>  -12.3201    1.0000 </r>
       <r>  -12.3164    1.0000 </r>
       <r>  -12.3152    1.0000 </r>
       <r>  -12.3095    1.0000 </r>
       <r>  -12.3081    1.0000 </r>
       <r>  -12.3079    1.0000 </r>
       <r>  -12.3069    1.0000 </r>
       <r>  -12.2999    1.0000 </r>
       <r>  -12.2984    1.0000 </r>
       <r>  -12.2874    1.0000 </r>
       <r>  -12.2855    1.0000 </r>
       <r>  -12.2827    1.0000 </r>
       <r>  -12.2810    1.0000 </r>
       <r>  -12.2766    1.0000 </r>
       <r>  -12.2751    1.0000 </r>
       <r>  -12.2743    1.0000 </r>
       <r>  -12.2724    1.0000 </r>
       <r>  -12.2712    1.0000 </r>
       <r>  -12.2699    1.0000 </r>
       <r>  -12.2609    1.0000 </r>
       <r>  -12.2597    1.0000 </r>
       <r>  -12.1911    1.0000 </r>
       <r>  -12.1905    1.0000 </r>
       <r>  -12.1901    1.0000 </r>
       <r>  -12.1859    1.0000 </r>
       <r>  -12.1853    1.0000 </r>
       <r>  -12.1848    1.0000 </r>
       <r>  -12.1580    1.0000 </r>
       <r>  -12.1580    1.0000 </r>
       <r>  -12.1538    1.0000 </r>
       <r>  -12.1536    1.0000 </r>
       <r>  -12.1514    1.0000 </r>
       <r>  -12.1513    1.0000 </r>
       <r>  -12.1437    1.0000 </r>
       <r>  -12.1436    1.0000 </r>
       <r>  -12.1421    1.0000 </r>
       <r>  -12.1414    1.0000 </r>
       <r>  -12.1391    1.0000 </r>
       <r>  -12.1390    1.0000 </r>
       <r>  -12.0617    1.0000 </r>
       <r>  -12.0616    1.0000 </r>
       <r>  -12.0616    1.0000 </r>
       <r>  -11.9603    1.0000 </r>
       <r>  -11.9603    1.0000 </r>
       <r>  -11.5943    1.0000 </r>
       <r>  -11.5940    1.0000 </r>
       <r>  -11.5939    1.0000 </r>
       <r>  -11.5936    1.0000 </r>
       <r>  -11.4687    1.0000 </r>
       <r>  -11.4687    1.0000 </r>
       <r>   -8.1766    1.0000 </r>
       <r>   -7.2989    1.0000 </r>
       <r>   -7.2988    1.0000 </r>
       <r>   -6.5941    1.0000 </r>
       <r>   -6.5939    1.0000 </r>
       <r>   -6.5332    1.0000 </r>
       <r>   -6.5253    1.0000 </r>
       <r>   -6.5249    1.0000 </r>
       <r>   -6.5237    1.0000 </r>
       <r>   -6.5213    1.0000 </r>
       <r>   -6.5208    1.0000 </r>
       <r>   -6.5031    1.0000 </r>
       <r>   -6.4691    1.0000 </r>
       <r>   -6.3898    1.0000 </r>
       <r>   -6.3898    1.0000 </r>
       <r>   -6.3897    1.0000 </r>
       <r>   -6.3090    1.0000 </r>
       <r>   -6.3089    1.0000 </r>
       <r>   -6.0935    1.0000 </r>
       <r>   -6.0934    1.0000 </r>
       <r>   -6.0273    1.0000 </r>
       <r>   -6.0269    1.0000 </r>
       <r>   -6.0046    1.0000 </r>
       <r>   -5.9866    1.0000 </r>
       <r>   -5.9066    1.0000 </r>
       <r>   -5.9066    1.0000 </r>
       <r>   -5.7143    1.0000 </r>
       <r>   -5.7139    1.0000 </r>
       <r>   -5.7127    1.0000 </r>
       <r>   -5.7116    1.0000 </r>
       <r>   -5.7063    1.0000 </r>
       <r>   -5.7052    1.0000 </r>
       <r>   -5.7042    1.0000 </r>
       <r>   -5.7034    1.0000 </r>
       <r>   -5.6919    1.0000 </r>
       <r>   -5.6902    1.0000 </r>
       <r>   -5.6865    1.0000 </r>
       <r>   -5.6858    1.0000 </r>
       <r>   -5.6823    1.0000 </r>
       <r>   -5.6819    1.0000 </r>
       <r>   -5.6809    1.0000 </r>
       <r>   -5.6798    1.0000 </r>
       <r>   -5.6694    1.0000 </r>
       <r>   -5.6687    1.0000 </r>
       <r>   -5.6685    1.0000 </r>
       <r>   -5.6678    1.0000 </r>
       <r>   -5.6667    1.0000 </r>
       <r>   -5.6666    1.0000 </r>
       <r>   -5.6663    1.0000 </r>
       <r>   -5.6644    1.0000 </r>
       <r>   -5.5747    1.0000 </r>
       <r>   -5.5745    1.0000 </r>
       <r>   -5.5618    1.0000 </r>
       <r>   -5.5615    1.0000 </r>
       <r>   -5.5588    1.0000 </r>
       <r>   -5.5582    1.0000 </r>
       <r>   -5.5580    1.0000 </r>
       <r>   -5.5575    1.0000 </r>
       <r>   -5.5538    1.0000 </r>
       <r>   -5.5537    1.0000 </r>
       <r>   -5.5505    1.0000 </r>
       <r>   -5.5504    1.0000 </r>
       <r>   -5.5470    1.0000 </r>
       <r>   -5.5469    1.0000 </r>
       <r>   -5.5469    1.0000 </r>
       <r>   -5.5467    1.0000 </r>
       <r>   -5.4177    1.0000 </r>
       <r>   -5.4176    1.0000 </r>
       <r>   -5.3587    1.0000 </r>
       <r>   -5.2307    1.0000 </r>
       <r>   -5.1381    1.0000 </r>
       <r>   -5.1380    1.0000 </r>
       <r>   -4.9855    1.0000 </r>
       <r>   -4.9187    1.0000 </r>
       <r>   -4.9186    1.0000 </r>
       <r>   -4.8706    1.0000 </r>
       <r>   -4.7501    1.0000 </r>
       <r>   -4.7481    1.0000 </r>
       <r>   -4.7432    1.0000 </r>
       <r>   -4.7412    1.0000 </r>
       <r>   -4.6191    1.0000 </r>
       <r>   -4.6191    1.0000 </r>
       <r>   -4.4790    1.0000 </r>
       <r>   -4.4768    1.0000 </r>
       <r>   -4.4756    1.0000 </r>
       <r>   -4.4748    1.0000 </r>
       <r>   -4.4746    1.0000 </r>
       <r>   -4.4737    1.0000 </r>
       <r>   -4.4733    1.0000 </r>
       <r>   -4.4727    1.0000 </r>
       <r>   -4.4722    1.0000 </r>
       <r>   -4.4716    1.0000 </r>
       <r>   -4.4709    1.0000 </r>
       <r>   -4.4686    1.0000 </r>
       <r>   -4.3391    1.0000 </r>
       <r>   -4.3388    1.0000 </r>
       <r>   -4.3388    1.0000 </r>
       <r>   -4.3388    1.0000 </r>
       <r>   -4.3387    1.0000 </r>
       <r>   -4.3384    1.0000 </r>
       <r>   -4.1436    1.0000 </r>
       <r>   -4.0360    1.0000 </r>
       <r>   -3.9235    1.0000 </r>
       <r>   -3.9234    1.0000 </r>
       <r>   -3.6230    1.0000 </r>
       <r>   -3.6229    1.0000 </r>
       <r>   -3.5973    1.0000 </r>
       <r>   -3.5851    1.0000 </r>
       <r>   -3.5819    1.0000 </r>
       <r>   -3.5152    1.0000 </r>
       <r>   -3.5151    1.0000 </r>
       <r>   -3.3535    1.0000 </r>
       <r>   -3.3181    1.0000 </r>
       <r>   -3.3179    1.0000 </r>
       <r>   -3.3146    1.0000 </r>
       <r>   -3.3138    1.0000 </r>
       <r>   -3.3030    1.0000 </r>
       <r>   -3.3027    1.0000 </r>
       <r>   -3.2199    1.0000 </r>
       <r>   -3.1819    1.0000 </r>
       <r>   -3.1728    1.0000 </r>
       <r>   -3.1727    1.0000 </r>
       <r>   -3.1699    1.0000 </r>
       <r>   -3.1688    1.0000 </r>
       <r>   -3.1323    1.0000 </r>
       <r>   -3.1041    1.0000 </r>
       <r>   -3.1020    1.0000 </r>
       <r>   -3.1018    1.0000 </r>
       <r>   -3.1010    1.0000 </r>
       <r>   -3.1007    1.0000 </r>
       <r>   -3.0994    1.0000 </r>
       <r>   -3.0932    1.0000 </r>
       <r>   -3.0921    1.0000 </r>
       <r>   -3.0919    1.0000 </r>
       <r>   -3.0911    1.0000 </r>
       <r>   -3.0909    1.0000 </r>
       <r>   -3.0885    1.0000 </r>
       <r>   -3.0489    1.0000 </r>
       <r>   -2.9687    1.0000 </r>
       <r>   -2.9686    1.0000 </r>
       <r>   -2.9686    1.0000 </r>
       <r>   -2.9685    1.0000 </r>
       <r>   -2.9685    1.0000 </r>
       <r>   -2.9684    1.0000 </r>
       <r>   -2.9618    1.0000 </r>
       <r>   -2.9268    1.0000 </r>
       <r>   -2.9235    1.0000 </r>
       <r>   -2.9235    1.0000 </r>
       <r>   -2.9229    1.0000 </r>
       <r>   -2.9168    1.0000 </r>
       <r>   -2.9162    1.0000 </r>
       <r>   -2.9160    1.0000 </r>
       <r>   -2.9147    1.0000 </r>
       <r>   -2.9073    1.0000 </r>
       <r>   -2.9060    1.0000 </r>
       <r>   -2.9005    1.0000 </r>
       <r>   -2.8994    1.0000 </r>
       <r>   -2.8918    1.0000 </r>
       <r>   -2.8908    1.0000 </r>
       <r>   -2.8892    1.0000 </r>
       <r>   -2.8883    1.0000 </r>
       <r>   -2.8816    1.0000 </r>
       <r>   -2.8791    1.0000 </r>
       <r>   -2.8789    1.0000 </r>
       <r>   -2.8783    1.0000 </r>
       <r>   -2.8767    1.0000 </r>
       <r>   -2.8767    1.0000 </r>
       <r>   -2.8762    1.0000 </r>
       <r>   -2.8710    1.0000 </r>
       <r>   -2.7721    1.0000 </r>
       <r>   -2.7719    1.0000 </r>
       <r>   -2.7717    1.0000 </r>
       <r>   -2.7707    1.0000 </r>
       <r>   -2.7675    1.0000 </r>
       <r>   -2.7674    1.0000 </r>
       <r>   -2.7625    1.0000 </r>
       <r>   -2.7623    1.0000 </r>
       <r>   -2.7595    1.0000 </r>
       <r>   -2.7593    1.0000 </r>
       <r>   -2.7586    1.0000 </r>
       <r>   -2.7585    1.0000 </r>
       <r>   -2.5617    1.0000 </r>
       <r>   -2.4528    1.0000 </r>
       <r>   -2.4522    1.0000 </r>
       <r>   -2.3097    1.0000 </r>
       <r>   -2.3074    1.0000 </r>
       <r>   -2.3065    1.0000 </r>
       <r>   -2.2796    1.0000 </r>
       <r>   -2.2787    1.0000 </r>
       <r>   -2.2668    1.0000 </r>
       <r>   -2.2299    1.0000 </r>
       <r>   -2.2290    1.0000 </r>
       <r>   -2.2179    1.0000 </r>
       <r>   -2.2177    1.0000 </r>
       <r>   -2.2122    1.0000 </r>
       <r>   -2.2106    1.0000 </r>
       <r>   -2.0969    1.0000 </r>
       <r>   -2.0882    1.0000 </r>
       <r>   -2.0880    1.0000 </r>
       <r>   -1.9433    1.0000 </r>
       <r>   -1.9432    1.0000 </r>
       <r>   -1.9021    1.0000 </r>
       <r>   -1.9019    1.0000 </r>
       <r>   -1.8940    1.0000 </r>
       <r>   -1.8913    1.0000 </r>
       <r>   -1.8440    1.0000 </r>
       <r>   -1.7797    1.0000 </r>
       <r>   -1.7793    1.0000 </r>
       <r>   -1.7792    1.0000 </r>
       <r>   -1.7150    1.0000 </r>
       <r>   -1.7132    1.0000 </r>
       <r>   -1.7126    1.0000 </r>
       <r>   -1.7117    1.0000 </r>
       <r>   -1.7110    1.0000 </r>
       <r>   -1.7096    1.0000 </r>
       <r>   -1.5807    1.0000 </r>
       <r>   -1.5807    1.0000 </r>
       <r>   -1.5806    1.0000 </r>
       <r>   -1.5474    1.0000 </r>
       <r>   -1.5426    1.0000 </r>
       <r>   -1.5425    1.0000 </r>
       <r>   -1.5215    1.0000 </r>
       <r>   -1.5214    1.0000 </r>
       <r>   -1.5046    1.0000 </r>
       <r>   -1.5015    1.0000 </r>
       <r>   -1.5005    1.0000 </r>
       <r>   -1.4998    1.0000 </r>
       <r>   -1.4994    1.0000 </r>
       <r>   -1.4983    1.0000 </r>
       <r>   -1.4965    1.0000 </r>
       <r>   -1.4959    1.0000 </r>
       <r>   -1.4951    1.0000 </r>
       <r>   -1.4926    1.0000 </r>
       <r>   -1.4923    1.0000 </r>
       <r>   -1.4888    1.0000 </r>
       <r>   -1.4857    1.0000 </r>
       <r>   -1.4850    1.0000 </r>
       <r>   -1.4772    1.0000 </r>
       <r>   -1.3674    1.0000 </r>
       <r>   -1.3673    1.0000 </r>
       <r>   -1.3673    1.0000 </r>
       <r>   -1.3673    1.0000 </r>
       <r>   -1.3672    1.0000 </r>
       <r>   -1.3671    1.0000 </r>
       <r>   -1.3184    1.0000 </r>
       <r>   -1.3181    1.0000 </r>
       <r>   -1.3115    1.0000 </r>
       <r>   -1.2475    1.0000 </r>
       <r>   -1.2393    1.0000 </r>
       <r>   -1.2390    1.0000 </r>
       <r>   -1.1782    1.0000 </r>
       <r>   -1.1778    1.0000 </r>
       <r>   -1.1757    1.0000 </r>
       <r>   -1.1544    1.0000 </r>
       <r>   -1.1511    1.0000 </r>
       <r>   -1.1506    1.0000 </r>
       <r>   -1.1504    1.0000 </r>
       <r>   -1.1502    1.0000 </r>
       <r>   -1.1500    1.0000 </r>
       <r>   -1.1492    1.0000 </r>
       <r>   -1.1489    1.0000 </r>
       <r>   -1.1485    1.0000 </r>
       <r>   -1.1481    1.0000 </r>
       <r>   -1.1473    1.0000 </r>
       <r>   -1.1472    1.0000 </r>
       <r>   -1.1467    1.0000 </r>
       <r>   -1.1435    1.0000 </r>
       <r>   -1.1341    1.0000 </r>
       <r>   -1.1264    1.0000 </r>
       <r>   -1.1162    1.0000 </r>
       <r>   -1.1154    1.0000 </r>
       <r>   -1.1030    1.0000 </r>
       <r>   -1.0195    1.0000 </r>
       <r>   -1.0195    1.0000 </r>
       <r>   -1.0193    1.0000 </r>
       <r>   -1.0192    1.0000 </r>
       <r>   -1.0190    1.0000 </r>
       <r>   -1.0189    1.0000 </r>
       <r>   -0.9610    1.0000 </r>
       <r>   -0.9608    1.0000 </r>
       <r>   -0.9541    1.0000 </r>
       <r>   -0.9469    1.0000 </r>
       <r>   -0.9323    1.0000 </r>
       <r>   -0.9323    1.0000 </r>
       <r>   -0.8710    1.0000 </r>
       <r>   -0.8701    1.0000 </r>
       <r>   -0.8683    1.0000 </r>
       <r>   -0.8626    1.0000 </r>
       <r>   -0.8534    1.0000 </r>
       <r>   -0.8516    1.0000 </r>
       <r>   -0.8509    1.0000 </r>
       <r>   -0.8501    1.0000 </r>
       <r>   -0.8494    1.0000 </r>
       <r>   -0.8491    1.0000 </r>
       <r>   -0.8478    1.0000 </r>
       <r>   -0.8437    1.0000 </r>
       <r>   -0.8434    1.0000 </r>
       <r>   -0.8417    1.0000 </r>
       <r>   -0.8408    1.0000 </r>
       <r>   -0.8334    1.0000 </r>
       <r>   -0.8318    1.0000 </r>
       <r>   -0.8229    1.0000 </r>
       <r>   -0.7248    1.0000 </r>
       <r>   -0.7238    1.0000 </r>
       <r>   -0.7236    1.0000 </r>
       <r>   -0.7192    1.0000 </r>
       <r>   -0.7190    1.0000 </r>
       <r>   -0.7167    1.0000 </r>
       <r>   -0.4500    1.0000 </r>
       <r>   -0.4498    1.0000 </r>
       <r>   -0.3890    1.0000 </r>
       <r>   -0.3435    1.0000 </r>
       <r>   -0.3434    1.0000 </r>
       <r>   -0.3348    1.0000 </r>
       <r>   -0.3336    1.0000 </r>
       <r>   -0.2581    1.0000 </r>
       <r>   -0.2565    1.0000 </r>
       <r>   -0.2564    1.0000 </r>
       <r>   -0.2474    1.0000 </r>
       <r>   -0.2463    1.0000 </r>
       <r>   -0.2443    1.0000 </r>
       <r>   -0.2430    1.0000 </r>
       <r>   -0.2406    1.0000 </r>
       <r>   -0.0876    1.0000 </r>
       <r>   -0.0873    1.0000 </r>
       <r>   -0.0390    1.0000 </r>
       <r>    0.0320    1.0000 </r>
       <r>    0.0321    1.0000 </r>
       <r>    0.0631    1.0000 </r>
       <r>    0.0848    1.0000 </r>
       <r>    0.0885    1.0000 </r>
       <r>    0.0887    1.0000 </r>
       <r>    0.2134    1.0000 </r>
       <r>    0.2150    1.0000 </r>
       <r>    0.2181    1.0000 </r>
       <r>    0.2183    1.0000 </r>
       <r>    0.2191    1.0000 </r>
       <r>    0.2205    1.0000 </r>
       <r>    0.2261    1.0000 </r>
       <r>    0.2262    1.0000 </r>
       <r>    0.2358    1.0000 </r>
       <r>    0.2377    1.0000 </r>
       <r>    0.2380    1.0000 </r>
       <r>    0.2401    1.0000 </r>
       <r>    0.2447    1.0000 </r>
       <r>    0.2463    1.0000 </r>
       <r>    0.3536    1.0000 </r>
       <r>    0.3551    1.0000 </r>
       <r>    0.3553    1.0000 </r>
       <r>    0.3604    1.0000 </r>
       <r>    0.3605    1.0000 </r>
       <r>    0.3629    1.0000 </r>
       <r>    0.4288    1.0000 </r>
       <r>    0.5258    1.0000 </r>
       <r>    0.5663    1.0000 </r>
       <r>    0.5672    1.0000 </r>
       <r>    0.6135    1.0000 </r>
       <r>    0.6142    1.0000 </r>
       <r>    0.6203    1.0000 </r>
       <r>    0.6227    1.0000 </r>
       <r>    0.6350    1.0000 </r>
       <r>    0.6356    1.0000 </r>
       <r>    0.6428    1.0000 </r>
       <r>    0.6431    1.0000 </r>
       <r>    0.6707    1.0000 </r>
       <r>    0.6805    1.0000 </r>
       <r>    0.6834    1.0000 </r>
       <r>    0.6839    1.0000 </r>
       <r>    0.7448    1.0000 </r>
       <r>    0.7448    1.0000 </r>
       <r>    0.8647    1.0000 </r>
       <r>    0.8656    1.0000 </r>
       <r>    0.8743    1.0000 </r>
       <r>    1.0643    1.0000 </r>
       <r>    1.0648    1.0000 </r>
       <r>    1.1310    1.0000 </r>
       <r>    1.1342    1.0000 </r>
       <r>    1.1342    1.0000 </r>
       <r>    1.1377    1.0000 </r>
       <r>    1.1494    1.0000 </r>
       <r>    1.1693    1.0000 </r>
       <r>    1.1964    1.0000 </r>
       <r>    1.1968    1.0000 </r>
       <r>    1.2396    1.0000 </r>
       <r>    1.2465    1.0000 </r>
       <r>    1.2466    1.0000 </r>
       <r>    1.2614    1.0000 </r>
       <r>    1.2615    1.0000 </r>
       <r>    1.2630    1.0000 </r>
       <r>    1.2760    1.0000 </r>
       <r>    1.2765    1.0000 </r>
       <r>    1.2832    1.0000 </r>
       <r>    1.2843    1.0000 </r>
       <r>    1.2847    1.0000 </r>
       <r>    1.2848    1.0000 </r>
       <r>    1.3024    1.0000 </r>
       <r>    1.3031    1.0000 </r>
       <r>    1.3215    1.0000 </r>
       <r>    1.3230    1.0000 </r>
       <r>    1.3336    1.0000 </r>
       <r>    1.3342    1.0000 </r>
       <r>    1.3417    1.0000 </r>
       <r>    1.3446    1.0000 </r>
       <r>    1.4074    1.0000 </r>
       <r>    1.4077    1.0000 </r>
       <r>    1.4109    1.0000 </r>
       <r>    1.4843    1.0000 </r>
       <r>    1.4862    1.0000 </r>
       <r>    1.4873    1.0000 </r>
       <r>    1.8178    1.0000 </r>
       <r>    1.8183    1.0000 </r>
       <r>    1.8465    1.0000 </r>
       <r>    1.8725    1.0000 </r>
       <r>    1.8981    1.0000 </r>
       <r>    1.8989    1.0000 </r>
       <r>    1.9059    1.0000 </r>
       <r>    1.9061    1.0000 </r>
       <r>    1.9297    1.0000 </r>
       <r>    1.9333    1.0000 </r>
       <r>    1.9338    1.0000 </r>
       <r>    1.9374    1.0000 </r>
       <r>    1.9632    1.0000 </r>
       <r>    1.9639    1.0000 </r>
       <r>    1.9647    1.0000 </r>
       <r>    2.0596    1.0000 </r>
       <r>    2.0596    1.0000 </r>
       <r>    2.3348    1.0000 </r>
       <r>    2.3387    1.0000 </r>
       <r>    2.4123    1.0000 </r>
       <r>    2.4144    1.0000 </r>
       <r>    2.5038    1.0000 </r>
       <r>    2.5038    1.0000 </r>
       <r>    5.5525    0.0000 </r>
       <r>    6.5235    0.0000 </r>
       <r>    6.5236    0.0000 </r>
       <r>    6.7100    0.0000 </r>
       <r>    6.7275    0.0000 </r>
       <r>    6.7318    0.0000 </r>
       <r>    7.0225    0.0000 </r>
       <r>    7.0552    0.0000 </r>
       <r>    7.0553    0.0000 </r>
       <r>    7.0870    0.0000 </r>
       <r>    7.0873    0.0000 </r>
       <r>    7.1682    0.0000 </r>
       <r>    7.1697    0.0000 </r>
       <r>    7.1780    0.0000 </r>
       <r>    7.2613    0.0000 </r>
       <r>    7.2863    0.0000 </r>
       <r>    7.2863    0.0000 </r>
       <r>    7.3119    0.0000 </r>
       <r>    7.3558    0.0000 </r>
       <r>    7.3767    0.0000 </r>
       <r>    7.3767    0.0000 </r>
       <r>    7.4037    0.0000 </r>
       <r>    7.4595    0.0000 </r>
       <r>    7.4598    0.0000 </r>
       <r>    7.5454    0.0000 </r>
       <r>    7.5460    0.0000 </r>
       <r>    7.5929    0.0000 </r>
       <r>    7.5963    0.0000 </r>
       <r>    7.5971    0.0000 </r>
       <r>    7.6074    0.0000 </r>
       <r>    7.7346    0.0000 </r>
       <r>    7.7830    0.0000 </r>
       <r>    7.8164    0.0000 </r>
       <r>    7.8165    0.0000 </r>
       <r>    7.8316    0.0000 </r>
       <r>    7.8498    0.0000 </r>
       <r>    7.8502    0.0000 </r>
       <r>    7.8592    0.0000 </r>
       <r>    7.8595    0.0000 </r>
       <r>    7.8754    0.0000 </r>
       <r>    7.8830    0.0000 </r>
       <r>    7.8864    0.0000 </r>
       <r>    7.8867    0.0000 </r>
       <r>    7.8897    0.0000 </r>
       <r>    7.8919    0.0000 </r>
       <r>    7.9078    0.0000 </r>
       <r>    7.9085    0.0000 </r>
       <r>    7.9090    0.0000 </r>
       <r>    7.9132    0.0000 </r>
       <r>    7.9150    0.0000 </r>
       <r>    7.9165    0.0000 </r>
       <r>    7.9235    0.0000 </r>
       <r>    7.9261    0.0000 </r>
       <r>    7.9327    0.0000 </r>
       <r>    7.9351    0.0000 </r>
       <r>    8.0413    0.0000 </r>
       <r>    8.0430    0.0000 </r>
       <r>    8.0437    0.0000 </r>
       <r>    8.3917    0.0000 </r>
       <r>    8.4313    0.0000 </r>
       <r>    8.4315    0.0000 </r>
       <r>    8.4359    0.0000 </r>
       <r>    8.4419    0.0000 </r>
       <r>    8.4429    0.0000 </r>
       <r>    8.4650    0.0000 </r>
       <r>    8.4661    0.0000 </r>
       <r>    8.4810    0.0000 </r>
       <r>    8.4824    0.0000 </r>
       <r>    8.4997    0.0000 </r>
       <r>    8.5024    0.0000 </r>
       <r>    8.5042    0.0000 </r>
       <r>    8.5052    0.0000 </r>
       <r>    8.5377    0.0000 </r>
       <r>    8.5393    0.0000 </r>
       <r>    8.5676    0.0000 </r>
       <r>    8.7657    0.0000 </r>
       <r>    8.9279    0.0000 </r>
       <r>    9.1720    0.0000 </r>
       <r>    9.1724    0.0000 </r>
       <r>    9.2062    0.0000 </r>
       <r>    9.2067    0.0000 </r>
       <r>    9.2296    0.0000 </r>
       <r>    9.3532    0.0000 </r>
       <r>    9.3553    0.0000 </r>
       <r>    9.5126    0.0000 </r>
       <r>    9.5260    0.0000 </r>
       <r>    9.5280    0.0000 </r>
       <r>    9.5292    0.0000 </r>
       <r>    9.5330    0.0000 </r>
       <r>    9.5337    0.0000 </r>
       <r>    9.5365    0.0000 </r>
       <r>    9.5386    0.0000 </r>
       <r>    9.5395    0.0000 </r>
       <r>    9.5411    0.0000 </r>
       <r>    9.6381    0.0000 </r>
       <r>    9.6417    0.0000 </r>
       <r>    9.8934    0.0000 </r>
       <r>    9.9690    0.0000 </r>
       <r>   10.0486    0.0000 </r>
       <r>   10.1225    0.0000 </r>
       <r>   10.1277    0.0000 </r>
       <r>   10.1391    0.0000 </r>
       <r>   10.1401    0.0000 </r>
       <r>   10.1407    0.0000 </r>
       <r>   10.1496    0.0000 </r>
       <r>   10.1598    0.0000 </r>
       <r>   10.1612    0.0000 </r>
       <r>   10.1695    0.0000 </r>
       <r>   10.1712    0.0000 </r>
       <r>   10.2489    0.0000 </r>
       <r>   10.2597    0.0000 </r>
       <r>   10.2987    0.0000 </r>
       <r>   10.2998    0.0000 </r>
       <r>   10.3290    0.0000 </r>
       <r>   10.3300    0.0000 </r>
       <r>   10.3656    0.0000 </r>
       <r>   10.4436    0.0000 </r>
       <r>   10.4464    0.0000 </r>
       <r>   10.4504    0.0000 </r>
       <r>   10.4620    0.0000 </r>
       <r>   10.4640    0.0000 </r>
       <r>   10.4667    0.0000 </r>
       <r>   10.4943    0.0000 </r>
       <r>   10.5152    0.0000 </r>
       <r>   10.5200    0.0000 </r>
       <r>   10.5203    0.0000 </r>
       <r>   10.5214    0.0000 </r>
       <r>   10.5274    0.0000 </r>
       <r>   10.5726    0.0000 </r>
       <r>   10.5743    0.0000 </r>
       <r>   10.5757    0.0000 </r>
       <r>   10.5776    0.0000 </r>
       <r>   10.5823    0.0000 </r>
       <r>   10.5919    0.0000 </r>
       <r>   10.6024    0.0000 </r>
       <r>   10.6061    0.0000 </r>
       <r>   10.6734    0.0000 </r>
       <r>   10.7161    0.0000 </r>
       <r>   10.8253    0.0000 </r>
       <r>   10.8611    0.0000 </r>
       <r>   10.8774    0.0000 </r>
       <r>   10.8812    0.0000 </r>
       <r>   10.8856    0.0000 </r>
       <r>   10.8892    0.0000 </r>
       <r>   10.9067    0.0000 </r>
       <r>   10.9460    0.0000 </r>
       <r>   10.9497    0.0000 </r>
       <r>   10.9572    0.0000 </r>
       <r>   10.9630    0.0000 </r>
       <r>   10.9710    0.0000 </r>
       <r>   12.0631    0.0000 </r>
       <r>   12.2764    0.0000 </r>
      </set>
      <set comment="kpoint 2">
       <r>  -17.1659    1.0000 </r>
       <r>  -15.7431    1.0000 </r>
       <r>  -15.6887    1.0000 </r>
       <r>  -15.4156    1.0000 </r>
       <r>  -15.2954    1.0000 </r>
       <r>  -15.2485    1.0000 </r>
       <r>  -15.2280    1.0000 </r>
       <r>  -15.1909    1.0000 </r>
       <r>  -15.1884    1.0000 </r>
       <r>  -15.0940    1.0000 </r>
       <r>  -15.0550    1.0000 </r>
       <r>  -15.0251    1.0000 </r>
       <r>  -15.0075    1.0000 </r>
       <r>  -14.9547    1.0000 </r>
       <r>  -14.9445    1.0000 </r>
       <r>  -14.9372    1.0000 </r>
       <r>  -14.9358    1.0000 </r>
       <r>  -14.8534    1.0000 </r>
       <r>  -14.7534    1.0000 </r>
       <r>  -14.7521    1.0000 </r>
       <r>  -14.6163    1.0000 </r>
       <r>  -14.5682    1.0000 </r>
       <r>  -14.5436    1.0000 </r>
       <r>  -14.4572    1.0000 </r>
       <r>  -14.4449    1.0000 </r>
       <r>  -14.4430    1.0000 </r>
       <r>  -14.4277    1.0000 </r>
       <r>  -14.4243    1.0000 </r>
       <r>  -14.4197    1.0000 </r>
       <r>  -14.4159    1.0000 </r>
       <r>  -14.4148    1.0000 </r>
       <r>  -14.3453    1.0000 </r>
       <r>  -14.2462    1.0000 </r>
       <r>  -14.2417    1.0000 </r>
       <r>  -14.2396    1.0000 </r>
       <r>  -14.2391    1.0000 </r>
       <r>  -14.2002    1.0000 </r>
       <r>  -14.1915    1.0000 </r>
       <r>  -14.1674    1.0000 </r>
       <r>  -14.1663    1.0000 </r>
       <r>  -14.1140    1.0000 </r>
       <r>  -14.0344    1.0000 </r>
       <r>  -13.9964    1.0000 </r>
       <r>  -13.9945    1.0000 </r>
       <r>  -13.9381    1.0000 </r>
       <r>  -13.7864    1.0000 </r>
       <r>  -13.7352    1.0000 </r>
       <r>  -13.7099    1.0000 </r>
       <r>  -13.7084    1.0000 </r>
       <r>  -13.7066    1.0000 </r>
       <r>  -13.6976    1.0000 </r>
       <r>  -13.6933    1.0000 </r>
       <r>  -13.6750    1.0000 </r>
       <r>  -13.6726    1.0000 </r>
       <r>  -13.5994    1.0000 </r>
       <r>  -13.5307    1.0000 </r>
       <r>  -13.5305    1.0000 </r>
       <r>  -13.5157    1.0000 </r>
       <r>  -13.5153    1.0000 </r>
       <r>  -13.5018    1.0000 </r>
       <r>  -13.3576    1.0000 </r>
       <r>  -13.3334    1.0000 </r>
       <r>  -13.2540    1.0000 </r>
       <r>  -13.2222    1.0000 </r>
       <r>  -13.1123    1.0000 </r>
       <r>  -13.0592    1.0000 </r>
       <r>  -13.0534    1.0000 </r>
       <r>  -13.0510    1.0000 </r>
       <r>  -13.0424    1.0000 </r>
       <r>  -13.0392    1.0000 </r>
       <r>  -13.0370    1.0000 </r>
       <r>  -13.0346    1.0000 </r>
       <r>  -13.0334    1.0000 </r>
       <r>  -12.9738    1.0000 </r>
       <r>  -12.9259    1.0000 </r>
       <r>  -12.8880    1.0000 </r>
       <r>  -12.8839    1.0000 </r>
       <r>  -12.8818    1.0000 </r>
       <r>  -12.8798    1.0000 </r>
       <r>  -12.8767    1.0000 </r>
       <r>  -12.8735    1.0000 </r>
       <r>  -12.8730    1.0000 </r>
       <r>  -12.8712    1.0000 </r>
       <r>  -12.8684    1.0000 </r>
       <r>  -12.8659    1.0000 </r>
       <r>  -12.8638    1.0000 </r>
       <r>  -12.8636    1.0000 </r>
       <r>  -12.8596    1.0000 </r>
       <r>  -12.7159    1.0000 </r>
       <r>  -12.7140    1.0000 </r>
       <r>  -12.7138    1.0000 </r>
       <r>  -12.7135    1.0000 </r>
       <r>  -12.6804    1.0000 </r>
       <r>  -12.6085    1.0000 </r>
       <r>  -12.5912    1.0000 </r>
       <r>  -12.5838    1.0000 </r>
       <r>  -12.5692    1.0000 </r>
       <r>  -12.5549    1.0000 </r>
       <r>  -12.5329    1.0000 </r>
       <r>  -12.4983    1.0000 </r>
       <r>  -12.4353    1.0000 </r>
       <r>  -12.4308    1.0000 </r>
       <r>  -12.4236    1.0000 </r>
       <r>  -12.4186    1.0000 </r>
       <r>  -12.3355    1.0000 </r>
       <r>  -12.3322    1.0000 </r>
       <r>  -12.3276    1.0000 </r>
       <r>  -12.3233    1.0000 </r>
       <r>  -12.2438    1.0000 </r>
       <r>  -12.2416    1.0000 </r>
       <r>  -12.2392    1.0000 </r>
       <r>  -12.2361    1.0000 </r>
       <r>  -12.2169    1.0000 </r>
       <r>  -12.2153    1.0000 </r>
       <r>  -12.2103    1.0000 </r>
       <r>  -12.2079    1.0000 </r>
       <r>  -12.1767    1.0000 </r>
       <r>  -12.1765    1.0000 </r>
       <r>  -12.1692    1.0000 </r>
       <r>  -12.1691    1.0000 </r>
       <r>  -12.0958    1.0000 </r>
       <r>  -12.0956    1.0000 </r>
       <r>  -12.0887    1.0000 </r>
       <r>  -12.0872    1.0000 </r>
       <r>  -12.0863    1.0000 </r>
       <r>  -12.0840    1.0000 </r>
       <r>  -11.9496    1.0000 </r>
       <r>  -11.9475    1.0000 </r>
       <r>  -11.9469    1.0000 </r>
       <r>  -11.9447    1.0000 </r>
       <r>  -11.8156    1.0000 </r>
       <r>  -11.8151    1.0000 </r>
       <r>  -11.8064    1.0000 </r>
       <r>  -11.8061    1.0000 </r>
       <r>  -11.8056    1.0000 </r>
       <r>  -11.8051    1.0000 </r>
       <r>  -11.7841    1.0000 </r>
       <r>  -11.7837    1.0000 </r>
       <r>  -11.7805    1.0000 </r>
       <r>  -11.7801    1.0000 </r>
       <r>  -11.6684    1.0000 </r>
       <r>  -11.6684    1.0000 </r>
       <r>  -11.6613    1.0000 </r>
       <r>  -11.6612    1.0000 </r>
       <r>   -8.1623    1.0000 </r>
       <r>   -7.2497    1.0000 </r>
       <r>   -7.2352    1.0000 </r>
       <r>   -6.7830    1.0000 </r>
       <r>   -6.6995    1.0000 </r>
       <r>   -6.6787    1.0000 </r>
       <r>   -6.4258    1.0000 </r>
       <r>   -6.4018    1.0000 </r>
       <r>   -6.3173    1.0000 </r>
       <r>   -6.3073    1.0000 </r>
       <r>   -6.3052    1.0000 </r>
       <r>   -6.3042    1.0000 </r>
       <r>   -6.2990    1.0000 </r>
       <r>   -6.2840    1.0000 </r>
       <r>   -6.2735    1.0000 </r>
       <r>   -6.2722    1.0000 </r>
       <r>   -6.2711    1.0000 </r>
       <r>   -6.2703    1.0000 </r>
       <r>   -6.2141    1.0000 </r>
       <r>   -6.2131    1.0000 </r>
       <r>   -6.2125    1.0000 </r>
       <r>   -6.2045    1.0000 </r>
       <r>   -6.1975    1.0000 </r>
       <r>   -6.1925    1.0000 </r>
       <r>   -6.1587    1.0000 </r>
       <r>   -6.1585    1.0000 </r>
       <r>   -6.1490    1.0000 </r>
       <r>   -6.1489    1.0000 </r>
       <r>   -6.0723    1.0000 </r>
       <r>   -6.0711    1.0000 </r>
       <r>   -5.9325    1.0000 </r>
       <r>   -5.9305    1.0000 </r>
       <r>   -5.9072    1.0000 </r>
       <r>   -5.9071    1.0000 </r>
       <r>   -5.8367    1.0000 </r>
       <r>   -5.7893    1.0000 </r>
       <r>   -5.7818    1.0000 </r>
       <r>   -5.7697    1.0000 </r>
       <r>   -5.7673    1.0000 </r>
       <r>   -5.7632    1.0000 </r>
       <r>   -5.7626    1.0000 </r>
       <r>   -5.7615    1.0000 </r>
       <r>   -5.7590    1.0000 </r>
       <r>   -5.7567    1.0000 </r>
       <r>   -5.7522    1.0000 </r>
       <r>   -5.7517    1.0000 </r>
       <r>   -5.7375    1.0000 </r>
       <r>   -5.6804    1.0000 </r>
       <r>   -5.6520    1.0000 </r>
       <r>   -5.6394    1.0000 </r>
       <r>   -5.6228    1.0000 </r>
       <r>   -5.6228    1.0000 </r>
       <r>   -5.6196    1.0000 </r>
       <r>   -5.6196    1.0000 </r>
       <r>   -5.2272    1.0000 </r>
       <r>   -5.2259    1.0000 </r>
       <r>   -5.2234    1.0000 </r>
       <r>   -5.2226    1.0000 </r>
       <r>   -5.2220    1.0000 </r>
       <r>   -5.2212    1.0000 </r>
       <r>   -5.2210    1.0000 </r>
       <r>   -5.2206    1.0000 </r>
       <r>   -5.2186    1.0000 </r>
       <r>   -5.2183    1.0000 </r>
       <r>   -5.2178    1.0000 </r>
       <r>   -5.2167    1.0000 </r>
       <r>   -5.1067    1.0000 </r>
       <r>   -5.0953    1.0000 </r>
       <r>   -5.0907    1.0000 </r>
       <r>   -5.0905    1.0000 </r>
       <r>   -5.0877    1.0000 </r>
       <r>   -5.0875    1.0000 </r>
       <r>   -5.0874    1.0000 </r>
       <r>   -5.0870    1.0000 </r>
       <r>   -5.0083    1.0000 </r>
       <r>   -4.9190    1.0000 </r>
       <r>   -4.8269    1.0000 </r>
       <r>   -4.5974    1.0000 </r>
       <r>   -4.5428    1.0000 </r>
       <r>   -4.5346    1.0000 </r>
       <r>   -4.4749    1.0000 </r>
       <r>   -4.4723    1.0000 </r>
       <r>   -4.4719    1.0000 </r>
       <r>   -4.4713    1.0000 </r>
       <r>   -4.4709    1.0000 </r>
       <r>   -4.4686    1.0000 </r>
       <r>   -4.4682    1.0000 </r>
       <r>   -4.4677    1.0000 </r>
       <r>   -4.3412    1.0000 </r>
       <r>   -4.3410    1.0000 </r>
       <r>   -4.3408    1.0000 </r>
       <r>   -4.3407    1.0000 </r>
       <r>   -4.3118    1.0000 </r>
       <r>   -4.1904    1.0000 </r>
       <r>   -4.0920    1.0000 </r>
       <r>   -4.0892    1.0000 </r>
       <r>   -4.0874    1.0000 </r>
       <r>   -4.0867    1.0000 </r>
       <r>   -4.0844    1.0000 </r>
       <r>   -4.0835    1.0000 </r>
       <r>   -4.0760    1.0000 </r>
       <r>   -4.0732    1.0000 </r>
       <r>   -4.0717    1.0000 </r>
       <r>   -4.0694    1.0000 </r>
       <r>   -4.0246    1.0000 </r>
       <r>   -3.9501    1.0000 </r>
       <r>   -3.9500    1.0000 </r>
       <r>   -3.9466    1.0000 </r>
       <r>   -3.9465    1.0000 </r>
       <r>   -3.9073    1.0000 </r>
       <r>   -3.8631    1.0000 </r>
       <r>   -3.7743    1.0000 </r>
       <r>   -3.7443    1.0000 </r>
       <r>   -3.6227    1.0000 </r>
       <r>   -3.6206    1.0000 </r>
       <r>   -3.6153    1.0000 </r>
       <r>   -3.6137    1.0000 </r>
       <r>   -3.6035    1.0000 </r>
       <r>   -3.6030    1.0000 </r>
       <r>   -3.5984    1.0000 </r>
       <r>   -3.5979    1.0000 </r>
       <r>   -3.4795    1.0000 </r>
       <r>   -3.4794    1.0000 </r>
       <r>   -3.4740    1.0000 </r>
       <r>   -3.4740    1.0000 </r>
       <r>   -3.4726    1.0000 </r>
       <r>   -3.4693    1.0000 </r>
       <r>   -3.4686    1.0000 </r>
       <r>   -3.4673    1.0000 </r>
       <r>   -3.4655    1.0000 </r>
       <r>   -3.4634    1.0000 </r>
       <r>   -3.4339    1.0000 </r>
       <r>   -3.3435    1.0000 </r>
       <r>   -3.3383    1.0000 </r>
       <r>   -3.3381    1.0000 </r>
       <r>   -3.1460    1.0000 </r>
       <r>   -3.0895    1.0000 </r>
       <r>   -3.0750    1.0000 </r>
       <r>   -3.0732    1.0000 </r>
       <r>   -3.0709    1.0000 </r>
       <r>   -3.0697    1.0000 </r>
       <r>   -3.0670    1.0000 </r>
       <r>   -2.9870    1.0000 </r>
       <r>   -2.9382    1.0000 </r>
       <r>   -2.9376    1.0000 </r>
       <r>   -2.9015    1.0000 </r>
       <r>   -2.8452    1.0000 </r>
       <r>   -2.8078    1.0000 </r>
       <r>   -2.7635    1.0000 </r>
       <r>   -2.7544    1.0000 </r>
       <r>   -2.7510    1.0000 </r>
       <r>   -2.7470    1.0000 </r>
       <r>   -2.7443    1.0000 </r>
       <r>   -2.7232    1.0000 </r>
       <r>   -2.7230    1.0000 </r>
       <r>   -2.6823    1.0000 </r>
       <r>   -2.6777    1.0000 </r>
       <r>   -2.6686    1.0000 </r>
       <r>   -2.6674    1.0000 </r>
       <r>   -2.6632    1.0000 </r>
       <r>   -2.5440    1.0000 </r>
       <r>   -2.5438    1.0000 </r>
       <r>   -2.5187    1.0000 </r>
       <r>   -2.5168    1.0000 </r>
       <r>   -2.5090    1.0000 </r>
       <r>   -2.4551    1.0000 </r>
       <r>   -2.4235    1.0000 </r>
       <r>   -2.4154    1.0000 </r>
       <r>   -2.3838    1.0000 </r>
       <r>   -2.3763    1.0000 </r>
       <r>   -2.3745    1.0000 </r>
       <r>   -2.3732    1.0000 </r>
       <r>   -2.3723    1.0000 </r>
       <r>   -2.3709    1.0000 </r>
       <r>   -2.3707    1.0000 </r>
       <r>   -2.3693    1.0000 </r>
       <r>   -2.3689    1.0000 </r>
       <r>   -2.3572    1.0000 </r>
       <r>   -2.3546    1.0000 </r>
       <r>   -2.3423    1.0000 </r>
       <r>   -2.3168    1.0000 </r>
       <r>   -2.2585    1.0000 </r>
       <r>   -2.2408    1.0000 </r>
       <r>   -2.2405    1.0000 </r>
       <r>   -2.2403    1.0000 </r>
       <r>   -2.2400    1.0000 </r>
       <r>   -2.2095    1.0000 </r>
       <r>   -2.1728    1.0000 </r>
       <r>   -2.1438    1.0000 </r>
       <r>   -2.1275    1.0000 </r>
       <r>   -2.0886    1.0000 </r>
       <r>   -2.0884    1.0000 </r>
       <r>   -2.0881    1.0000 </r>
       <r>   -2.0878    1.0000 </r>
       <r>   -2.0570    1.0000 </r>
       <r>   -2.0544    1.0000 </r>
       <r>   -2.0540    1.0000 </r>
       <r>   -2.0516    1.0000 </r>
       <r>   -2.0151    1.0000 </r>
       <r>   -2.0115    1.0000 </r>
       <r>   -2.0081    1.0000 </r>
       <r>   -2.0010    1.0000 </r>
       <r>   -1.9817    1.0000 </r>
       <r>   -1.9430    1.0000 </r>
       <r>   -1.9429    1.0000 </r>
       <r>   -1.9331    1.0000 </r>
       <r>   -1.9329    1.0000 </r>
       <r>   -1.8961    1.0000 </r>
       <r>   -1.8707    1.0000 </r>
       <r>   -1.8670    1.0000 </r>
       <r>   -1.8660    1.0000 </r>
       <r>   -1.8654    1.0000 </r>
       <r>   -1.8232    1.0000 </r>
       <r>   -1.8227    1.0000 </r>
       <r>   -1.8203    1.0000 </r>
       <r>   -1.8170    1.0000 </r>
       <r>   -1.8160    1.0000 </r>
       <r>   -1.8146    1.0000 </r>
       <r>   -1.7794    1.0000 </r>
       <r>   -1.7768    1.0000 </r>
       <r>   -1.7766    1.0000 </r>
       <r>   -1.7759    1.0000 </r>
       <r>   -1.7755    1.0000 </r>
       <r>   -1.7751    1.0000 </r>
       <r>   -1.7744    1.0000 </r>
       <r>   -1.7723    1.0000 </r>
       <r>   -1.7635    1.0000 </r>
       <r>   -1.7128    1.0000 </r>
       <r>   -1.7055    1.0000 </r>
       <r>   -1.6991    1.0000 </r>
       <r>   -1.6929    1.0000 </r>
       <r>   -1.6574    1.0000 </r>
       <r>   -1.6472    1.0000 </r>
       <r>   -1.6451    1.0000 </r>
       <r>   -1.6450    1.0000 </r>
       <r>   -1.6449    1.0000 </r>
       <r>   -1.6449    1.0000 </r>
       <r>   -1.6342    1.0000 </r>
       <r>   -1.6151    1.0000 </r>
       <r>   -1.6114    1.0000 </r>
       <r>   -1.6050    1.0000 </r>
       <r>   -1.6035    1.0000 </r>
       <r>   -1.5827    1.0000 </r>
       <r>   -1.5805    1.0000 </r>
       <r>   -1.5793    1.0000 </r>
       <r>   -1.5649    1.0000 </r>
       <r>   -1.5639    1.0000 </r>
       <r>   -1.5561    1.0000 </r>
       <r>   -1.5536    1.0000 </r>
       <r>   -1.5512    1.0000 </r>
       <r>   -1.4772    1.0000 </r>
       <r>   -1.4491    1.0000 </r>
       <r>   -1.4410    1.0000 </r>
       <r>   -1.4316    1.0000 </r>
       <r>   -1.3498    1.0000 </r>
       <r>   -1.3474    1.0000 </r>
       <r>   -1.3363    1.0000 </r>
       <r>   -1.3357    1.0000 </r>
       <r>   -1.2295    1.0000 </r>
       <r>   -1.2290    1.0000 </r>
       <r>   -1.2261    1.0000 </r>
       <r>   -1.2257    1.0000 </r>
       <r>   -1.2129    1.0000 </r>
       <r>   -1.2107    1.0000 </r>
       <r>   -1.2101    1.0000 </r>
       <r>   -1.2065    1.0000 </r>
       <r>   -1.1853    1.0000 </r>
       <r>   -1.0913    1.0000 </r>
       <r>   -1.0913    1.0000 </r>
       <r>   -1.0861    1.0000 </r>
       <r>   -1.0860    1.0000 </r>
       <r>   -1.0498    1.0000 </r>
       <r>   -1.0075    1.0000 </r>
       <r>   -0.9824    1.0000 </r>
       <r>   -0.9294    1.0000 </r>
       <r>   -0.8735    1.0000 </r>
       <r>   -0.8656    1.0000 </r>
       <r>   -0.8452    1.0000 </r>
       <r>   -0.7778    1.0000 </r>
       <r>   -0.7753    1.0000 </r>
       <r>   -0.7480    1.0000 </r>
       <r>   -0.7219    1.0000 </r>
       <r>   -0.7168    1.0000 </r>
       <r>   -0.7096    1.0000 </r>
       <r>   -0.7063    1.0000 </r>
       <r>   -0.7023    1.0000 </r>
       <r>   -0.6762    1.0000 </r>
       <r>   -0.6759    1.0000 </r>
       <r>   -0.6730    1.0000 </r>
       <r>   -0.6718    1.0000 </r>
       <r>   -0.6544    1.0000 </r>
       <r>   -0.6540    1.0000 </r>
       <r>   -0.6529    1.0000 </r>
       <r>   -0.6225    1.0000 </r>
       <r>   -0.5174    1.0000 </r>
       <r>   -0.5163    1.0000 </r>
       <r>   -0.5156    1.0000 </r>
       <r>   -0.5143    1.0000 </r>
       <r>   -0.4638    1.0000 </r>
       <r>   -0.4595    1.0000 </r>
       <r>   -0.4577    1.0000 </r>
       <r>   -0.4563    1.0000 </r>
       <r>   -0.4543    1.0000 </r>
       <r>   -0.4532    1.0000 </r>
       <r>   -0.4518    1.0000 </r>
       <r>   -0.4500    1.0000 </r>
       <r>   -0.4262    1.0000 </r>
       <r>   -0.3995    1.0000 </r>
       <r>   -0.3835    1.0000 </r>
       <r>   -0.3834    1.0000 </r>
       <r>   -0.3770    1.0000 </r>
       <r>   -0.3681    1.0000 </r>
       <r>   -0.3561    1.0000 </r>
       <r>   -0.3547    1.0000 </r>
       <r>   -0.3492    1.0000 </r>
       <r>   -0.3449    1.0000 </r>
       <r>   -0.3432    1.0000 </r>
       <r>   -0.3392    1.0000 </r>
       <r>   -0.3268    1.0000 </r>
       <r>   -0.3263    1.0000 </r>
       <r>   -0.3262    1.0000 </r>
       <r>   -0.3257    1.0000 </r>
       <r>   -0.2756    1.0000 </r>
       <r>   -0.2255    1.0000 </r>
       <r>   -0.2250    1.0000 </r>
       <r>   -0.0989    1.0000 </r>
       <r>   -0.0450    1.0000 </r>
       <r>    0.0269    1.0000 </r>
       <r>    0.0693    1.0000 </r>
       <r>    0.1213    1.0000 </r>
       <r>    0.1580    1.0000 </r>
       <r>    0.1583    1.0000 </r>
       <r>    0.1758    1.0000 </r>
       <r>    0.1869    1.0000 </r>
       <r>    0.2031    1.0000 </r>
       <r>    0.2132    1.0000 </r>
       <r>    0.2140    1.0000 </r>
       <r>    0.2185    1.0000 </r>
       <r>    0.2203    1.0000 </r>
       <r>    0.2406    1.0000 </r>
       <r>    0.2432    1.0000 </r>
       <r>    0.2936    1.0000 </r>
       <r>    0.3188    1.0000 </r>
       <r>    0.3214    1.0000 </r>
       <r>    0.3442    1.0000 </r>
       <r>    0.3458    1.0000 </r>
       <r>    0.3481    1.0000 </r>
       <r>    0.3499    1.0000 </r>
       <r>    0.3700    1.0000 </r>
       <r>    0.3787    1.0000 </r>
       <r>    0.3965    1.0000 </r>
       <r>    0.4551    1.0000 </r>
       <r>    0.4607    1.0000 </r>
       <r>    0.4641    1.0000 </r>
       <r>    0.4647    1.0000 </r>
       <r>    0.4661    1.0000 </r>
       <r>    0.4766    1.0000 </r>
       <r>    0.4772    1.0000 </r>
       <r>    0.4775    1.0000 </r>
       <r>    0.5556    1.0000 </r>
       <r>    0.5600    1.0000 </r>
       <r>    0.5662    1.0000 </r>
       <r>    0.5855    1.0000 </r>
       <r>    0.5899    1.0000 </r>
       <r>    0.6937    1.0000 </r>
       <r>    0.6951    1.0000 </r>
       <r>    0.7029    1.0000 </r>
       <r>    0.7074    1.0000 </r>
       <r>    0.7345    1.0000 </r>
       <r>    0.8100    1.0000 </r>
       <r>    0.8118    1.0000 </r>
       <r>    0.8422    1.0000 </r>
       <r>    0.8556    1.0000 </r>
       <r>    0.8565    1.0000 </r>
       <r>    0.8817    1.0000 </r>
       <r>    0.8844    1.0000 </r>
       <r>    0.8853    1.0000 </r>
       <r>    0.9159    1.0000 </r>
       <r>    0.9937    1.0000 </r>
       <r>    0.9979    1.0000 </r>
       <r>    0.9989    1.0000 </r>
       <r>    1.0027    1.0000 </r>
       <r>    1.0242    1.0000 </r>
       <r>    1.0336    1.0000 </r>
       <r>    1.0887    1.0000 </r>
       <r>    1.1059    1.0000 </r>
       <r>    1.2088    1.0000 </r>
       <r>    1.2097    1.0000 </r>
       <r>    1.2241    1.0000 </r>
       <r>    1.2344    1.0000 </r>
       <r>    1.2482    1.0000 </r>
       <r>    1.2506    1.0000 </r>
       <r>    1.2545    1.0000 </r>
       <r>    1.2642    1.0000 </r>
       <r>    1.3173    1.0000 </r>
       <r>    1.3185    1.0000 </r>
       <r>    1.3673    1.0000 </r>
       <r>    1.3677    1.0000 </r>
       <r>    1.4028    1.0000 </r>
       <r>    1.4051    1.0000 </r>
       <r>    1.4398    1.0000 </r>
       <r>    1.4417    1.0000 </r>
       <r>    1.5034    1.0000 </r>
       <r>    1.5056    1.0000 </r>
       <r>    1.5404    1.0000 </r>
       <r>    1.5847    1.0000 </r>
       <r>    1.5904    1.0000 </r>
       <r>    1.5919    1.0000 </r>
       <r>    1.7661    1.0000 </r>
       <r>    1.7706    1.0000 </r>
       <r>    1.8480    1.0000 </r>
       <r>    1.8558    1.0000 </r>
       <r>    1.8620    1.0000 </r>
       <r>    1.8633    1.0000 </r>
       <r>    1.9197    1.0000 </r>
       <r>    1.9261    1.0000 </r>
       <r>    1.9544    1.0000 </r>
       <r>    1.9595    1.0000 </r>
       <r>    1.9810    1.0000 </r>
       <r>    1.9815    1.0000 </r>
       <r>    2.0255    1.0000 </r>
       <r>    2.0255    1.0000 </r>
       <r>    2.0649    1.0000 </r>
       <r>    2.0686    1.0000 </r>
       <r>    2.0967    1.0000 </r>
       <r>    2.0971    1.0000 </r>
       <r>    2.2249    1.0000 </r>
       <r>    2.2309    1.0000 </r>
       <r>    2.4003    1.0000 </r>
       <r>    2.4005    1.0000 </r>
       <r>    2.4045    1.0000 </r>
       <r>    2.4061    1.0000 </r>
       <r>    5.5534    0.0000 </r>
       <r>    6.6712    0.0000 </r>
       <r>    6.6903    0.0000 </r>
       <r>    6.6928    0.0000 </r>
       <r>    6.7217    0.0000 </r>
       <r>    6.8893    0.0000 </r>
       <r>    6.9314    0.0000 </r>
       <r>    7.0003    0.0000 </r>
       <r>    7.0119    0.0000 </r>
       <r>    7.0877    0.0000 </r>
       <r>    7.0970    0.0000 </r>
       <r>    7.1634    0.0000 </r>
       <r>    7.2141    0.0000 </r>
       <r>    7.2144    0.0000 </r>
       <r>    7.2290    0.0000 </r>
       <r>    7.2564    0.0000 </r>
       <r>    7.2898    0.0000 </r>
       <r>    7.2982    0.0000 </r>
       <r>    7.3073    0.0000 </r>
       <r>    7.3291    0.0000 </r>
       <r>    7.3334    0.0000 </r>
       <r>    7.3421    0.0000 </r>
       <r>    7.3450    0.0000 </r>
       <r>    7.3517    0.0000 </r>
       <r>    7.3623    0.0000 </r>
       <r>    7.3637    0.0000 </r>
       <r>    7.3851    0.0000 </r>
       <r>    7.3878    0.0000 </r>
       <r>    7.3938    0.0000 </r>
       <r>    7.3964    0.0000 </r>
       <r>    7.4293    0.0000 </r>
       <r>    7.4323    0.0000 </r>
       <r>    7.4680    0.0000 </r>
       <r>    7.7053    0.0000 </r>
       <r>    7.7421    0.0000 </r>
       <r>    7.7453    0.0000 </r>
       <r>    7.7485    0.0000 </r>
       <r>    7.7997    0.0000 </r>
       <r>    7.8365    0.0000 </r>
       <r>    7.8605    0.0000 </r>
       <r>    7.8771    0.0000 </r>
       <r>    7.8904    0.0000 </r>
       <r>    7.9099    0.0000 </r>
       <r>    7.9189    0.0000 </r>
       <r>    7.9221    0.0000 </r>
       <r>    7.9620    0.0000 </r>
       <r>    8.0046    0.0000 </r>
       <r>    8.0809    0.0000 </r>
       <r>    8.1245    0.0000 </r>
       <r>    8.1673    0.0000 </r>
       <r>    8.1723    0.0000 </r>
       <r>    8.1750    0.0000 </r>
       <r>    8.1873    0.0000 </r>
       <r>    8.2172    0.0000 </r>
       <r>    8.2225    0.0000 </r>
       <r>    8.2266    0.0000 </r>
       <r>    8.2440    0.0000 </r>
       <r>    8.2562    0.0000 </r>
       <r>    8.2712    0.0000 </r>
       <r>    8.2888    0.0000 </r>
       <r>    8.4380    0.0000 </r>
       <r>    8.5704    0.0000 </r>
       <r>    8.5822    0.0000 </r>
       <r>    8.5999    0.0000 </r>
       <r>    8.6384    0.0000 </r>
       <r>    8.6416    0.0000 </r>
       <r>    8.6499    0.0000 </r>
       <r>    8.6672    0.0000 </r>
       <r>    8.6769    0.0000 </r>
       <r>    8.6842    0.0000 </r>
       <r>    8.6872    0.0000 </r>
       <r>    8.6894    0.0000 </r>
       <r>    8.7346    0.0000 </r>
       <r>    8.9039    0.0000 </r>
       <r>    8.9777    0.0000 </r>
       <r>    9.0016    0.0000 </r>
       <r>    9.0175    0.0000 </r>
       <r>    9.0410    0.0000 </r>
       <r>    9.0839    0.0000 </r>
       <r>    9.1266    0.0000 </r>
       <r>    9.2293    0.0000 </r>
       <r>    9.2516    0.0000 </r>
       <r>    9.2653    0.0000 </r>
       <r>    9.2681    0.0000 </r>
       <r>    9.2810    0.0000 </r>
       <r>    9.2850    0.0000 </r>
       <r>    9.2976    0.0000 </r>
       <r>    9.3003    0.0000 </r>
       <r>    9.3049    0.0000 </r>
       <r>    9.3232    0.0000 </r>
       <r>    9.3268    0.0000 </r>
       <r>    9.3289    0.0000 </r>
       <r>    9.3302    0.0000 </r>
       <r>    9.3970    0.0000 </r>
       <r>    9.4951    0.0000 </r>
       <r>    9.5285    0.0000 </r>
       <r>    9.6519    0.0000 </r>
       <r>    9.6843    0.0000 </r>
       <r>    9.6873    0.0000 </r>
       <r>    9.6898    0.0000 </r>
       <r>    9.6921    0.0000 </r>
       <r>    9.7480    0.0000 </r>
       <r>    9.9094    0.0000 </r>
       <r>   10.0793    0.0000 </r>
       <r>   10.0959    0.0000 </r>
       <r>   10.0979    0.0000 </r>
       <r>   10.1087    0.0000 </r>
       <r>   10.1502    0.0000 </r>
       <r>   10.1724    0.0000 </r>
       <r>   10.1778    0.0000 </r>
       <r>   10.1982    0.0000 </r>
       <r>   10.2016    0.0000 </r>
       <r>   10.2290    0.0000 </r>
       <r>   10.2413    0.0000 </r>
       <r>   10.2859    0.0000 </r>
       <r>   10.3096    0.0000 </r>
       <r>   10.3187    0.0000 </r>
       <r>   10.3778    0.0000 </r>
       <r>   10.3822    0.0000 </r>
       <r>   10.3917    0.0000 </r>
       <r>   10.3935    0.0000 </r>
       <r>   10.4223    0.0000 </r>
       <r>   10.4383    0.0000 </r>
       <r>   10.4453    0.0000 </r>
       <r>   10.4760    0.0000 </r>
       <r>   10.5177    0.0000 </r>
       <r>   10.5406    0.0000 </r>
       <r>   10.6308    0.0000 </r>
       <r>   10.6763    0.0000 </r>
       <r>   10.7230    0.0000 </r>
       <r>   10.7235    0.0000 </r>
       <r>   10.7267    0.0000 </r>
       <r>   10.7333    0.0000 </r>
       <r>   10.7539    0.0000 </r>
       <r>   10.7612    0.0000 </r>
       <r>   10.7652    0.0000 </r>
       <r>   10.7889    0.0000 </r>
       <r>   10.7931    0.0000 </r>
       <r>   10.7945    0.0000 </r>
       <r>   10.8154    0.0000 </r>
       <r>   10.8179    0.0000 </r>
       <r>   11.2449    0.0000 </r>
       <r>   11.2609    0.0000 </r>
       <r>   11.4738    0.0000 </r>
       <r>   11.5041    0.0000 </r>
       <r>   11.5657    0.0000 </r>
       <r>   11.6455    0.0000 </r>
       <r>   11.6944    0.0000 </r>
       <r>   11.7317    0.0000 </r>
       <r>   11.7553    0.0000 </r>
       <r>   11.7890    0.0000 </r>
       <r>   11.9485    0.0000 </r>
      </set>
      <set comment="kpoint 3">
       <r>  -17.1659    1.0000 </r>
       <r>  -15.7430    1.0000 </r>
       <r>  -15.6887    1.0000 </r>
       <r>  -15.4161    1.0000 </r>
       <r>  -15.2950    1.0000 </r>
       <r>  -15.2488    1.0000 </r>
       <r>  -15.2284    1.0000 </r>
       <r>  -15.1905    1.0000 </r>
       <r>  -15.1877    1.0000 </r>
       <r>  -15.0938    1.0000 </r>
       <r>  -15.0547    1.0000 </r>
       <r>  -15.0254    1.0000 </r>
       <r>  -15.0071    1.0000 </r>
       <r>  -14.9550    1.0000 </r>
       <r>  -14.9443    1.0000 </r>
       <r>  -14.9376    1.0000 </r>
       <r>  -14.9357    1.0000 </r>
       <r>  -14.8532    1.0000 </r>
       <r>  -14.7536    1.0000 </r>
       <r>  -14.7520    1.0000 </r>
       <r>  -14.6165    1.0000 </r>
       <r>  -14.5684    1.0000 </r>
       <r>  -14.5438    1.0000 </r>
       <r>  -14.4570    1.0000 </r>
       <r>  -14.4452    1.0000 </r>
       <r>  -14.4426    1.0000 </r>
       <r>  -14.4277    1.0000 </r>
       <r>  -14.4240    1.0000 </r>
       <r>  -14.4202    1.0000 </r>
       <r>  -14.4159    1.0000 </r>
       <r>  -14.4143    1.0000 </r>
       <r>  -14.3457    1.0000 </r>
       <r>  -14.2463    1.0000 </r>
       <r>  -14.2417    1.0000 </r>
       <r>  -14.2393    1.0000 </r>
       <r>  -14.2391    1.0000 </r>
       <r>  -14.1998    1.0000 </r>
       <r>  -14.1920    1.0000 </r>
       <r>  -14.1677    1.0000 </r>
       <r>  -14.1660    1.0000 </r>
       <r>  -14.1139    1.0000 </r>
       <r>  -14.0343    1.0000 </r>
       <r>  -13.9963    1.0000 </r>
       <r>  -13.9946    1.0000 </r>
       <r>  -13.9378    1.0000 </r>
       <r>  -13.7867    1.0000 </r>
       <r>  -13.7356    1.0000 </r>
       <r>  -13.7108    1.0000 </r>
       <r>  -13.7088    1.0000 </r>
       <r>  -13.7075    1.0000 </r>
       <r>  -13.6958    1.0000 </r>
       <r>  -13.6938    1.0000 </r>
       <r>  -13.6738    1.0000 </r>
       <r>  -13.6727    1.0000 </r>
       <r>  -13.5993    1.0000 </r>
       <r>  -13.5310    1.0000 </r>
       <r>  -13.5309    1.0000 </r>
       <r>  -13.5154    1.0000 </r>
       <r>  -13.5150    1.0000 </r>
       <r>  -13.5016    1.0000 </r>
       <r>  -13.3576    1.0000 </r>
       <r>  -13.3335    1.0000 </r>
       <r>  -13.2541    1.0000 </r>
       <r>  -13.2223    1.0000 </r>
       <r>  -13.1123    1.0000 </r>
       <r>  -13.0600    1.0000 </r>
       <r>  -13.0529    1.0000 </r>
       <r>  -13.0508    1.0000 </r>
       <r>  -13.0432    1.0000 </r>
       <r>  -13.0391    1.0000 </r>
       <r>  -13.0362    1.0000 </r>
       <r>  -13.0348    1.0000 </r>
       <r>  -13.0323    1.0000 </r>
       <r>  -12.9740    1.0000 </r>
       <r>  -12.9258    1.0000 </r>
       <r>  -12.8882    1.0000 </r>
       <r>  -12.8844    1.0000 </r>
       <r>  -12.8812    1.0000 </r>
       <r>  -12.8799    1.0000 </r>
       <r>  -12.8769    1.0000 </r>
       <r>  -12.8738    1.0000 </r>
       <r>  -12.8729    1.0000 </r>
       <r>  -12.8710    1.0000 </r>
       <r>  -12.8691    1.0000 </r>
       <r>  -12.8677    1.0000 </r>
       <r>  -12.8633    1.0000 </r>
       <r>  -12.8618    1.0000 </r>
       <r>  -12.8593    1.0000 </r>
       <r>  -12.7159    1.0000 </r>
       <r>  -12.7141    1.0000 </r>
       <r>  -12.7137    1.0000 </r>
       <r>  -12.7136    1.0000 </r>
       <r>  -12.6804    1.0000 </r>
       <r>  -12.6087    1.0000 </r>
       <r>  -12.5923    1.0000 </r>
       <r>  -12.5846    1.0000 </r>
       <r>  -12.5681    1.0000 </r>
       <r>  -12.5536    1.0000 </r>
       <r>  -12.5324    1.0000 </r>
       <r>  -12.4980    1.0000 </r>
       <r>  -12.4352    1.0000 </r>
       <r>  -12.4310    1.0000 </r>
       <r>  -12.4234    1.0000 </r>
       <r>  -12.4187    1.0000 </r>
       <r>  -12.3364    1.0000 </r>
       <r>  -12.3326    1.0000 </r>
       <r>  -12.3285    1.0000 </r>
       <r>  -12.3237    1.0000 </r>
       <r>  -12.2449    1.0000 </r>
       <r>  -12.2417    1.0000 </r>
       <r>  -12.2400    1.0000 </r>
       <r>  -12.2361    1.0000 </r>
       <r>  -12.2160    1.0000 </r>
       <r>  -12.2148    1.0000 </r>
       <r>  -12.2090    1.0000 </r>
       <r>  -12.2073    1.0000 </r>
       <r>  -12.1767    1.0000 </r>
       <r>  -12.1766    1.0000 </r>
       <r>  -12.1696    1.0000 </r>
       <r>  -12.1694    1.0000 </r>
       <r>  -12.0959    1.0000 </r>
       <r>  -12.0958    1.0000 </r>
       <r>  -12.0885    1.0000 </r>
       <r>  -12.0869    1.0000 </r>
       <r>  -12.0860    1.0000 </r>
       <r>  -12.0838    1.0000 </r>
       <r>  -11.9496    1.0000 </r>
       <r>  -11.9474    1.0000 </r>
       <r>  -11.9463    1.0000 </r>
       <r>  -11.9440    1.0000 </r>
       <r>  -11.8159    1.0000 </r>
       <r>  -11.8152    1.0000 </r>
       <r>  -11.8084    1.0000 </r>
       <r>  -11.8080    1.0000 </r>
       <r>  -11.8061    1.0000 </r>
       <r>  -11.8055    1.0000 </r>
       <r>  -11.7833    1.0000 </r>
       <r>  -11.7830    1.0000 </r>
       <r>  -11.7793    1.0000 </r>
       <r>  -11.7789    1.0000 </r>
       <r>  -11.6686    1.0000 </r>
       <r>  -11.6686    1.0000 </r>
       <r>  -11.6611    1.0000 </r>
       <r>  -11.6611    1.0000 </r>
       <r>   -8.1623    1.0000 </r>
       <r>   -7.2498    1.0000 </r>
       <r>   -7.2351    1.0000 </r>
       <r>   -6.7830    1.0000 </r>
       <r>   -6.6993    1.0000 </r>
       <r>   -6.6785    1.0000 </r>
       <r>   -6.4259    1.0000 </r>
       <r>   -6.4019    1.0000 </r>
       <r>   -6.3177    1.0000 </r>
       <r>   -6.3085    1.0000 </r>
       <r>   -6.3058    1.0000 </r>
       <r>   -6.3051    1.0000 </r>
       <r>   -6.2996    1.0000 </r>
       <r>   -6.2841    1.0000 </r>
       <r>   -6.2729    1.0000 </r>
       <r>   -6.2717    1.0000 </r>
       <r>   -6.2706    1.0000 </r>
       <r>   -6.2691    1.0000 </r>
       <r>   -6.2140    1.0000 </r>
       <r>   -6.2131    1.0000 </r>
       <r>   -6.2126    1.0000 </r>
       <r>   -6.2039    1.0000 </r>
       <r>   -6.1972    1.0000 </r>
       <r>   -6.1926    1.0000 </r>
       <r>   -6.1589    1.0000 </r>
       <r>   -6.1587    1.0000 </r>
       <r>   -6.1488    1.0000 </r>
       <r>   -6.1486    1.0000 </r>
       <r>   -6.0724    1.0000 </r>
       <r>   -6.0709    1.0000 </r>
       <r>   -5.9330    1.0000 </r>
       <r>   -5.9309    1.0000 </r>
       <r>   -5.9071    1.0000 </r>
       <r>   -5.9054    1.0000 </r>
       <r>   -5.8365    1.0000 </r>
       <r>   -5.7895    1.0000 </r>
       <r>   -5.7816    1.0000 </r>
       <r>   -5.7702    1.0000 </r>
       <r>   -5.7683    1.0000 </r>
       <r>   -5.7640    1.0000 </r>
       <r>   -5.7633    1.0000 </r>
       <r>   -5.7613    1.0000 </r>
       <r>   -5.7589    1.0000 </r>
       <r>   -5.7563    1.0000 </r>
       <r>   -5.7517    1.0000 </r>
       <r>   -5.7511    1.0000 </r>
       <r>   -5.7374    1.0000 </r>
       <r>   -5.6804    1.0000 </r>
       <r>   -5.6520    1.0000 </r>
       <r>   -5.6393    1.0000 </r>
       <r>   -5.6230    1.0000 </r>
       <r>   -5.6230    1.0000 </r>
       <r>   -5.6195    1.0000 </r>
       <r>   -5.6195    1.0000 </r>
       <r>   -5.2265    1.0000 </r>
       <r>   -5.2264    1.0000 </r>
       <r>   -5.2244    1.0000 </r>
       <r>   -5.2232    1.0000 </r>
       <r>   -5.2212    1.0000 </r>
       <r>   -5.2208    1.0000 </r>
       <r>   -5.2207    1.0000 </r>
       <r>   -5.2201    1.0000 </r>
       <r>   -5.2192    1.0000 </r>
       <r>   -5.2189    1.0000 </r>
       <r>   -5.2180    1.0000 </r>
       <r>   -5.2176    1.0000 </r>
       <r>   -5.1068    1.0000 </r>
       <r>   -5.0952    1.0000 </r>
       <r>   -5.0907    1.0000 </r>
       <r>   -5.0905    1.0000 </r>
       <r>   -5.0878    1.0000 </r>
       <r>   -5.0876    1.0000 </r>
       <r>   -5.0873    1.0000 </r>
       <r>   -5.0870    1.0000 </r>
       <r>   -5.0084    1.0000 </r>
       <r>   -4.9190    1.0000 </r>
       <r>   -4.8269    1.0000 </r>
       <r>   -4.5975    1.0000 </r>
       <r>   -4.5426    1.0000 </r>
       <r>   -4.5346    1.0000 </r>
       <r>   -4.4761    1.0000 </r>
       <r>   -4.4723    1.0000 </r>
       <r>   -4.4720    1.0000 </r>
       <r>   -4.4707    1.0000 </r>
       <r>   -4.4702    1.0000 </r>
       <r>   -4.4685    1.0000 </r>
       <r>   -4.4675    1.0000 </r>
       <r>   -4.4661    1.0000 </r>
       <r>   -4.3413    1.0000 </r>
       <r>   -4.3411    1.0000 </r>
       <r>   -4.3407    1.0000 </r>
       <r>   -4.3406    1.0000 </r>
       <r>   -4.3118    1.0000 </r>
       <r>   -4.1904    1.0000 </r>
       <r>   -4.0920    1.0000 </r>
       <r>   -4.0895    1.0000 </r>
       <r>   -4.0891    1.0000 </r>
       <r>   -4.0865    1.0000 </r>
       <r>   -4.0851    1.0000 </r>
       <r>   -4.0832    1.0000 </r>
       <r>   -4.0735    1.0000 </r>
       <r>   -4.0730    1.0000 </r>
       <r>   -4.0710    1.0000 </r>
       <r>   -4.0695    1.0000 </r>
       <r>   -4.0246    1.0000 </r>
       <r>   -3.9502    1.0000 </r>
       <r>   -3.9501    1.0000 </r>
       <r>   -3.9465    1.0000 </r>
       <r>   -3.9464    1.0000 </r>
       <r>   -3.9074    1.0000 </r>
       <r>   -3.8631    1.0000 </r>
       <r>   -3.7745    1.0000 </r>
       <r>   -3.7439    1.0000 </r>
       <r>   -3.6241    1.0000 </r>
       <r>   -3.6229    1.0000 </r>
       <r>   -3.6161    1.0000 </r>
       <r>   -3.6152    1.0000 </r>
       <r>   -3.6028    1.0000 </r>
       <r>   -3.6020    1.0000 </r>
       <r>   -3.5976    1.0000 </r>
       <r>   -3.5965    1.0000 </r>
       <r>   -3.4795    1.0000 </r>
       <r>   -3.4794    1.0000 </r>
       <r>   -3.4740    1.0000 </r>
       <r>   -3.4739    1.0000 </r>
       <r>   -3.4734    1.0000 </r>
       <r>   -3.4690    1.0000 </r>
       <r>   -3.4687    1.0000 </r>
       <r>   -3.4672    1.0000 </r>
       <r>   -3.4655    1.0000 </r>
       <r>   -3.4629    1.0000 </r>
       <r>   -3.4338    1.0000 </r>
       <r>   -3.3435    1.0000 </r>
       <r>   -3.3383    1.0000 </r>
       <r>   -3.3381    1.0000 </r>
       <r>   -3.1460    1.0000 </r>
       <r>   -3.0897    1.0000 </r>
       <r>   -3.0776    1.0000 </r>
       <r>   -3.0745    1.0000 </r>
       <r>   -3.0698    1.0000 </r>
       <r>   -3.0693    1.0000 </r>
       <r>   -3.0667    1.0000 </r>
       <r>   -2.9869    1.0000 </r>
       <r>   -2.9383    1.0000 </r>
       <r>   -2.9375    1.0000 </r>
       <r>   -2.9013    1.0000 </r>
       <r>   -2.8452    1.0000 </r>
       <r>   -2.8082    1.0000 </r>
       <r>   -2.7635    1.0000 </r>
       <r>   -2.7538    1.0000 </r>
       <r>   -2.7509    1.0000 </r>
       <r>   -2.7469    1.0000 </r>
       <r>   -2.7443    1.0000 </r>
       <r>   -2.7231    1.0000 </r>
       <r>   -2.7229    1.0000 </r>
       <r>   -2.6812    1.0000 </r>
       <r>   -2.6778    1.0000 </r>
       <r>   -2.6686    1.0000 </r>
       <r>   -2.6660    1.0000 </r>
       <r>   -2.6628    1.0000 </r>
       <r>   -2.5440    1.0000 </r>
       <r>   -2.5437    1.0000 </r>
       <r>   -2.5187    1.0000 </r>
       <r>   -2.5172    1.0000 </r>
       <r>   -2.5090    1.0000 </r>
       <r>   -2.4551    1.0000 </r>
       <r>   -2.4238    1.0000 </r>
       <r>   -2.4153    1.0000 </r>
       <r>   -2.3838    1.0000 </r>
       <r>   -2.3789    1.0000 </r>
       <r>   -2.3758    1.0000 </r>
       <r>   -2.3736    1.0000 </r>
       <r>   -2.3725    1.0000 </r>
       <r>   -2.3719    1.0000 </r>
       <r>   -2.3698    1.0000 </r>
       <r>   -2.3697    1.0000 </r>
       <r>   -2.3671    1.0000 </r>
       <r>   -2.3573    1.0000 </r>
       <r>   -2.3545    1.0000 </r>
       <r>   -2.3422    1.0000 </r>
       <r>   -2.3172    1.0000 </r>
       <r>   -2.2585    1.0000 </r>
       <r>   -2.2410    1.0000 </r>
       <r>   -2.2406    1.0000 </r>
       <r>   -2.2403    1.0000 </r>
       <r>   -2.2399    1.0000 </r>
       <r>   -2.2095    1.0000 </r>
       <r>   -2.1727    1.0000 </r>
       <r>   -2.1441    1.0000 </r>
       <r>   -2.1278    1.0000 </r>
       <r>   -2.0909    1.0000 </r>
       <r>   -2.0884    1.0000 </r>
       <r>   -2.0882    1.0000 </r>
       <r>   -2.0865    1.0000 </r>
       <r>   -2.0544    1.0000 </r>
       <r>   -2.0541    1.0000 </r>
       <r>   -2.0522    1.0000 </r>
       <r>   -2.0518    1.0000 </r>
       <r>   -2.0153    1.0000 </r>
       <r>   -2.0119    1.0000 </r>
       <r>   -2.0085    1.0000 </r>
       <r>   -2.0011    1.0000 </r>
       <r>   -1.9809    1.0000 </r>
       <r>   -1.9432    1.0000 </r>
       <r>   -1.9431    1.0000 </r>
       <r>   -1.9327    1.0000 </r>
       <r>   -1.9327    1.0000 </r>
       <r>   -1.8960    1.0000 </r>
       <r>   -1.8691    1.0000 </r>
       <r>   -1.8684    1.0000 </r>
       <r>   -1.8669    1.0000 </r>
       <r>   -1.8654    1.0000 </r>
       <r>   -1.8236    1.0000 </r>
       <r>   -1.8228    1.0000 </r>
       <r>   -1.8202    1.0000 </r>
       <r>   -1.8171    1.0000 </r>
       <r>   -1.8161    1.0000 </r>
       <r>   -1.8145    1.0000 </r>
       <r>   -1.7787    1.0000 </r>
       <r>   -1.7772    1.0000 </r>
       <r>   -1.7764    1.0000 </r>
       <r>   -1.7757    1.0000 </r>
       <r>   -1.7757    1.0000 </r>
       <r>   -1.7751    1.0000 </r>
       <r>   -1.7746    1.0000 </r>
       <r>   -1.7698    1.0000 </r>
       <r>   -1.7638    1.0000 </r>
       <r>   -1.7128    1.0000 </r>
       <r>   -1.7054    1.0000 </r>
       <r>   -1.6995    1.0000 </r>
       <r>   -1.6925    1.0000 </r>
       <r>   -1.6577    1.0000 </r>
       <r>   -1.6474    1.0000 </r>
       <r>   -1.6452    1.0000 </r>
       <r>   -1.6451    1.0000 </r>
       <r>   -1.6448    1.0000 </r>
       <r>   -1.6448    1.0000 </r>
       <r>   -1.6339    1.0000 </r>
       <r>   -1.6151    1.0000 </r>
       <r>   -1.6113    1.0000 </r>
       <r>   -1.6052    1.0000 </r>
       <r>   -1.6033    1.0000 </r>
       <r>   -1.5853    1.0000 </r>
       <r>   -1.5814    1.0000 </r>
       <r>   -1.5791    1.0000 </r>
       <r>   -1.5641    1.0000 </r>
       <r>   -1.5639    1.0000 </r>
       <r>   -1.5559    1.0000 </r>
       <r>   -1.5536    1.0000 </r>
       <r>   -1.5512    1.0000 </r>
       <r>   -1.4773    1.0000 </r>
       <r>   -1.4493    1.0000 </r>
       <r>   -1.4412    1.0000 </r>
       <r>   -1.4314    1.0000 </r>
       <r>   -1.3500    1.0000 </r>
       <r>   -1.3475    1.0000 </r>
       <r>   -1.3366    1.0000 </r>
       <r>   -1.3356    1.0000 </r>
       <r>   -1.2304    1.0000 </r>
       <r>   -1.2280    1.0000 </r>
       <r>   -1.2265    1.0000 </r>
       <r>   -1.2232    1.0000 </r>
       <r>   -1.2112    1.0000 </r>
       <r>   -1.2108    1.0000 </r>
       <r>   -1.2086    1.0000 </r>
       <r>   -1.2071    1.0000 </r>
       <r>   -1.1854    1.0000 </r>
       <r>   -1.0915    1.0000 </r>
       <r>   -1.0914    1.0000 </r>
       <r>   -1.0859    1.0000 </r>
       <r>   -1.0859    1.0000 </r>
       <r>   -1.0498    1.0000 </r>
       <r>   -1.0076    1.0000 </r>
       <r>   -0.9827    1.0000 </r>
       <r>   -0.9297    1.0000 </r>
       <r>   -0.8733    1.0000 </r>
       <r>   -0.8658    1.0000 </r>
       <r>   -0.8453    1.0000 </r>
       <r>   -0.7780    1.0000 </r>
       <r>   -0.7753    1.0000 </r>
       <r>   -0.7477    1.0000 </r>
       <r>   -0.7222    1.0000 </r>
       <r>   -0.7174    1.0000 </r>
       <r>   -0.7095    1.0000 </r>
       <r>   -0.7063    1.0000 </r>
       <r>   -0.7021    1.0000 </r>
       <r>   -0.6757    1.0000 </r>
       <r>   -0.6739    1.0000 </r>
       <r>   -0.6738    1.0000 </r>
       <r>   -0.6719    1.0000 </r>
       <r>   -0.6552    1.0000 </r>
       <r>   -0.6537    1.0000 </r>
       <r>   -0.6527    1.0000 </r>
       <r>   -0.6224    1.0000 </r>
       <r>   -0.5201    1.0000 </r>
       <r>   -0.5171    1.0000 </r>
       <r>   -0.5157    1.0000 </r>
       <r>   -0.5151    1.0000 </r>
       <r>   -0.4614    1.0000 </r>
       <r>   -0.4598    1.0000 </r>
       <r>   -0.4582    1.0000 </r>
       <r>   -0.4562    1.0000 </r>
       <r>   -0.4557    1.0000 </r>
       <r>   -0.4544    1.0000 </r>
       <r>   -0.4509    1.0000 </r>
       <r>   -0.4505    1.0000 </r>
       <r>   -0.4259    1.0000 </r>
       <r>   -0.3993    1.0000 </r>
       <r>   -0.3835    1.0000 </r>
       <r>   -0.3834    1.0000 </r>
       <r>   -0.3765    1.0000 </r>
       <r>   -0.3687    1.0000 </r>
       <r>   -0.3581    1.0000 </r>
       <r>   -0.3536    1.0000 </r>
       <r>   -0.3489    1.0000 </r>
       <r>   -0.3473    1.0000 </r>
       <r>   -0.3424    1.0000 </r>
       <r>   -0.3400    1.0000 </r>
       <r>   -0.3269    1.0000 </r>
       <r>   -0.3264    1.0000 </r>
       <r>   -0.3262    1.0000 </r>
       <r>   -0.3257    1.0000 </r>
       <r>   -0.2755    1.0000 </r>
       <r>   -0.2255    1.0000 </r>
       <r>   -0.2249    1.0000 </r>
       <r>   -0.0989    1.0000 </r>
       <r>   -0.0448    1.0000 </r>
       <r>    0.0267    1.0000 </r>
       <r>    0.0689    1.0000 </r>
       <r>    0.1216    1.0000 </r>
       <r>    0.1577    1.0000 </r>
       <r>    0.1581    1.0000 </r>
       <r>    0.1751    1.0000 </r>
       <r>    0.1865    1.0000 </r>
       <r>    0.2022    1.0000 </r>
       <r>    0.2133    1.0000 </r>
       <r>    0.2145    1.0000 </r>
       <r>    0.2182    1.0000 </r>
       <r>    0.2212    1.0000 </r>
       <r>    0.2402    1.0000 </r>
       <r>    0.2443    1.0000 </r>
       <r>    0.2935    1.0000 </r>
       <r>    0.3191    1.0000 </r>
       <r>    0.3216    1.0000 </r>
       <r>    0.3442    1.0000 </r>
       <r>    0.3457    1.0000 </r>
       <r>    0.3496    1.0000 </r>
       <r>    0.3527    1.0000 </r>
       <r>    0.3701    1.0000 </r>
       <r>    0.3787    1.0000 </r>
       <r>    0.3962    1.0000 </r>
       <r>    0.4547    1.0000 </r>
       <r>    0.4600    1.0000 </r>
       <r>    0.4641    1.0000 </r>
       <r>    0.4655    1.0000 </r>
       <r>    0.4665    1.0000 </r>
       <r>    0.4765    1.0000 </r>
       <r>    0.4772    1.0000 </r>
       <r>    0.4773    1.0000 </r>
       <r>    0.5566    1.0000 </r>
       <r>    0.5623    1.0000 </r>
       <r>    0.5664    1.0000 </r>
       <r>    0.5864    1.0000 </r>
       <r>    0.5913    1.0000 </r>
       <r>    0.6934    1.0000 </r>
       <r>    0.6951    1.0000 </r>
       <r>    0.7032    1.0000 </r>
       <r>    0.7072    1.0000 </r>
       <r>    0.7346    1.0000 </r>
       <r>    0.8104    1.0000 </r>
       <r>    0.8120    1.0000 </r>
       <r>    0.8423    1.0000 </r>
       <r>    0.8502    1.0000 </r>
       <r>    0.8560    1.0000 </r>
       <r>    0.8800    1.0000 </r>
       <r>    0.8845    1.0000 </r>
       <r>    0.8854    1.0000 </r>
       <r>    0.9170    1.0000 </r>
       <r>    0.9935    1.0000 </r>
       <r>    0.9981    1.0000 </r>
       <r>    0.9995    1.0000 </r>
       <r>    1.0028    1.0000 </r>
       <r>    1.0234    1.0000 </r>
       <r>    1.0337    1.0000 </r>
       <r>    1.0887    1.0000 </r>
       <r>    1.1056    1.0000 </r>
       <r>    1.2089    1.0000 </r>
       <r>    1.2099    1.0000 </r>
       <r>    1.2243    1.0000 </r>
       <r>    1.2337    1.0000 </r>
       <r>    1.2475    1.0000 </r>
       <r>    1.2506    1.0000 </r>
       <r>    1.2549    1.0000 </r>
       <r>    1.2646    1.0000 </r>
       <r>    1.3172    1.0000 </r>
       <r>    1.3185    1.0000 </r>
       <r>    1.3675    1.0000 </r>
       <r>    1.3681    1.0000 </r>
       <r>    1.4027    1.0000 </r>
       <r>    1.4051    1.0000 </r>
       <r>    1.4413    1.0000 </r>
       <r>    1.4418    1.0000 </r>
       <r>    1.5033    1.0000 </r>
       <r>    1.5054    1.0000 </r>
       <r>    1.5395    1.0000 </r>
       <r>    1.5849    1.0000 </r>
       <r>    1.5909    1.0000 </r>
       <r>    1.5917    1.0000 </r>
       <r>    1.7658    1.0000 </r>
       <r>    1.7708    1.0000 </r>
       <r>    1.8472    1.0000 </r>
       <r>    1.8561    1.0000 </r>
       <r>    1.8617    1.0000 </r>
       <r>    1.8626    1.0000 </r>
       <r>    1.9192    1.0000 </r>
       <r>    1.9270    1.0000 </r>
       <r>    1.9544    1.0000 </r>
       <r>    1.9600    1.0000 </r>
       <r>    1.9812    1.0000 </r>
       <r>    1.9817    1.0000 </r>
       <r>    2.0255    1.0000 </r>
       <r>    2.0256    1.0000 </r>
       <r>    2.0639    1.0000 </r>
       <r>    2.0672    1.0000 </r>
       <r>    2.0978    1.0000 </r>
       <r>    2.0980    1.0000 </r>
       <r>    2.2247    1.0000 </r>
       <r>    2.2312    1.0000 </r>
       <r>    2.3999    1.0000 </r>
       <r>    2.4002    1.0000 </r>
       <r>    2.4048    1.0000 </r>
       <r>    2.4064    1.0000 </r>
       <r>    5.5534    0.0000 </r>
       <r>    6.6711    0.0000 </r>
       <r>    6.6901    0.0000 </r>
       <r>    6.6929    0.0000 </r>
       <r>    6.7217    0.0000 </r>
       <r>    6.8896    0.0000 </r>
       <r>    6.9318    0.0000 </r>
       <r>    6.9996    0.0000 </r>
       <r>    7.0119    0.0000 </r>
       <r>    7.0877    0.0000 </r>
       <r>    7.0966    0.0000 </r>
       <r>    7.1635    0.0000 </r>
       <r>    7.2145    0.0000 </r>
       <r>    7.2146    0.0000 </r>
       <r>    7.2303    0.0000 </r>
       <r>    7.2563    0.0000 </r>
       <r>    7.2899    0.0000 </r>
       <r>    7.2987    0.0000 </r>
       <r>    7.3066    0.0000 </r>
       <r>    7.3298    0.0000 </r>
       <r>    7.3344    0.0000 </r>
       <r>    7.3421    0.0000 </r>
       <r>    7.3454    0.0000 </r>
       <r>    7.3518    0.0000 </r>
       <r>    7.3619    0.0000 </r>
       <r>    7.3631    0.0000 </r>
       <r>    7.3817    0.0000 </r>
       <r>    7.3878    0.0000 </r>
       <r>    7.3927    0.0000 </r>
       <r>    7.3966    0.0000 </r>
       <r>    7.4303    0.0000 </r>
       <r>    7.4319    0.0000 </r>
       <r>    7.4685    0.0000 </r>
       <r>    7.7058    0.0000 </r>
       <r>    7.7427    0.0000 </r>
       <r>    7.7447    0.0000 </r>
       <r>    7.7483    0.0000 </r>
       <r>    7.7991    0.0000 </r>
       <r>    7.8369    0.0000 </r>
       <r>    7.8606    0.0000 </r>
       <r>    7.8776    0.0000 </r>
       <r>    7.8912    0.0000 </r>
       <r>    7.9103    0.0000 </r>
       <r>    7.9191    0.0000 </r>
       <r>    7.9227    0.0000 </r>
       <r>    7.9630    0.0000 </r>
       <r>    8.0040    0.0000 </r>
       <r>    8.0800    0.0000 </r>
       <r>    8.1218    0.0000 </r>
       <r>    8.1669    0.0000 </r>
       <r>    8.1721    0.0000 </r>
       <r>    8.1749    0.0000 </r>
       <r>    8.1874    0.0000 </r>
       <r>    8.2179    0.0000 </r>
       <r>    8.2234    0.0000 </r>
       <r>    8.2255    0.0000 </r>
       <r>    8.2440    0.0000 </r>
       <r>    8.2561    0.0000 </r>
       <r>    8.2722    0.0000 </r>
       <r>    8.2890    0.0000 </r>
       <r>    8.4378    0.0000 </r>
       <r>    8.5705    0.0000 </r>
       <r>    8.5820    0.0000 </r>
       <r>    8.5994    0.0000 </r>
       <r>    8.6378    0.0000 </r>
       <r>    8.6414    0.0000 </r>
       <r>    8.6508    0.0000 </r>
       <r>    8.6658    0.0000 </r>
       <r>    8.6744    0.0000 </r>
       <r>    8.6843    0.0000 </r>
       <r>    8.6891    0.0000 </r>
       <r>    8.6907    0.0000 </r>
       <r>    8.7353    0.0000 </r>
       <r>    8.9036    0.0000 </r>
       <r>    8.9776    0.0000 </r>
       <r>    9.0019    0.0000 </r>
       <r>    9.0176    0.0000 </r>
       <r>    9.0409    0.0000 </r>
       <r>    9.0843    0.0000 </r>
       <r>    9.1272    0.0000 </r>
       <r>    9.2278    0.0000 </r>
       <r>    9.2515    0.0000 </r>
       <r>    9.2670    0.0000 </r>
       <r>    9.2691    0.0000 </r>
       <r>    9.2805    0.0000 </r>
       <r>    9.2854    0.0000 </r>
       <r>    9.2974    0.0000 </r>
       <r>    9.3009    0.0000 </r>
       <r>    9.3053    0.0000 </r>
       <r>    9.3215    0.0000 </r>
       <r>    9.3252    0.0000 </r>
       <r>    9.3285    0.0000 </r>
       <r>    9.3323    0.0000 </r>
       <r>    9.3968    0.0000 </r>
       <r>    9.4952    0.0000 </r>
       <r>    9.5285    0.0000 </r>
       <r>    9.6512    0.0000 </r>
       <r>    9.6843    0.0000 </r>
       <r>    9.6874    0.0000 </r>
       <r>    9.6915    0.0000 </r>
       <r>    9.6924    0.0000 </r>
       <r>    9.7475    0.0000 </r>
       <r>    9.9094    0.0000 </r>
       <r>   10.0791    0.0000 </r>
       <r>   10.0961    0.0000 </r>
       <r>   10.0979    0.0000 </r>
       <r>   10.1085    0.0000 </r>
       <r>   10.1496    0.0000 </r>
       <r>   10.1731    0.0000 </r>
       <r>   10.1785    0.0000 </r>
       <r>   10.1962    0.0000 </r>
       <r>   10.2004    0.0000 </r>
       <r>   10.2315    0.0000 </r>
       <r>   10.2408    0.0000 </r>
       <r>   10.2861    0.0000 </r>
       <r>   10.3101    0.0000 </r>
       <r>   10.3199    0.0000 </r>
       <r>   10.3776    0.0000 </r>
       <r>   10.3815    0.0000 </r>
       <r>   10.3906    0.0000 </r>
       <r>   10.3949    0.0000 </r>
       <r>   10.4218    0.0000 </r>
       <r>   10.4387    0.0000 </r>
       <r>   10.4463    0.0000 </r>
       <r>   10.4779    0.0000 </r>
       <r>   10.5178    0.0000 </r>
       <r>   10.5404    0.0000 </r>
       <r>   10.6308    0.0000 </r>
       <r>   10.6773    0.0000 </r>
       <r>   10.7226    0.0000 </r>
       <r>   10.7239    0.0000 </r>
       <r>   10.7270    0.0000 </r>
       <r>   10.7344    0.0000 </r>
       <r>   10.7538    0.0000 </r>
       <r>   10.7625    0.0000 </r>
       <r>   10.7683    0.0000 </r>
       <r>   10.7888    0.0000 </r>
       <r>   10.7911    0.0000 </r>
       <r>   10.7951    0.0000 </r>
       <r>   10.8164    0.0000 </r>
       <r>   10.8177    0.0000 </r>
       <r>   11.2440    0.0000 </r>
       <r>   11.2606    0.0000 </r>
       <r>   11.4850    0.0000 </r>
       <r>   11.5791    0.0000 </r>
       <r>   11.6674    0.0000 </r>
       <r>   11.7080    0.0000 </r>
       <r>   11.7391    0.0000 </r>
       <r>   11.7454    0.0000 </r>
       <r>   11.7778    0.0000 </r>
       <r>   11.8038    0.0000 </r>
       <r>   12.2849    0.0000 </r>
      </set>
      <set comment="kpoint 4">
       <r>  -17.1659    1.0000 </r>
       <r>  -15.7433    1.0000 </r>
       <r>  -15.6885    1.0000 </r>
       <r>  -15.4151    1.0000 </r>
       <r>  -15.2956    1.0000 </r>
       <r>  -15.2483    1.0000 </r>
       <r>  -15.2275    1.0000 </r>
       <r>  -15.1913    1.0000 </r>
       <r>  -15.1890    1.0000 </r>
       <r>  -15.0943    1.0000 </r>
       <r>  -15.0551    1.0000 </r>
       <r>  -15.0248    1.0000 </r>
       <r>  -15.0079    1.0000 </r>
       <r>  -14.9546    1.0000 </r>
       <r>  -14.9444    1.0000 </r>
       <r>  -14.9370    1.0000 </r>
       <r>  -14.9356    1.0000 </r>
       <r>  -14.8534    1.0000 </r>
       <r>  -14.7533    1.0000 </r>
       <r>  -14.7520    1.0000 </r>
       <r>  -14.6162    1.0000 </r>
       <r>  -14.5681    1.0000 </r>
       <r>  -14.5434    1.0000 </r>
       <r>  -14.4573    1.0000 </r>
       <r>  -14.4452    1.0000 </r>
       <r>  -14.4428    1.0000 </r>
       <r>  -14.4278    1.0000 </r>
       <r>  -14.4243    1.0000 </r>
       <r>  -14.4202    1.0000 </r>
       <r>  -14.4161    1.0000 </r>
       <r>  -14.4145    1.0000 </r>
       <r>  -14.3451    1.0000 </r>
       <r>  -14.2464    1.0000 </r>
       <r>  -14.2418    1.0000 </r>
       <r>  -14.2395    1.0000 </r>
       <r>  -14.2392    1.0000 </r>
       <r>  -14.1997    1.0000 </r>
       <r>  -14.1918    1.0000 </r>
       <r>  -14.1676    1.0000 </r>
       <r>  -14.1660    1.0000 </r>
       <r>  -14.1140    1.0000 </r>
       <r>  -14.0347    1.0000 </r>
       <r>  -13.9964    1.0000 </r>
       <r>  -13.9946    1.0000 </r>
       <r>  -13.9383    1.0000 </r>
       <r>  -13.7863    1.0000 </r>
       <r>  -13.7344    1.0000 </r>
       <r>  -13.7099    1.0000 </r>
       <r>  -13.7075    1.0000 </r>
       <r>  -13.7061    1.0000 </r>
       <r>  -13.6969    1.0000 </r>
       <r>  -13.6946    1.0000 </r>
       <r>  -13.6751    1.0000 </r>
       <r>  -13.6737    1.0000 </r>
       <r>  -13.5996    1.0000 </r>
       <r>  -13.5303    1.0000 </r>
       <r>  -13.5301    1.0000 </r>
       <r>  -13.5161    1.0000 </r>
       <r>  -13.5156    1.0000 </r>
       <r>  -13.5019    1.0000 </r>
       <r>  -13.3575    1.0000 </r>
       <r>  -13.3334    1.0000 </r>
       <r>  -13.2539    1.0000 </r>
       <r>  -13.2221    1.0000 </r>
       <r>  -13.1124    1.0000 </r>
       <r>  -13.0595    1.0000 </r>
       <r>  -13.0541    1.0000 </r>
       <r>  -13.0506    1.0000 </r>
       <r>  -13.0429    1.0000 </r>
       <r>  -13.0393    1.0000 </r>
       <r>  -13.0371    1.0000 </r>
       <r>  -13.0357    1.0000 </r>
       <r>  -13.0323    1.0000 </r>
       <r>  -12.9734    1.0000 </r>
       <r>  -12.9257    1.0000 </r>
       <r>  -12.8880    1.0000 </r>
       <r>  -12.8844    1.0000 </r>
       <r>  -12.8815    1.0000 </r>
       <r>  -12.8800    1.0000 </r>
       <r>  -12.8764    1.0000 </r>
       <r>  -12.8734    1.0000 </r>
       <r>  -12.8730    1.0000 </r>
       <r>  -12.8714    1.0000 </r>
       <r>  -12.8682    1.0000 </r>
       <r>  -12.8668    1.0000 </r>
       <r>  -12.8637    1.0000 </r>
       <r>  -12.8628    1.0000 </r>
       <r>  -12.8596    1.0000 </r>
       <r>  -12.7158    1.0000 </r>
       <r>  -12.7140    1.0000 </r>
       <r>  -12.7137    1.0000 </r>
       <r>  -12.7136    1.0000 </r>
       <r>  -12.6799    1.0000 </r>
       <r>  -12.6087    1.0000 </r>
       <r>  -12.5905    1.0000 </r>
       <r>  -12.5826    1.0000 </r>
       <r>  -12.5703    1.0000 </r>
       <r>  -12.5561    1.0000 </r>
       <r>  -12.5332    1.0000 </r>
       <r>  -12.4989    1.0000 </r>
       <r>  -12.4353    1.0000 </r>
       <r>  -12.4307    1.0000 </r>
       <r>  -12.4237    1.0000 </r>
       <r>  -12.4187    1.0000 </r>
       <r>  -12.3351    1.0000 </r>
       <r>  -12.3318    1.0000 </r>
       <r>  -12.3271    1.0000 </r>
       <r>  -12.3228    1.0000 </r>
       <r>  -12.2430    1.0000 </r>
       <r>  -12.2411    1.0000 </r>
       <r>  -12.2379    1.0000 </r>
       <r>  -12.2355    1.0000 </r>
       <r>  -12.2171    1.0000 </r>
       <r>  -12.2170    1.0000 </r>
       <r>  -12.2105    1.0000 </r>
       <r>  -12.2095    1.0000 </r>
       <r>  -12.1766    1.0000 </r>
       <r>  -12.1765    1.0000 </r>
       <r>  -12.1689    1.0000 </r>
       <r>  -12.1688    1.0000 </r>
       <r>  -12.0955    1.0000 </r>
       <r>  -12.0954    1.0000 </r>
       <r>  -12.0889    1.0000 </r>
       <r>  -12.0875    1.0000 </r>
       <r>  -12.0865    1.0000 </r>
       <r>  -12.0842    1.0000 </r>
       <r>  -11.9498    1.0000 </r>
       <r>  -11.9477    1.0000 </r>
       <r>  -11.9474    1.0000 </r>
       <r>  -11.9449    1.0000 </r>
       <r>  -11.8156    1.0000 </r>
       <r>  -11.8150    1.0000 </r>
       <r>  -11.8061    1.0000 </r>
       <r>  -11.8055    1.0000 </r>
       <r>  -11.8039    1.0000 </r>
       <r>  -11.8027    1.0000 </r>
       <r>  -11.7855    1.0000 </r>
       <r>  -11.7848    1.0000 </r>
       <r>  -11.7814    1.0000 </r>
       <r>  -11.7809    1.0000 </r>
       <r>  -11.6682    1.0000 </r>
       <r>  -11.6682    1.0000 </r>
       <r>  -11.6615    1.0000 </r>
       <r>  -11.6615    1.0000 </r>
       <r>   -8.1623    1.0000 </r>
       <r>   -7.2497    1.0000 </r>
       <r>   -7.2352    1.0000 </r>
       <r>   -6.7832    1.0000 </r>
       <r>   -6.6998    1.0000 </r>
       <r>   -6.6787    1.0000 </r>
       <r>   -6.4256    1.0000 </r>
       <r>   -6.4018    1.0000 </r>
       <r>   -6.3170    1.0000 </r>
       <r>   -6.3069    1.0000 </r>
       <r>   -6.3046    1.0000 </r>
       <r>   -6.3033    1.0000 </r>
       <r>   -6.2983    1.0000 </r>
       <r>   -6.2839    1.0000 </r>
       <r>   -6.2749    1.0000 </r>
       <r>   -6.2722    1.0000 </r>
       <r>   -6.2715    1.0000 </r>
       <r>   -6.2706    1.0000 </r>
       <r>   -6.2140    1.0000 </r>
       <r>   -6.2134    1.0000 </r>
       <r>   -6.2130    1.0000 </r>
       <r>   -6.2047    1.0000 </r>
       <r>   -6.1975    1.0000 </r>
       <r>   -6.1925    1.0000 </r>
       <r>   -6.1584    1.0000 </r>
       <r>   -6.1583    1.0000 </r>
       <r>   -6.1493    1.0000 </r>
       <r>   -6.1492    1.0000 </r>
       <r>   -6.0724    1.0000 </r>
       <r>   -6.0711    1.0000 </r>
       <r>   -5.9319    1.0000 </r>
       <r>   -5.9295    1.0000 </r>
       <r>   -5.9095    1.0000 </r>
       <r>   -5.9072    1.0000 </r>
       <r>   -5.8367    1.0000 </r>
       <r>   -5.7891    1.0000 </r>
       <r>   -5.7820    1.0000 </r>
       <r>   -5.7691    1.0000 </r>
       <r>   -5.7672    1.0000 </r>
       <r>   -5.7633    1.0000 </r>
       <r>   -5.7618    1.0000 </r>
       <r>   -5.7618    1.0000 </r>
       <r>   -5.7589    1.0000 </r>
       <r>   -5.7568    1.0000 </r>
       <r>   -5.7524    1.0000 </r>
       <r>   -5.7517    1.0000 </r>
       <r>   -5.7376    1.0000 </r>
       <r>   -5.6804    1.0000 </r>
       <r>   -5.6521    1.0000 </r>
       <r>   -5.6394    1.0000 </r>
       <r>   -5.6227    1.0000 </r>
       <r>   -5.6227    1.0000 </r>
       <r>   -5.6197    1.0000 </r>
       <r>   -5.6197    1.0000 </r>
       <r>   -5.2264    1.0000 </r>
       <r>   -5.2251    1.0000 </r>
       <r>   -5.2238    1.0000 </r>
       <r>   -5.2231    1.0000 </r>
       <r>   -5.2218    1.0000 </r>
       <r>   -5.2212    1.0000 </r>
       <r>   -5.2206    1.0000 </r>
       <r>   -5.2201    1.0000 </r>
       <r>   -5.2187    1.0000 </r>
       <r>   -5.2183    1.0000 </r>
       <r>   -5.2179    1.0000 </r>
       <r>   -5.2164    1.0000 </r>
       <r>   -5.1067    1.0000 </r>
       <r>   -5.0953    1.0000 </r>
       <r>   -5.0907    1.0000 </r>
       <r>   -5.0905    1.0000 </r>
       <r>   -5.0877    1.0000 </r>
       <r>   -5.0876    1.0000 </r>
       <r>   -5.0873    1.0000 </r>
       <r>   -5.0870    1.0000 </r>
       <r>   -5.0084    1.0000 </r>
       <r>   -4.9189    1.0000 </r>
       <r>   -4.8268    1.0000 </r>
       <r>   -4.5973    1.0000 </r>
       <r>   -4.5429    1.0000 </r>
       <r>   -4.5348    1.0000 </r>
       <r>   -4.4754    1.0000 </r>
       <r>   -4.4732    1.0000 </r>
       <r>   -4.4722    1.0000 </r>
       <r>   -4.4715    1.0000 </r>
       <r>   -4.4709    1.0000 </r>
       <r>   -4.4689    1.0000 </r>
       <r>   -4.4685    1.0000 </r>
       <r>   -4.4677    1.0000 </r>
       <r>   -4.3413    1.0000 </r>
       <r>   -4.3410    1.0000 </r>
       <r>   -4.3408    1.0000 </r>
       <r>   -4.3407    1.0000 </r>
       <r>   -4.3117    1.0000 </r>
       <r>   -4.1903    1.0000 </r>
       <r>   -4.0918    1.0000 </r>
       <r>   -4.0891    1.0000 </r>
       <r>   -4.0869    1.0000 </r>
       <r>   -4.0863    1.0000 </r>
       <r>   -4.0845    1.0000 </r>
       <r>   -4.0824    1.0000 </r>
       <r>   -4.0769    1.0000 </r>
       <r>   -4.0734    1.0000 </r>
       <r>   -4.0727    1.0000 </r>
       <r>   -4.0704    1.0000 </r>
       <r>   -4.0248    1.0000 </r>
       <r>   -3.9500    1.0000 </r>
       <r>   -3.9499    1.0000 </r>
       <r>   -3.9467    1.0000 </r>
       <r>   -3.9467    1.0000 </r>
       <r>   -3.9072    1.0000 </r>
       <r>   -3.8630    1.0000 </r>
       <r>   -3.7741    1.0000 </r>
       <r>   -3.7448    1.0000 </r>
       <r>   -3.6219    1.0000 </r>
       <r>   -3.6201    1.0000 </r>
       <r>   -3.6146    1.0000 </r>
       <r>   -3.6132    1.0000 </r>
       <r>   -3.6038    1.0000 </r>
       <r>   -3.6026    1.0000 </r>
       <r>   -3.5986    1.0000 </r>
       <r>   -3.5974    1.0000 </r>
       <r>   -3.4793    1.0000 </r>
       <r>   -3.4792    1.0000 </r>
       <r>   -3.4742    1.0000 </r>
       <r>   -3.4741    1.0000 </r>
       <r>   -3.4722    1.0000 </r>
       <r>   -3.4695    1.0000 </r>
       <r>   -3.4684    1.0000 </r>
       <r>   -3.4676    1.0000 </r>
       <r>   -3.4658    1.0000 </r>
       <r>   -3.4640    1.0000 </r>
       <r>   -3.4337    1.0000 </r>
       <r>   -3.3437    1.0000 </r>
       <r>   -3.3383    1.0000 </r>
       <r>   -3.3381    1.0000 </r>
       <r>   -3.1461    1.0000 </r>
       <r>   -3.0896    1.0000 </r>
       <r>   -3.0751    1.0000 </r>
       <r>   -3.0733    1.0000 </r>
       <r>   -3.0698    1.0000 </r>
       <r>   -3.0687    1.0000 </r>
       <r>   -3.0668    1.0000 </r>
       <r>   -2.9872    1.0000 </r>
       <r>   -2.9382    1.0000 </r>
       <r>   -2.9375    1.0000 </r>
       <r>   -2.9018    1.0000 </r>
       <r>   -2.8453    1.0000 </r>
       <r>   -2.8074    1.0000 </r>
       <r>   -2.7636    1.0000 </r>
       <r>   -2.7549    1.0000 </r>
       <r>   -2.7510    1.0000 </r>
       <r>   -2.7473    1.0000 </r>
       <r>   -2.7444    1.0000 </r>
       <r>   -2.7236    1.0000 </r>
       <r>   -2.7231    1.0000 </r>
       <r>   -2.6822    1.0000 </r>
       <r>   -2.6789    1.0000 </r>
       <r>   -2.6698    1.0000 </r>
       <r>   -2.6673    1.0000 </r>
       <r>   -2.6630    1.0000 </r>
       <r>   -2.5441    1.0000 </r>
       <r>   -2.5438    1.0000 </r>
       <r>   -2.5185    1.0000 </r>
       <r>   -2.5166    1.0000 </r>
       <r>   -2.5090    1.0000 </r>
       <r>   -2.4551    1.0000 </r>
       <r>   -2.4233    1.0000 </r>
       <r>   -2.4154    1.0000 </r>
       <r>   -2.3841    1.0000 </r>
       <r>   -2.3764    1.0000 </r>
       <r>   -2.3739    1.0000 </r>
       <r>   -2.3729    1.0000 </r>
       <r>   -2.3726    1.0000 </r>
       <r>   -2.3714    1.0000 </r>
       <r>   -2.3700    1.0000 </r>
       <r>   -2.3694    1.0000 </r>
       <r>   -2.3658    1.0000 </r>
       <r>   -2.3572    1.0000 </r>
       <r>   -2.3548    1.0000 </r>
       <r>   -2.3418    1.0000 </r>
       <r>   -2.3169    1.0000 </r>
       <r>   -2.2585    1.0000 </r>
       <r>   -2.2409    1.0000 </r>
       <r>   -2.2404    1.0000 </r>
       <r>   -2.2403    1.0000 </r>
       <r>   -2.2400    1.0000 </r>
       <r>   -2.2094    1.0000 </r>
       <r>   -2.1727    1.0000 </r>
       <r>   -2.1435    1.0000 </r>
       <r>   -2.1272    1.0000 </r>
       <r>   -2.0885    1.0000 </r>
       <r>   -2.0881    1.0000 </r>
       <r>   -2.0880    1.0000 </r>
       <r>   -2.0856    1.0000 </r>
       <r>   -2.0584    1.0000 </r>
       <r>   -2.0563    1.0000 </r>
       <r>   -2.0544    1.0000 </r>
       <r>   -2.0540    1.0000 </r>
       <r>   -2.0156    1.0000 </r>
       <r>   -2.0123    1.0000 </r>
       <r>   -2.0076    1.0000 </r>
       <r>   -2.0002    1.0000 </r>
       <r>   -1.9810    1.0000 </r>
       <r>   -1.9427    1.0000 </r>
       <r>   -1.9427    1.0000 </r>
       <r>   -1.9333    1.0000 </r>
       <r>   -1.9333    1.0000 </r>
       <r>   -1.8962    1.0000 </r>
       <r>   -1.8696    1.0000 </r>
       <r>   -1.8678    1.0000 </r>
       <r>   -1.8664    1.0000 </r>
       <r>   -1.8650    1.0000 </r>
       <r>   -1.8235    1.0000 </r>
       <r>   -1.8227    1.0000 </r>
       <r>   -1.8204    1.0000 </r>
       <r>   -1.8172    1.0000 </r>
       <r>   -1.8161    1.0000 </r>
       <r>   -1.8146    1.0000 </r>
       <r>   -1.7806    1.0000 </r>
       <r>   -1.7765    1.0000 </r>
       <r>   -1.7761    1.0000 </r>
       <r>   -1.7759    1.0000 </r>
       <r>   -1.7755    1.0000 </r>
       <r>   -1.7750    1.0000 </r>
       <r>   -1.7747    1.0000 </r>
       <r>   -1.7732    1.0000 </r>
       <r>   -1.7629    1.0000 </r>
       <r>   -1.7128    1.0000 </r>
       <r>   -1.7056    1.0000 </r>
       <r>   -1.6987    1.0000 </r>
       <r>   -1.6926    1.0000 </r>
       <r>   -1.6576    1.0000 </r>
       <r>   -1.6471    1.0000 </r>
       <r>   -1.6451    1.0000 </r>
       <r>   -1.6451    1.0000 </r>
       <r>   -1.6449    1.0000 </r>
       <r>   -1.6448    1.0000 </r>
       <r>   -1.6345    1.0000 </r>
       <r>   -1.6153    1.0000 </r>
       <r>   -1.6115    1.0000 </r>
       <r>   -1.6052    1.0000 </r>
       <r>   -1.6034    1.0000 </r>
       <r>   -1.5821    1.0000 </r>
       <r>   -1.5797    1.0000 </r>
       <r>   -1.5793    1.0000 </r>
       <r>   -1.5650    1.0000 </r>
       <r>   -1.5645    1.0000 </r>
       <r>   -1.5564    1.0000 </r>
       <r>   -1.5531    1.0000 </r>
       <r>   -1.5502    1.0000 </r>
       <r>   -1.4770    1.0000 </r>
       <r>   -1.4491    1.0000 </r>
       <r>   -1.4406    1.0000 </r>
       <r>   -1.4318    1.0000 </r>
       <r>   -1.3497    1.0000 </r>
       <r>   -1.3473    1.0000 </r>
       <r>   -1.3361    1.0000 </r>
       <r>   -1.3356    1.0000 </r>
       <r>   -1.2300    1.0000 </r>
       <r>   -1.2281    1.0000 </r>
       <r>   -1.2264    1.0000 </r>
       <r>   -1.2235    1.0000 </r>
       <r>   -1.2148    1.0000 </r>
       <r>   -1.2131    1.0000 </r>
       <r>   -1.2105    1.0000 </r>
       <r>   -1.2091    1.0000 </r>
       <r>   -1.1852    1.0000 </r>
       <r>   -1.0913    1.0000 </r>
       <r>   -1.0912    1.0000 </r>
       <r>   -1.0862    1.0000 </r>
       <r>   -1.0862    1.0000 </r>
       <r>   -1.0497    1.0000 </r>
       <r>   -1.0072    1.0000 </r>
       <r>   -0.9824    1.0000 </r>
       <r>   -0.9295    1.0000 </r>
       <r>   -0.8733    1.0000 </r>
       <r>   -0.8655    1.0000 </r>
       <r>   -0.8452    1.0000 </r>
       <r>   -0.7777    1.0000 </r>
       <r>   -0.7758    1.0000 </r>
       <r>   -0.7482    1.0000 </r>
       <r>   -0.7211    1.0000 </r>
       <r>   -0.7165    1.0000 </r>
       <r>   -0.7097    1.0000 </r>
       <r>   -0.7068    1.0000 </r>
       <r>   -0.7025    1.0000 </r>
       <r>   -0.6760    1.0000 </r>
       <r>   -0.6756    1.0000 </r>
       <r>   -0.6747    1.0000 </r>
       <r>   -0.6719    1.0000 </r>
       <r>   -0.6545    1.0000 </r>
       <r>   -0.6541    1.0000 </r>
       <r>   -0.6526    1.0000 </r>
       <r>   -0.6222    1.0000 </r>
       <r>   -0.5171    1.0000 </r>
       <r>   -0.5166    1.0000 </r>
       <r>   -0.5150    1.0000 </r>
       <r>   -0.5121    1.0000 </r>
       <r>   -0.4615    1.0000 </r>
       <r>   -0.4597    1.0000 </r>
       <r>   -0.4578    1.0000 </r>
       <r>   -0.4569    1.0000 </r>
       <r>   -0.4551    1.0000 </r>
       <r>   -0.4533    1.0000 </r>
       <r>   -0.4519    1.0000 </r>
       <r>   -0.4493    1.0000 </r>
       <r>   -0.4260    1.0000 </r>
       <r>   -0.3995    1.0000 </r>
       <r>   -0.3834    1.0000 </r>
       <r>   -0.3834    1.0000 </r>
       <r>   -0.3763    1.0000 </r>
       <r>   -0.3683    1.0000 </r>
       <r>   -0.3564    1.0000 </r>
       <r>   -0.3525    1.0000 </r>
       <r>   -0.3490    1.0000 </r>
       <r>   -0.3456    1.0000 </r>
       <r>   -0.3405    1.0000 </r>
       <r>   -0.3398    1.0000 </r>
       <r>   -0.3268    1.0000 </r>
       <r>   -0.3263    1.0000 </r>
       <r>   -0.3261    1.0000 </r>
       <r>   -0.3257    1.0000 </r>
       <r>   -0.2758    1.0000 </r>
       <r>   -0.2255    1.0000 </r>
       <r>   -0.2250    1.0000 </r>
       <r>   -0.0988    1.0000 </r>
       <r>   -0.0450    1.0000 </r>
       <r>    0.0268    1.0000 </r>
       <r>    0.0692    1.0000 </r>
       <r>    0.1214    1.0000 </r>
       <r>    0.1582    1.0000 </r>
       <r>    0.1587    1.0000 </r>
       <r>    0.1762    1.0000 </r>
       <r>    0.1872    1.0000 </r>
       <r>    0.2028    1.0000 </r>
       <r>    0.2128    1.0000 </r>
       <r>    0.2143    1.0000 </r>
       <r>    0.2174    1.0000 </r>
       <r>    0.2221    1.0000 </r>
       <r>    0.2397    1.0000 </r>
       <r>    0.2436    1.0000 </r>
       <r>    0.2933    1.0000 </r>
       <r>    0.3186    1.0000 </r>
       <r>    0.3216    1.0000 </r>
       <r>    0.3433    1.0000 </r>
       <r>    0.3444    1.0000 </r>
       <r>    0.3456    1.0000 </r>
       <r>    0.3498    1.0000 </r>
       <r>    0.3702    1.0000 </r>
       <r>    0.3787    1.0000 </r>
       <r>    0.3969    1.0000 </r>
       <r>    0.4555    1.0000 </r>
       <r>    0.4606    1.0000 </r>
       <r>    0.4632    1.0000 </r>
       <r>    0.4653    1.0000 </r>
       <r>    0.4663    1.0000 </r>
       <r>    0.4765    1.0000 </r>
       <r>    0.4772    1.0000 </r>
       <r>    0.4775    1.0000 </r>
       <r>    0.5557    1.0000 </r>
       <r>    0.5600    1.0000 </r>
       <r>    0.5659    1.0000 </r>
       <r>    0.5820    1.0000 </r>
       <r>    0.5884    1.0000 </r>
       <r>    0.6939    1.0000 </r>
       <r>    0.6950    1.0000 </r>
       <r>    0.7027    1.0000 </r>
       <r>    0.7071    1.0000 </r>
       <r>    0.7348    1.0000 </r>
       <r>    0.8095    1.0000 </r>
       <r>    0.8109    1.0000 </r>
       <r>    0.8419    1.0000 </r>
       <r>    0.8560    1.0000 </r>
       <r>    0.8580    1.0000 </r>
       <r>    0.8827    1.0000 </r>
       <r>    0.8846    1.0000 </r>
       <r>    0.8885    1.0000 </r>
       <r>    0.9156    1.0000 </r>
       <r>    0.9940    1.0000 </r>
       <r>    0.9980    1.0000 </r>
       <r>    0.9988    1.0000 </r>
       <r>    1.0025    1.0000 </r>
       <r>    1.0240    1.0000 </r>
       <r>    1.0341    1.0000 </r>
       <r>    1.0893    1.0000 </r>
       <r>    1.1060    1.0000 </r>
       <r>    1.2088    1.0000 </r>
       <r>    1.2099    1.0000 </r>
       <r>    1.2245    1.0000 </r>
       <r>    1.2337    1.0000 </r>
       <r>    1.2482    1.0000 </r>
       <r>    1.2507    1.0000 </r>
       <r>    1.2549    1.0000 </r>
       <r>    1.2644    1.0000 </r>
       <r>    1.3173    1.0000 </r>
       <r>    1.3187    1.0000 </r>
       <r>    1.3667    1.0000 </r>
       <r>    1.3673    1.0000 </r>
       <r>    1.4028    1.0000 </r>
       <r>    1.4061    1.0000 </r>
       <r>    1.4390    1.0000 </r>
       <r>    1.4399    1.0000 </r>
       <r>    1.5035    1.0000 </r>
       <r>    1.5058    1.0000 </r>
       <r>    1.5404    1.0000 </r>
       <r>    1.5851    1.0000 </r>
       <r>    1.5905    1.0000 </r>
       <r>    1.5921    1.0000 </r>
       <r>    1.7661    1.0000 </r>
       <r>    1.7705    1.0000 </r>
       <r>    1.8480    1.0000 </r>
       <r>    1.8562    1.0000 </r>
       <r>    1.8628    1.0000 </r>
       <r>    1.8638    1.0000 </r>
       <r>    1.9197    1.0000 </r>
       <r>    1.9262    1.0000 </r>
       <r>    1.9536    1.0000 </r>
       <r>    1.9583    1.0000 </r>
       <r>    1.9811    1.0000 </r>
       <r>    1.9816    1.0000 </r>
       <r>    2.0255    1.0000 </r>
       <r>    2.0256    1.0000 </r>
       <r>    2.0661    1.0000 </r>
       <r>    2.0701    1.0000 </r>
       <r>    2.0953    1.0000 </r>
       <r>    2.0962    1.0000 </r>
       <r>    2.2249    1.0000 </r>
       <r>    2.2310    1.0000 </r>
       <r>    2.4003    1.0000 </r>
       <r>    2.4006    1.0000 </r>
       <r>    2.4045    1.0000 </r>
       <r>    2.4062    1.0000 </r>
       <r>    5.5534    0.0000 </r>
       <r>    6.6711    0.0000 </r>
       <r>    6.6902    0.0000 </r>
       <r>    6.6930    0.0000 </r>
       <r>    6.7217    0.0000 </r>
       <r>    6.8891    0.0000 </r>
       <r>    6.9311    0.0000 </r>
       <r>    7.0004    0.0000 </r>
       <r>    7.0118    0.0000 </r>
       <r>    7.0877    0.0000 </r>
       <r>    7.0970    0.0000 </r>
       <r>    7.1635    0.0000 </r>
       <r>    7.2132    0.0000 </r>
       <r>    7.2144    0.0000 </r>
       <r>    7.2283    0.0000 </r>
       <r>    7.2564    0.0000 </r>
       <r>    7.2901    0.0000 </r>
       <r>    7.2988    0.0000 </r>
       <r>    7.3082    0.0000 </r>
       <r>    7.3277    0.0000 </r>
       <r>    7.3329    0.0000 </r>
       <r>    7.3422    0.0000 </r>
       <r>    7.3448    0.0000 </r>
       <r>    7.3522    0.0000 </r>
       <r>    7.3627    0.0000 </r>
       <r>    7.3636    0.0000 </r>
       <r>    7.3861    0.0000 </r>
       <r>    7.3877    0.0000 </r>
       <r>    7.3949    0.0000 </r>
       <r>    7.3965    0.0000 </r>
       <r>    7.4303    0.0000 </r>
       <r>    7.4313    0.0000 </r>
       <r>    7.4672    0.0000 </r>
       <r>    7.7052    0.0000 </r>
       <r>    7.7418    0.0000 </r>
       <r>    7.7450    0.0000 </r>
       <r>    7.7491    0.0000 </r>
       <r>    7.7998    0.0000 </r>
       <r>    7.8368    0.0000 </r>
       <r>    7.8604    0.0000 </r>
       <r>    7.8765    0.0000 </r>
       <r>    7.8897    0.0000 </r>
       <r>    7.9096    0.0000 </r>
       <r>    7.9186    0.0000 </r>
       <r>    7.9230    0.0000 </r>
       <r>    7.9599    0.0000 </r>
       <r>    8.0052    0.0000 </r>
       <r>    8.0809    0.0000 </r>
       <r>    8.1252    0.0000 </r>
       <r>    8.1677    0.0000 </r>
       <r>    8.1730    0.0000 </r>
       <r>    8.1749    0.0000 </r>
       <r>    8.1888    0.0000 </r>
       <r>    8.2178    0.0000 </r>
       <r>    8.2226    0.0000 </r>
       <r>    8.2254    0.0000 </r>
       <r>    8.2440    0.0000 </r>
       <r>    8.2557    0.0000 </r>
       <r>    8.2718    0.0000 </r>
       <r>    8.2890    0.0000 </r>
       <r>    8.4375    0.0000 </r>
       <r>    8.5709    0.0000 </r>
       <r>    8.5822    0.0000 </r>
       <r>    8.5995    0.0000 </r>
       <r>    8.6384    0.0000 </r>
       <r>    8.6415    0.0000 </r>
       <r>    8.6506    0.0000 </r>
       <r>    8.6674    0.0000 </r>
       <r>    8.6754    0.0000 </r>
       <r>    8.6847    0.0000 </r>
       <r>    8.6882    0.0000 </r>
       <r>    8.6901    0.0000 </r>
       <r>    8.7330    0.0000 </r>
       <r>    8.9038    0.0000 </r>
       <r>    8.9777    0.0000 </r>
       <r>    9.0018    0.0000 </r>
       <r>    9.0176    0.0000 </r>
       <r>    9.0409    0.0000 </r>
       <r>    9.0838    0.0000 </r>
       <r>    9.1267    0.0000 </r>
       <r>    9.2291    0.0000 </r>
       <r>    9.2511    0.0000 </r>
       <r>    9.2652    0.0000 </r>
       <r>    9.2678    0.0000 </r>
       <r>    9.2806    0.0000 </r>
       <r>    9.2858    0.0000 </r>
       <r>    9.2969    0.0000 </r>
       <r>    9.3006    0.0000 </r>
       <r>    9.3046    0.0000 </r>
       <r>    9.3219    0.0000 </r>
       <r>    9.3262    0.0000 </r>
       <r>    9.3290    0.0000 </r>
       <r>    9.3325    0.0000 </r>
       <r>    9.3972    0.0000 </r>
       <r>    9.4950    0.0000 </r>
       <r>    9.5287    0.0000 </r>
       <r>    9.6515    0.0000 </r>
       <r>    9.6840    0.0000 </r>
       <r>    9.6873    0.0000 </r>
       <r>    9.6897    0.0000 </r>
       <r>    9.6920    0.0000 </r>
       <r>    9.7478    0.0000 </r>
       <r>    9.9097    0.0000 </r>
       <r>   10.0797    0.0000 </r>
       <r>   10.0956    0.0000 </r>
       <r>   10.0975    0.0000 </r>
       <r>   10.1092    0.0000 </r>
       <r>   10.1504    0.0000 </r>
       <r>   10.1719    0.0000 </r>
       <r>   10.1774    0.0000 </r>
       <r>   10.1983    0.0000 </r>
       <r>   10.1991    0.0000 </r>
       <r>   10.2326    0.0000 </r>
       <r>   10.2415    0.0000 </r>
       <r>   10.2841    0.0000 </r>
       <r>   10.3118    0.0000 </r>
       <r>   10.3195    0.0000 </r>
       <r>   10.3783    0.0000 </r>
       <r>   10.3823    0.0000 </r>
       <r>   10.3906    0.0000 </r>
       <r>   10.3950    0.0000 </r>
       <r>   10.4232    0.0000 </r>
       <r>   10.4397    0.0000 </r>
       <r>   10.4475    0.0000 </r>
       <r>   10.4757    0.0000 </r>
       <r>   10.5168    0.0000 </r>
       <r>   10.5399    0.0000 </r>
       <r>   10.6310    0.0000 </r>
       <r>   10.6762    0.0000 </r>
       <r>   10.7223    0.0000 </r>
       <r>   10.7230    0.0000 </r>
       <r>   10.7270    0.0000 </r>
       <r>   10.7352    0.0000 </r>
       <r>   10.7518    0.0000 </r>
       <r>   10.7616    0.0000 </r>
       <r>   10.7699    0.0000 </r>
       <r>   10.7895    0.0000 </r>
       <r>   10.7918    0.0000 </r>
       <r>   10.7952    0.0000 </r>
       <r>   10.8171    0.0000 </r>
       <r>   10.8186    0.0000 </r>
       <r>   11.2465    0.0000 </r>
       <r>   11.2644    0.0000 </r>
       <r>   11.5460    0.0000 </r>
       <r>   11.5913    0.0000 </r>
       <r>   11.6288    0.0000 </r>
       <r>   11.6714    0.0000 </r>
       <r>   11.7409    0.0000 </r>
       <r>   11.7426    0.0000 </r>
       <r>   11.7901    0.0000 </r>
       <r>   11.8162    0.0000 </r>
       <r>   12.3888    0.0000 </r>
      </set>
      <set comment="kpoint 5">
       <r>  -17.1662    1.0000 </r>
       <r>  -15.6764    1.0000 </r>
       <r>  -15.6761    1.0000 </r>
       <r>  -15.5680    1.0000 </r>
       <r>  -15.3954    1.0000 </r>
       <r>  -15.3095    1.0000 </r>
       <r>  -15.1584    1.0000 </r>
       <r>  -15.1568    1.0000 </r>
       <r>  -15.1562    1.0000 </r>
       <r>  -15.0703    1.0000 </r>
       <r>  -14.8862    1.0000 </r>
       <r>  -14.8648    1.0000 </r>
       <r>  -14.8636    1.0000 </r>
       <r>  -14.8457    1.0000 </r>
       <r>  -14.8383    1.0000 </r>
       <r>  -14.8370    1.0000 </r>
       <r>  -14.8352    1.0000 </r>
       <r>  -14.8340    1.0000 </r>
       <r>  -14.8269    1.0000 </r>
       <r>  -14.7640    1.0000 </r>
       <r>  -14.7625    1.0000 </r>
       <r>  -14.7436    1.0000 </r>
       <r>  -14.7036    1.0000 </r>
       <r>  -14.7031    1.0000 </r>
       <r>  -14.6440    1.0000 </r>
       <r>  -14.6340    1.0000 </r>
       <r>  -14.6333    1.0000 </r>
       <r>  -14.6197    1.0000 </r>
       <r>  -14.6187    1.0000 </r>
       <r>  -14.6127    1.0000 </r>
       <r>  -14.5464    1.0000 </r>
       <r>  -14.2498    1.0000 </r>
       <r>  -14.2496    1.0000 </r>
       <r>  -14.2408    1.0000 </r>
       <r>  -13.9115    1.0000 </r>
       <r>  -13.9112    1.0000 </r>
       <r>  -13.8505    1.0000 </r>
       <r>  -13.8478    1.0000 </r>
       <r>  -13.8430    1.0000 </r>
       <r>  -13.8427    1.0000 </r>
       <r>  -13.8387    1.0000 </r>
       <r>  -13.8384    1.0000 </r>
       <r>  -13.8371    1.0000 </r>
       <r>  -13.8111    1.0000 </r>
       <r>  -13.7956    1.0000 </r>
       <r>  -13.7952    1.0000 </r>
       <r>  -13.7841    1.0000 </r>
       <r>  -13.7772    1.0000 </r>
       <r>  -13.7768    1.0000 </r>
       <r>  -13.7503    1.0000 </r>
       <r>  -13.7493    1.0000 </r>
       <r>  -13.7492    1.0000 </r>
       <r>  -13.6395    1.0000 </r>
       <r>  -13.6379    1.0000 </r>
       <r>  -13.6379    1.0000 </r>
       <r>  -13.6363    1.0000 </r>
       <r>  -13.6361    1.0000 </r>
       <r>  -13.6356    1.0000 </r>
       <r>  -13.3982    1.0000 </r>
       <r>  -13.3949    1.0000 </r>
       <r>  -13.3944    1.0000 </r>
       <r>  -13.3939    1.0000 </r>
       <r>  -13.3926    1.0000 </r>
       <r>  -13.3915    1.0000 </r>
       <r>  -13.3710    1.0000 </r>
       <r>  -13.3695    1.0000 </r>
       <r>  -13.3569    1.0000 </r>
       <r>  -13.3503    1.0000 </r>
       <r>  -13.3497    1.0000 </r>
       <r>  -13.3487    1.0000 </r>
       <r>  -13.2601    1.0000 </r>
       <r>  -13.2598    1.0000 </r>
       <r>  -13.2052    1.0000 </r>
       <r>  -13.2043    1.0000 </r>
       <r>  -13.2040    1.0000 </r>
       <r>  -13.2039    1.0000 </r>
       <r>  -13.2038    1.0000 </r>
       <r>  -13.2031    1.0000 </r>
       <r>  -12.8862    1.0000 </r>
       <r>  -12.8555    1.0000 </r>
       <r>  -12.8554    1.0000 </r>
       <r>  -12.7715    1.0000 </r>
       <r>  -12.6718    1.0000 </r>
       <r>  -12.5886    1.0000 </r>
       <r>  -12.5885    1.0000 </r>
       <r>  -12.5880    1.0000 </r>
       <r>  -12.5326    1.0000 </r>
       <r>  -12.5323    1.0000 </r>
       <r>  -12.4967    1.0000 </r>
       <r>  -12.4966    1.0000 </r>
       <r>  -12.4676    1.0000 </r>
       <r>  -12.3489    1.0000 </r>
       <r>  -12.3345    1.0000 </r>
       <r>  -12.3311    1.0000 </r>
       <r>  -12.3208    1.0000 </r>
       <r>  -12.3196    1.0000 </r>
       <r>  -12.3153    1.0000 </r>
       <r>  -12.3126    1.0000 </r>
       <r>  -12.3113    1.0000 </r>
       <r>  -12.3045    1.0000 </r>
       <r>  -12.3033    1.0000 </r>
       <r>  -12.2953    1.0000 </r>
       <r>  -12.2940    1.0000 </r>
       <r>  -12.2917    1.0000 </r>
       <r>  -12.2899    1.0000 </r>
       <r>  -12.2887    1.0000 </r>
       <r>  -12.2867    1.0000 </r>
       <r>  -12.2771    1.0000 </r>
       <r>  -12.2762    1.0000 </r>
       <r>  -12.2717    1.0000 </r>
       <r>  -12.2699    1.0000 </r>
       <r>  -12.2682    1.0000 </r>
       <r>  -12.2656    1.0000 </r>
       <r>  -12.2549    1.0000 </r>
       <r>  -12.2538    1.0000 </r>
       <r>  -12.1926    1.0000 </r>
       <r>  -12.1920    1.0000 </r>
       <r>  -12.1916    1.0000 </r>
       <r>  -12.1842    1.0000 </r>
       <r>  -12.1836    1.0000 </r>
       <r>  -12.1830    1.0000 </r>
       <r>  -12.1582    1.0000 </r>
       <r>  -12.1581    1.0000 </r>
       <r>  -12.1541    1.0000 </r>
       <r>  -12.1538    1.0000 </r>
       <r>  -12.1517    1.0000 </r>
       <r>  -12.1516    1.0000 </r>
       <r>  -12.1442    1.0000 </r>
       <r>  -12.1441    1.0000 </r>
       <r>  -12.1426    1.0000 </r>
       <r>  -12.1419    1.0000 </r>
       <r>  -12.1396    1.0000 </r>
       <r>  -12.1395    1.0000 </r>
       <r>  -12.0618    1.0000 </r>
       <r>  -12.0617    1.0000 </r>
       <r>  -12.0616    1.0000 </r>
       <r>  -11.9604    1.0000 </r>
       <r>  -11.9604    1.0000 </r>
       <r>  -11.5942    1.0000 </r>
       <r>  -11.5941    1.0000 </r>
       <r>  -11.5939    1.0000 </r>
       <r>  -11.5938    1.0000 </r>
       <r>  -11.4688    1.0000 </r>
       <r>  -11.4688    1.0000 </r>
       <r>   -8.1766    1.0000 </r>
       <r>   -7.2989    1.0000 </r>
       <r>   -7.2988    1.0000 </r>
       <r>   -6.5941    1.0000 </r>
       <r>   -6.5940    1.0000 </r>
       <r>   -6.5334    1.0000 </r>
       <r>   -6.5258    1.0000 </r>
       <r>   -6.5254    1.0000 </r>
       <r>   -6.5243    1.0000 </r>
       <r>   -6.5206    1.0000 </r>
       <r>   -6.5201    1.0000 </r>
       <r>   -6.5021    1.0000 </r>
       <r>   -6.4691    1.0000 </r>
       <r>   -6.3900    1.0000 </r>
       <r>   -6.3899    1.0000 </r>
       <r>   -6.3899    1.0000 </r>
       <r>   -6.3091    1.0000 </r>
       <r>   -6.3089    1.0000 </r>
       <r>   -6.0935    1.0000 </r>
       <r>   -6.0934    1.0000 </r>
       <r>   -6.0273    1.0000 </r>
       <r>   -6.0269    1.0000 </r>
       <r>   -6.0046    1.0000 </r>
       <r>   -5.9866    1.0000 </r>
       <r>   -5.9066    1.0000 </r>
       <r>   -5.9066    1.0000 </r>
       <r>   -5.7165    1.0000 </r>
       <r>   -5.7158    1.0000 </r>
       <r>   -5.7104    1.0000 </r>
       <r>   -5.7097    1.0000 </r>
       <r>   -5.7083    1.0000 </r>
       <r>   -5.7074    1.0000 </r>
       <r>   -5.7020    1.0000 </r>
       <r>   -5.7011    1.0000 </r>
       <r>   -5.6937    1.0000 </r>
       <r>   -5.6890    1.0000 </r>
       <r>   -5.6881    1.0000 </r>
       <r>   -5.6848    1.0000 </r>
       <r>   -5.6842    1.0000 </r>
       <r>   -5.6834    1.0000 </r>
       <r>   -5.6782    1.0000 </r>
       <r>   -5.6773    1.0000 </r>
       <r>   -5.6718    1.0000 </r>
       <r>   -5.6712    1.0000 </r>
       <r>   -5.6701    1.0000 </r>
       <r>   -5.6693    1.0000 </r>
       <r>   -5.6653    1.0000 </r>
       <r>   -5.6646    1.0000 </r>
       <r>   -5.6632    1.0000 </r>
       <r>   -5.6620    1.0000 </r>
       <r>   -5.5809    1.0000 </r>
       <r>   -5.5807    1.0000 </r>
       <r>   -5.5589    1.0000 </r>
       <r>   -5.5583    1.0000 </r>
       <r>   -5.5582    1.0000 </r>
       <r>   -5.5577    1.0000 </r>
       <r>   -5.5549    1.0000 </r>
       <r>   -5.5546    1.0000 </r>
       <r>   -5.5539    1.0000 </r>
       <r>   -5.5539    1.0000 </r>
       <r>   -5.5506    1.0000 </r>
       <r>   -5.5505    1.0000 </r>
       <r>   -5.5472    1.0000 </r>
       <r>   -5.5471    1.0000 </r>
       <r>   -5.5471    1.0000 </r>
       <r>   -5.5468    1.0000 </r>
       <r>   -5.4184    1.0000 </r>
       <r>   -5.4183    1.0000 </r>
       <r>   -5.3587    1.0000 </r>
       <r>   -5.2307    1.0000 </r>
       <r>   -5.1381    1.0000 </r>
       <r>   -5.1380    1.0000 </r>
       <r>   -4.9855    1.0000 </r>
       <r>   -4.9187    1.0000 </r>
       <r>   -4.9186    1.0000 </r>
       <r>   -4.8706    1.0000 </r>
       <r>   -4.7477    1.0000 </r>
       <r>   -4.7457    1.0000 </r>
       <r>   -4.7456    1.0000 </r>
       <r>   -4.7437    1.0000 </r>
       <r>   -4.6191    1.0000 </r>
       <r>   -4.6191    1.0000 </r>
       <r>   -4.4810    1.0000 </r>
       <r>   -4.4794    1.0000 </r>
       <r>   -4.4780    1.0000 </r>
       <r>   -4.4765    1.0000 </r>
       <r>   -4.4760    1.0000 </r>
       <r>   -4.4749    1.0000 </r>
       <r>   -4.4725    1.0000 </r>
       <r>   -4.4716    1.0000 </r>
       <r>   -4.4699    1.0000 </r>
       <r>   -4.4688    1.0000 </r>
       <r>   -4.4681    1.0000 </r>
       <r>   -4.4664    1.0000 </r>
       <r>   -4.3392    1.0000 </r>
       <r>   -4.3390    1.0000 </r>
       <r>   -4.3390    1.0000 </r>
       <r>   -4.3389    1.0000 </r>
       <r>   -4.3388    1.0000 </r>
       <r>   -4.3386    1.0000 </r>
       <r>   -4.0738    1.0000 </r>
       <r>   -4.0360    1.0000 </r>
       <r>   -3.9236    1.0000 </r>
       <r>   -3.9234    1.0000 </r>
       <r>   -3.6231    1.0000 </r>
       <r>   -3.6230    1.0000 </r>
       <r>   -3.5974    1.0000 </r>
       <r>   -3.5858    1.0000 </r>
       <r>   -3.5588    1.0000 </r>
       <r>   -3.5153    1.0000 </r>
       <r>   -3.5152    1.0000 </r>
       <r>   -3.4229    1.0000 </r>
       <r>   -3.3536    1.0000 </r>
       <r>   -3.3181    1.0000 </r>
       <r>   -3.3179    1.0000 </r>
       <r>   -3.3030    1.0000 </r>
       <r>   -3.3027    1.0000 </r>
       <r>   -3.2200    1.0000 </r>
       <r>   -3.2164    1.0000 </r>
       <r>   -3.2157    1.0000 </r>
       <r>   -3.1819    1.0000 </r>
       <r>   -3.1728    1.0000 </r>
       <r>   -3.1727    1.0000 </r>
       <r>   -3.1013    1.0000 </r>
       <r>   -3.0984    1.0000 </r>
       <r>   -3.0978    1.0000 </r>
       <r>   -3.0972    1.0000 </r>
       <r>   -3.0964    1.0000 </r>
       <r>   -3.0962    1.0000 </r>
       <r>   -3.0961    1.0000 </r>
       <r>   -3.0959    1.0000 </r>
       <r>   -3.0958    1.0000 </r>
       <r>   -3.0951    1.0000 </r>
       <r>   -3.0950    1.0000 </r>
       <r>   -3.0914    1.0000 </r>
       <r>   -3.0187    1.0000 </r>
       <r>   -3.0176    1.0000 </r>
       <r>   -2.9689    1.0000 </r>
       <r>   -2.9689    1.0000 </r>
       <r>   -2.9688    1.0000 </r>
       <r>   -2.9688    1.0000 </r>
       <r>   -2.9687    1.0000 </r>
       <r>   -2.9687    1.0000 </r>
       <r>   -2.9657    1.0000 </r>
       <r>   -2.9279    1.0000 </r>
       <r>   -2.9255    1.0000 </r>
       <r>   -2.9224    1.0000 </r>
       <r>   -2.9209    1.0000 </r>
       <r>   -2.9192    1.0000 </r>
       <r>   -2.9183    1.0000 </r>
       <r>   -2.9135    1.0000 </r>
       <r>   -2.9125    1.0000 </r>
       <r>   -2.9091    1.0000 </r>
       <r>   -2.9042    1.0000 </r>
       <r>   -2.9028    1.0000 </r>
       <r>   -2.8971    1.0000 </r>
       <r>   -2.8938    1.0000 </r>
       <r>   -2.8926    1.0000 </r>
       <r>   -2.8877    1.0000 </r>
       <r>   -2.8863    1.0000 </r>
       <r>   -2.8831    1.0000 </r>
       <r>   -2.8810    1.0000 </r>
       <r>   -2.8808    1.0000 </r>
       <r>   -2.8790    1.0000 </r>
       <r>   -2.8762    1.0000 </r>
       <r>   -2.8740    1.0000 </r>
       <r>   -2.8739    1.0000 </r>
       <r>   -2.8696    1.0000 </r>
       <r>   -2.8574    1.0000 </r>
       <r>   -2.8298    1.0000 </r>
       <r>   -2.8289    1.0000 </r>
       <r>   -2.8037    1.0000 </r>
       <r>   -2.8025    1.0000 </r>
       <r>   -2.7927    1.0000 </r>
       <r>   -2.7722    1.0000 </r>
       <r>   -2.7720    1.0000 </r>
       <r>   -2.7718    1.0000 </r>
       <r>   -2.7708    1.0000 </r>
       <r>   -2.7676    1.0000 </r>
       <r>   -2.7675    1.0000 </r>
       <r>   -2.7626    1.0000 </r>
       <r>   -2.7624    1.0000 </r>
       <r>   -2.7596    1.0000 </r>
       <r>   -2.7594    1.0000 </r>
       <r>   -2.7587    1.0000 </r>
       <r>   -2.7587    1.0000 </r>
       <r>   -2.3794    1.0000 </r>
       <r>   -2.2336    1.0000 </r>
       <r>   -2.2335    1.0000 </r>
       <r>   -2.2124    1.0000 </r>
       <r>   -2.1184    1.0000 </r>
       <r>   -2.0969    1.0000 </r>
       <r>   -2.0898    1.0000 </r>
       <r>   -2.0897    1.0000 </r>
       <r>   -1.9793    1.0000 </r>
       <r>   -1.9476    1.0000 </r>
       <r>   -1.9471    1.0000 </r>
       <r>   -1.9457    1.0000 </r>
       <r>   -1.9457    1.0000 </r>
       <r>   -1.8931    1.0000 </r>
       <r>   -1.7160    1.0000 </r>
       <r>   -1.7144    1.0000 </r>
       <r>   -1.7136    1.0000 </r>
       <r>   -1.7107    1.0000 </r>
       <r>   -1.7098    1.0000 </r>
       <r>   -1.7086    1.0000 </r>
       <r>   -1.6817    1.0000 </r>
       <r>   -1.6812    1.0000 </r>
       <r>   -1.6692    1.0000 </r>
       <r>   -1.6615    1.0000 </r>
       <r>   -1.6344    1.0000 </r>
       <r>   -1.6338    1.0000 </r>
       <r>   -1.5937    1.0000 </r>
       <r>   -1.5930    1.0000 </r>
       <r>   -1.5807    1.0000 </r>
       <r>   -1.5806    1.0000 </r>
       <r>   -1.5806    1.0000 </r>
       <r>   -1.5722    1.0000 </r>
       <r>   -1.5721    1.0000 </r>
       <r>   -1.5689    1.0000 </r>
       <r>   -1.5475    1.0000 </r>
       <r>   -1.5218    1.0000 </r>
       <r>   -1.5218    1.0000 </r>
       <r>   -1.5044    1.0000 </r>
       <r>   -1.5022    1.0000 </r>
       <r>   -1.5014    1.0000 </r>
       <r>   -1.5010    1.0000 </r>
       <r>   -1.5000    1.0000 </r>
       <r>   -1.4983    1.0000 </r>
       <r>   -1.4973    1.0000 </r>
       <r>   -1.4910    1.0000 </r>
       <r>   -1.4907    1.0000 </r>
       <r>   -1.4904    1.0000 </r>
       <r>   -1.4903    1.0000 </r>
       <r>   -1.4897    1.0000 </r>
       <r>   -1.4877    1.0000 </r>
       <r>   -1.4866    1.0000 </r>
       <r>   -1.4837    1.0000 </r>
       <r>   -1.4812    1.0000 </r>
       <r>   -1.4457    1.0000 </r>
       <r>   -1.4447    1.0000 </r>
       <r>   -1.4303    1.0000 </r>
       <r>   -1.4298    1.0000 </r>
       <r>   -1.4294    1.0000 </r>
       <r>   -1.3877    1.0000 </r>
       <r>   -1.3781    1.0000 </r>
       <r>   -1.3780    1.0000 </r>
       <r>   -1.3750    1.0000 </r>
       <r>   -1.3715    1.0000 </r>
       <r>   -1.3713    1.0000 </r>
       <r>   -1.3627    1.0000 </r>
       <r>   -1.3627    1.0000 </r>
       <r>   -1.3617    1.0000 </r>
       <r>   -1.3595    1.0000 </r>
       <r>   -1.3594    1.0000 </r>
       <r>   -1.3593    1.0000 </r>
       <r>   -1.2298    1.0000 </r>
       <r>   -1.2219    1.0000 </r>
       <r>   -1.2215    1.0000 </r>
       <r>   -1.1548    1.0000 </r>
       <r>   -1.1522    1.0000 </r>
       <r>   -1.1512    1.0000 </r>
       <r>   -1.1511    1.0000 </r>
       <r>   -1.1501    1.0000 </r>
       <r>   -1.1496    1.0000 </r>
       <r>   -1.1479    1.0000 </r>
       <r>   -1.1477    1.0000 </r>
       <r>   -1.1466    1.0000 </r>
       <r>   -1.1464    1.0000 </r>
       <r>   -1.1456    1.0000 </r>
       <r>   -1.1429    1.0000 </r>
       <r>   -1.1234    1.0000 </r>
       <r>   -1.1212    1.0000 </r>
       <r>   -1.1206    1.0000 </r>
       <r>   -1.0682    1.0000 </r>
       <r>   -1.0195    1.0000 </r>
       <r>   -1.0195    1.0000 </r>
       <r>   -1.0193    1.0000 </r>
       <r>   -1.0191    1.0000 </r>
       <r>   -1.0189    1.0000 </r>
       <r>   -1.0189    1.0000 </r>
       <r>   -1.0029    1.0000 </r>
       <r>   -1.0024    1.0000 </r>
       <r>   -0.9883    1.0000 </r>
       <r>   -0.8635    1.0000 </r>
       <r>   -0.8609    1.0000 </r>
       <r>   -0.8599    1.0000 </r>
       <r>   -0.8530    1.0000 </r>
       <r>   -0.8509    1.0000 </r>
       <r>   -0.8496    1.0000 </r>
       <r>   -0.8431    1.0000 </r>
       <r>   -0.8421    1.0000 </r>
       <r>   -0.8348    1.0000 </r>
       <r>   -0.8340    1.0000 </r>
       <r>   -0.8315    1.0000 </r>
       <r>   -0.8231    1.0000 </r>
       <r>   -0.7515    1.0000 </r>
       <r>   -0.7459    1.0000 </r>
       <r>   -0.7451    1.0000 </r>
       <r>   -0.7439    1.0000 </r>
       <r>   -0.7433    1.0000 </r>
       <r>   -0.7413    1.0000 </r>
       <r>   -0.7227    1.0000 </r>
       <r>   -0.7211    1.0000 </r>
       <r>   -0.7209    1.0000 </r>
       <r>   -0.7156    1.0000 </r>
       <r>   -0.7154    1.0000 </r>
       <r>   -0.7128    1.0000 </r>
       <r>   -0.4350    1.0000 </r>
       <r>   -0.4346    1.0000 </r>
       <r>   -0.4000    1.0000 </r>
       <r>   -0.3400    1.0000 </r>
       <r>   -0.3348    1.0000 </r>
       <r>   -0.3344    1.0000 </r>
       <r>   -0.3338    1.0000 </r>
       <r>   -0.2556    1.0000 </r>
       <r>   -0.2555    1.0000 </r>
       <r>   -0.1343    1.0000 </r>
       <r>   -0.1260    1.0000 </r>
       <r>   -0.1258    1.0000 </r>
       <r>   -0.1222    1.0000 </r>
       <r>   -0.1220    1.0000 </r>
       <r>   -0.1207    1.0000 </r>
       <r>   -0.0870    1.0000 </r>
       <r>   -0.0868    1.0000 </r>
       <r>   -0.0386    1.0000 </r>
       <r>    0.0432    1.0000 </r>
       <r>    0.0442    1.0000 </r>
       <r>    0.1761    1.0000 </r>
       <r>    0.2130    1.0000 </r>
       <r>    0.2156    1.0000 </r>
       <r>    0.2176    1.0000 </r>
       <r>    0.2180    1.0000 </r>
       <r>    0.2201    1.0000 </r>
       <r>    0.2211    1.0000 </r>
       <r>    0.2260    1.0000 </r>
       <r>    0.2268    1.0000 </r>
       <r>    0.2331    1.0000 </r>
       <r>    0.2352    1.0000 </r>
       <r>    0.2373    1.0000 </r>
       <r>    0.2385    1.0000 </r>
       <r>    0.2405    1.0000 </r>
       <r>    0.2442    1.0000 </r>
       <r>    0.2471    1.0000 </r>
       <r>    0.3537    1.0000 </r>
       <r>    0.3552    1.0000 </r>
       <r>    0.3554    1.0000 </r>
       <r>    0.3597    1.0000 </r>
       <r>    0.3600    1.0000 </r>
       <r>    0.3604    1.0000 </r>
       <r>    0.3606    1.0000 </r>
       <r>    0.3629    1.0000 </r>
       <r>    0.4296    1.0000 </r>
       <r>    0.4369    1.0000 </r>
       <r>    0.4374    1.0000 </r>
       <r>    0.4380    1.0000 </r>
       <r>    0.4386    1.0000 </r>
       <r>    0.4410    1.0000 </r>
       <r>    0.5064    1.0000 </r>
       <r>    0.5859    1.0000 </r>
       <r>    0.6411    1.0000 </r>
       <r>    0.6415    1.0000 </r>
       <r>    0.7205    1.0000 </r>
       <r>    0.7208    1.0000 </r>
       <r>    0.7447    1.0000 </r>
       <r>    0.7448    1.0000 </r>
       <r>    0.7509    1.0000 </r>
       <r>    0.7778    1.0000 </r>
       <r>    0.7830    1.0000 </r>
       <r>    0.7833    1.0000 </r>
       <r>    0.9067    1.0000 </r>
       <r>    0.9246    1.0000 </r>
       <r>    0.9257    1.0000 </r>
       <r>    0.9263    1.0000 </r>
       <r>    0.9421    1.0000 </r>
       <r>    0.9424    1.0000 </r>
       <r>    0.9461    1.0000 </r>
       <r>    0.9471    1.0000 </r>
       <r>    0.9511    1.0000 </r>
       <r>    0.9516    1.0000 </r>
       <r>    0.9520    1.0000 </r>
       <r>    0.9628    1.0000 </r>
       <r>    0.9631    1.0000 </r>
       <r>    0.9653    1.0000 </r>
       <r>    0.9673    1.0000 </r>
       <r>    1.1307    1.0000 </r>
       <r>    1.1339    1.0000 </r>
       <r>    1.1342    1.0000 </r>
       <r>    1.1377    1.0000 </r>
       <r>    1.1810    1.0000 </r>
       <r>    1.1825    1.0000 </r>
       <r>    1.1831    1.0000 </r>
       <r>    1.2613    1.0000 </r>
       <r>    1.2614    1.0000 </r>
       <r>    1.4232    1.0000 </r>
       <r>    1.4241    1.0000 </r>
       <r>    1.5020    1.0000 </r>
       <r>    1.5464    1.0000 </r>
       <r>    1.5845    1.0000 </r>
       <r>    1.5859    1.0000 </r>
       <r>    1.6193    1.0000 </r>
       <r>    1.6197    1.0000 </r>
       <r>    1.6499    1.0000 </r>
       <r>    1.6665    1.0000 </r>
       <r>    1.6670    1.0000 </r>
       <r>    1.6681    1.0000 </r>
       <r>    1.7234    1.0000 </r>
       <r>    1.7249    1.0000 </r>
       <r>    1.7263    1.0000 </r>
       <r>    1.7691    1.0000 </r>
       <r>    1.7881    1.0000 </r>
       <r>    1.7903    1.0000 </r>
       <r>    1.7908    1.0000 </r>
       <r>    1.8046    1.0000 </r>
       <r>    1.8049    1.0000 </r>
       <r>    1.8128    1.0000 </r>
       <r>    1.8132    1.0000 </r>
       <r>    1.8230    1.0000 </r>
       <r>    1.8233    1.0000 </r>
       <r>    1.8257    1.0000 </r>
       <r>    1.8274    1.0000 </r>
       <r>    1.8934    1.0000 </r>
       <r>    1.8941    1.0000 </r>
       <r>    1.8946    1.0000 </r>
       <r>    2.0493    1.0000 </r>
       <r>    2.0494    1.0000 </r>
       <r>    2.3688    1.0000 </r>
       <r>    2.3731    1.0000 </r>
       <r>    2.3769    1.0000 </r>
       <r>    2.3788    1.0000 </r>
       <r>    2.5007    1.0000 </r>
       <r>    2.5007    1.0000 </r>
       <r>    5.5460    0.0000 </r>
       <r>    6.5234    0.0000 </r>
       <r>    6.5236    0.0000 </r>
       <r>    6.7450    0.0000 </r>
       <r>    6.7667    0.0000 </r>
       <r>    6.7842    0.0000 </r>
       <r>    6.8615    0.0000 </r>
       <r>    6.8620    0.0000 </r>
       <r>    6.8693    0.0000 </r>
       <r>    7.1395    0.0000 </r>
       <r>    7.1847    0.0000 </r>
       <r>    7.1848    0.0000 </r>
       <r>    7.1895    0.0000 </r>
       <r>    7.1895    0.0000 </r>
       <r>    7.2989    0.0000 </r>
       <r>    7.2993    0.0000 </r>
       <r>    7.3168    0.0000 </r>
       <r>    7.3170    0.0000 </r>
       <r>    7.3682    0.0000 </r>
       <r>    7.4371    0.0000 </r>
       <r>    7.4378    0.0000 </r>
       <r>    7.5253    0.0000 </r>
       <r>    7.5257    0.0000 </r>
       <r>    7.5770    0.0000 </r>
       <r>    7.5847    0.0000 </r>
       <r>    7.5855    0.0000 </r>
       <r>    7.5984    0.0000 </r>
       <r>    7.6325    0.0000 </r>
       <r>    7.6334    0.0000 </r>
       <r>    7.6407    0.0000 </r>
       <r>    7.6962    0.0000 </r>
       <r>    7.6965    0.0000 </r>
       <r>    7.7166    0.0000 </r>
       <r>    7.7222    0.0000 </r>
       <r>    7.7276    0.0000 </r>
       <r>    7.7286    0.0000 </r>
       <r>    7.7425    0.0000 </r>
       <r>    7.7431    0.0000 </r>
       <r>    7.7503    0.0000 </r>
       <r>    7.7526    0.0000 </r>
       <r>    7.7564    0.0000 </r>
       <r>    7.7577    0.0000 </r>
       <r>    7.8176    0.0000 </r>
       <r>    7.8182    0.0000 </r>
       <r>    7.8204    0.0000 </r>
       <r>    8.0317    0.0000 </r>
       <r>    8.0923    0.0000 </r>
       <r>    8.0926    0.0000 </r>
       <r>    8.1019    0.0000 </r>
       <r>    8.1525    0.0000 </r>
       <r>    8.1539    0.0000 </r>
       <r>    8.1888    0.0000 </r>
       <r>    8.1908    0.0000 </r>
       <r>    8.2172    0.0000 </r>
       <r>    8.2231    0.0000 </r>
       <r>    8.2253    0.0000 </r>
       <r>    8.2278    0.0000 </r>
       <r>    8.3217    0.0000 </r>
       <r>    8.3218    0.0000 </r>
       <r>    8.3246    0.0000 </r>
       <r>    8.3310    0.0000 </r>
       <r>    8.3402    0.0000 </r>
       <r>    8.3439    0.0000 </r>
       <r>    8.3449    0.0000 </r>
       <r>    8.3477    0.0000 </r>
       <r>    8.3487    0.0000 </r>
       <r>    8.3620    0.0000 </r>
       <r>    8.3631    0.0000 </r>
       <r>    8.3641    0.0000 </r>
       <r>    8.3658    0.0000 </r>
       <r>    8.3695    0.0000 </r>
       <r>    8.8681    0.0000 </r>
       <r>    8.9246    0.0000 </r>
       <r>    8.9254    0.0000 </r>
       <r>    9.0865    0.0000 </r>
       <r>    9.0880    0.0000 </r>
       <r>    9.1081    0.0000 </r>
       <r>    9.1086    0.0000 </r>
       <r>    9.1340    0.0000 </r>
       <r>    9.1430    0.0000 </r>
       <r>    9.1435    0.0000 </r>
       <r>    9.1696    0.0000 </r>
       <r>    9.1763    0.0000 </r>
       <r>    9.1997    0.0000 </r>
       <r>    9.2007    0.0000 </r>
       <r>    9.2263    0.0000 </r>
       <r>    9.2277    0.0000 </r>
       <r>    9.2408    0.0000 </r>
       <r>    9.2749    0.0000 </r>
       <r>    9.3175    0.0000 </r>
       <r>    9.3190    0.0000 </r>
       <r>    9.3904    0.0000 </r>
       <r>    9.3911    0.0000 </r>
       <r>    9.3921    0.0000 </r>
       <r>    9.4643    0.0000 </r>
       <r>    9.6125    0.0000 </r>
       <r>    9.6130    0.0000 </r>
       <r>    9.6854    0.0000 </r>
       <r>    9.7750    0.0000 </r>
       <r>    9.7767    0.0000 </r>
       <r>    9.7940    0.0000 </r>
       <r>    9.7960    0.0000 </r>
       <r>    9.8029    0.0000 </r>
       <r>    9.9515    0.0000 </r>
       <r>    9.9523    0.0000 </r>
       <r>    9.9528    0.0000 </r>
       <r>    9.9757    0.0000 </r>
       <r>    9.9802    0.0000 </r>
       <r>    9.9813    0.0000 </r>
       <r>   10.0848    0.0000 </r>
       <r>   10.1348    0.0000 </r>
       <r>   10.1354    0.0000 </r>
       <r>   10.1495    0.0000 </r>
       <r>   10.1501    0.0000 </r>
       <r>   10.1706    0.0000 </r>
       <r>   10.1852    0.0000 </r>
       <r>   10.1864    0.0000 </r>
       <r>   10.1921    0.0000 </r>
       <r>   10.2058    0.0000 </r>
       <r>   10.2069    0.0000 </r>
       <r>   10.2978    0.0000 </r>
       <r>   10.5564    0.0000 </r>
       <r>   10.6248    0.0000 </r>
       <r>   10.6267    0.0000 </r>
       <r>   10.6439    0.0000 </r>
       <r>   10.6458    0.0000 </r>
       <r>   10.6644    0.0000 </r>
       <r>   10.8083    0.0000 </r>
       <r>   10.8144    0.0000 </r>
       <r>   10.8157    0.0000 </r>
       <r>   10.8191    0.0000 </r>
       <r>   10.8207    0.0000 </r>
       <r>   10.8211    0.0000 </r>
       <r>   11.3051    0.0000 </r>
       <r>   11.3517    0.0000 </r>
       <r>   11.3720    0.0000 </r>
       <r>   11.4331    0.0000 </r>
       <r>   11.4826    0.0000 </r>
       <r>   11.4906    0.0000 </r>
       <r>   11.5024    0.0000 </r>
       <r>   11.5234    0.0000 </r>
       <r>   11.5682    0.0000 </r>
       <r>   11.5822    0.0000 </r>
       <r>   11.6476    0.0000 </r>
       <r>   11.7005    0.0000 </r>
       <r>   11.7160    0.0000 </r>
       <r>   11.7484    0.0000 </r>
       <r>   11.7676    0.0000 </r>
       <r>   11.8093    0.0000 </r>
       <r>   11.8243    0.0000 </r>
       <r>   11.8408    0.0000 </r>
       <r>   11.8805    0.0000 </r>
      </set>
      <set comment="kpoint 6">
       <r>  -17.1659    1.0000 </r>
       <r>  -15.7429    1.0000 </r>
       <r>  -15.6887    1.0000 </r>
       <r>  -15.4121    1.0000 </r>
       <r>  -15.2834    1.0000 </r>
       <r>  -15.2748    1.0000 </r>
       <r>  -15.2420    1.0000 </r>
       <r>  -15.2042    1.0000 </r>
       <r>  -15.1416    1.0000 </r>
       <r>  -15.0833    1.0000 </r>
       <r>  -15.0471    1.0000 </r>
       <r>  -15.0339    1.0000 </r>
       <r>  -15.0150    1.0000 </r>
       <r>  -14.9845    1.0000 </r>
       <r>  -14.9837    1.0000 </r>
       <r>  -14.9061    1.0000 </r>
       <r>  -14.8989    1.0000 </r>
       <r>  -14.8523    1.0000 </r>
       <r>  -14.7580    1.0000 </r>
       <r>  -14.7573    1.0000 </r>
       <r>  -14.6146    1.0000 </r>
       <r>  -14.5660    1.0000 </r>
       <r>  -14.5389    1.0000 </r>
       <r>  -14.4663    1.0000 </r>
       <r>  -14.4627    1.0000 </r>
       <r>  -14.4596    1.0000 </r>
       <r>  -14.4588    1.0000 </r>
       <r>  -14.4218    1.0000 </r>
       <r>  -14.4020    1.0000 </r>
       <r>  -14.3960    1.0000 </r>
       <r>  -14.3845    1.0000 </r>
       <r>  -14.3350    1.0000 </r>
       <r>  -14.2471    1.0000 </r>
       <r>  -14.2455    1.0000 </r>
       <r>  -14.2434    1.0000 </r>
       <r>  -14.2429    1.0000 </r>
       <r>  -14.2073    1.0000 </r>
       <r>  -14.2066    1.0000 </r>
       <r>  -14.1682    1.0000 </r>
       <r>  -14.1493    1.0000 </r>
       <r>  -14.1057    1.0000 </r>
       <r>  -14.0340    1.0000 </r>
       <r>  -13.9976    1.0000 </r>
       <r>  -13.9973    1.0000 </r>
       <r>  -13.9392    1.0000 </r>
       <r>  -13.7793    1.0000 </r>
       <r>  -13.7415    1.0000 </r>
       <r>  -13.7400    1.0000 </r>
       <r>  -13.7126    1.0000 </r>
       <r>  -13.7106    1.0000 </r>
       <r>  -13.7021    1.0000 </r>
       <r>  -13.6803    1.0000 </r>
       <r>  -13.6584    1.0000 </r>
       <r>  -13.6539    1.0000 </r>
       <r>  -13.5966    1.0000 </r>
       <r>  -13.5329    1.0000 </r>
       <r>  -13.5325    1.0000 </r>
       <r>  -13.5187    1.0000 </r>
       <r>  -13.5183    1.0000 </r>
       <r>  -13.5019    1.0000 </r>
       <r>  -13.3576    1.0000 </r>
       <r>  -13.3333    1.0000 </r>
       <r>  -13.2538    1.0000 </r>
       <r>  -13.2219    1.0000 </r>
       <r>  -13.1076    1.0000 </r>
       <r>  -13.0682    1.0000 </r>
       <r>  -13.0638    1.0000 </r>
       <r>  -13.0617    1.0000 </r>
       <r>  -13.0607    1.0000 </r>
       <r>  -13.0327    1.0000 </r>
       <r>  -13.0264    1.0000 </r>
       <r>  -13.0230    1.0000 </r>
       <r>  -13.0160    1.0000 </r>
       <r>  -12.9709    1.0000 </r>
       <r>  -12.9230    1.0000 </r>
       <r>  -12.8935    1.0000 </r>
       <r>  -12.8911    1.0000 </r>
       <r>  -12.8894    1.0000 </r>
       <r>  -12.8892    1.0000 </r>
       <r>  -12.8785    1.0000 </r>
       <r>  -12.8780    1.0000 </r>
       <r>  -12.8772    1.0000 </r>
       <r>  -12.8768    1.0000 </r>
       <r>  -12.8658    1.0000 </r>
       <r>  -12.8593    1.0000 </r>
       <r>  -12.8550    1.0000 </r>
       <r>  -12.8510    1.0000 </r>
       <r>  -12.8504    1.0000 </r>
       <r>  -12.7153    1.0000 </r>
       <r>  -12.7150    1.0000 </r>
       <r>  -12.7147    1.0000 </r>
       <r>  -12.7146    1.0000 </r>
       <r>  -12.6816    1.0000 </r>
       <r>  -12.6086    1.0000 </r>
       <r>  -12.5982    1.0000 </r>
       <r>  -12.5764    1.0000 </r>
       <r>  -12.5729    1.0000 </r>
       <r>  -12.5513    1.0000 </r>
       <r>  -12.5329    1.0000 </r>
       <r>  -12.4981    1.0000 </r>
       <r>  -12.4352    1.0000 </r>
       <r>  -12.4292    1.0000 </r>
       <r>  -12.4228    1.0000 </r>
       <r>  -12.4217    1.0000 </r>
       <r>  -12.3418    1.0000 </r>
       <r>  -12.3382    1.0000 </r>
       <r>  -12.3213    1.0000 </r>
       <r>  -12.3170    1.0000 </r>
       <r>  -12.2463    1.0000 </r>
       <r>  -12.2449    1.0000 </r>
       <r>  -12.2367    1.0000 </r>
       <r>  -12.2324    1.0000 </r>
       <r>  -12.2191    1.0000 </r>
       <r>  -12.2178    1.0000 </r>
       <r>  -12.2081    1.0000 </r>
       <r>  -12.2051    1.0000 </r>
       <r>  -12.1764    1.0000 </r>
       <r>  -12.1762    1.0000 </r>
       <r>  -12.1700    1.0000 </r>
       <r>  -12.1698    1.0000 </r>
       <r>  -12.0958    1.0000 </r>
       <r>  -12.0957    1.0000 </r>
       <r>  -12.0880    1.0000 </r>
       <r>  -12.0872    1.0000 </r>
       <r>  -12.0871    1.0000 </r>
       <r>  -12.0843    1.0000 </r>
       <r>  -11.9506    1.0000 </r>
       <r>  -11.9480    1.0000 </r>
       <r>  -11.9462    1.0000 </r>
       <r>  -11.9435    1.0000 </r>
       <r>  -11.8159    1.0000 </r>
       <r>  -11.8153    1.0000 </r>
       <r>  -11.8077    1.0000 </r>
       <r>  -11.8073    1.0000 </r>
       <r>  -11.8041    1.0000 </r>
       <r>  -11.8036    1.0000 </r>
       <r>  -11.7850    1.0000 </r>
       <r>  -11.7846    1.0000 </r>
       <r>  -11.7796    1.0000 </r>
       <r>  -11.7791    1.0000 </r>
       <r>  -11.6684    1.0000 </r>
       <r>  -11.6684    1.0000 </r>
       <r>  -11.6613    1.0000 </r>
       <r>  -11.6613    1.0000 </r>
       <r>   -8.1623    1.0000 </r>
       <r>   -7.2497    1.0000 </r>
       <r>   -7.2352    1.0000 </r>
       <r>   -6.7830    1.0000 </r>
       <r>   -6.6995    1.0000 </r>
       <r>   -6.6787    1.0000 </r>
       <r>   -6.4258    1.0000 </r>
       <r>   -6.4018    1.0000 </r>
       <r>   -6.3171    1.0000 </r>
       <r>   -6.3087    1.0000 </r>
       <r>   -6.3057    1.0000 </r>
       <r>   -6.3038    1.0000 </r>
       <r>   -6.2979    1.0000 </r>
       <r>   -6.2836    1.0000 </r>
       <r>   -6.2756    1.0000 </r>
       <r>   -6.2744    1.0000 </r>
       <r>   -6.2689    1.0000 </r>
       <r>   -6.2679    1.0000 </r>
       <r>   -6.2153    1.0000 </r>
       <r>   -6.2132    1.0000 </r>
       <r>   -6.2107    1.0000 </r>
       <r>   -6.2074    1.0000 </r>
       <r>   -6.1952    1.0000 </r>
       <r>   -6.1919    1.0000 </r>
       <r>   -6.1589    1.0000 </r>
       <r>   -6.1587    1.0000 </r>
       <r>   -6.1492    1.0000 </r>
       <r>   -6.1491    1.0000 </r>
       <r>   -6.0725    1.0000 </r>
       <r>   -6.0713    1.0000 </r>
       <r>   -5.9350    1.0000 </r>
       <r>   -5.9277    1.0000 </r>
       <r>   -5.9108    1.0000 </r>
       <r>   -5.9034    1.0000 </r>
       <r>   -5.8367    1.0000 </r>
       <r>   -5.7895    1.0000 </r>
       <r>   -5.7819    1.0000 </r>
       <r>   -5.7692    1.0000 </r>
       <r>   -5.7686    1.0000 </r>
       <r>   -5.7655    1.0000 </r>
       <r>   -5.7612    1.0000 </r>
       <r>   -5.7588    1.0000 </r>
       <r>   -5.7585    1.0000 </r>
       <r>   -5.7580    1.0000 </r>
       <r>   -5.7561    1.0000 </r>
       <r>   -5.7504    1.0000 </r>
       <r>   -5.7347    1.0000 </r>
       <r>   -5.6802    1.0000 </r>
       <r>   -5.6516    1.0000 </r>
       <r>   -5.6391    1.0000 </r>
       <r>   -5.6232    1.0000 </r>
       <r>   -5.6231    1.0000 </r>
       <r>   -5.6200    1.0000 </r>
       <r>   -5.6199    1.0000 </r>
       <r>   -5.2294    1.0000 </r>
       <r>   -5.2264    1.0000 </r>
       <r>   -5.2252    1.0000 </r>
       <r>   -5.2244    1.0000 </r>
       <r>   -5.2235    1.0000 </r>
       <r>   -5.2195    1.0000 </r>
       <r>   -5.2191    1.0000 </r>
       <r>   -5.2185    1.0000 </r>
       <r>   -5.2181    1.0000 </r>
       <r>   -5.2177    1.0000 </r>
       <r>   -5.2166    1.0000 </r>
       <r>   -5.2162    1.0000 </r>
       <r>   -5.1064    1.0000 </r>
       <r>   -5.0950    1.0000 </r>
       <r>   -5.0908    1.0000 </r>
       <r>   -5.0907    1.0000 </r>
       <r>   -5.0879    1.0000 </r>
       <r>   -5.0878    1.0000 </r>
       <r>   -5.0876    1.0000 </r>
       <r>   -5.0875    1.0000 </r>
       <r>   -5.0084    1.0000 </r>
       <r>   -4.9190    1.0000 </r>
       <r>   -4.8269    1.0000 </r>
       <r>   -4.5974    1.0000 </r>
       <r>   -4.5428    1.0000 </r>
       <r>   -4.5346    1.0000 </r>
       <r>   -4.4747    1.0000 </r>
       <r>   -4.4721    1.0000 </r>
       <r>   -4.4719    1.0000 </r>
       <r>   -4.4712    1.0000 </r>
       <r>   -4.4709    1.0000 </r>
       <r>   -4.4687    1.0000 </r>
       <r>   -4.4683    1.0000 </r>
       <r>   -4.4679    1.0000 </r>
       <r>   -4.3413    1.0000 </r>
       <r>   -4.3411    1.0000 </r>
       <r>   -4.3409    1.0000 </r>
       <r>   -4.3408    1.0000 </r>
       <r>   -4.3118    1.0000 </r>
       <r>   -4.1904    1.0000 </r>
       <r>   -4.0921    1.0000 </r>
       <r>   -4.0879    1.0000 </r>
       <r>   -4.0872    1.0000 </r>
       <r>   -4.0840    1.0000 </r>
       <r>   -4.0830    1.0000 </r>
       <r>   -4.0765    1.0000 </r>
       <r>   -4.0736    1.0000 </r>
       <r>   -4.0713    1.0000 </r>
       <r>   -4.0689    1.0000 </r>
       <r>   -4.0355    1.0000 </r>
       <r>   -4.0246    1.0000 </r>
       <r>   -3.9501    1.0000 </r>
       <r>   -3.9501    1.0000 </r>
       <r>   -3.9467    1.0000 </r>
       <r>   -3.9466    1.0000 </r>
       <r>   -3.9074    1.0000 </r>
       <r>   -3.8632    1.0000 </r>
       <r>   -3.7743    1.0000 </r>
       <r>   -3.6227    1.0000 </r>
       <r>   -3.6201    1.0000 </r>
       <r>   -3.6155    1.0000 </r>
       <r>   -3.6139    1.0000 </r>
       <r>   -3.6042    1.0000 </r>
       <r>   -3.6036    1.0000 </r>
       <r>   -3.5982    1.0000 </r>
       <r>   -3.5976    1.0000 </r>
       <r>   -3.5945    1.0000 </r>
       <r>   -3.4797    1.0000 </r>
       <r>   -3.4795    1.0000 </r>
       <r>   -3.4741    1.0000 </r>
       <r>   -3.4741    1.0000 </r>
       <r>   -3.4690    1.0000 </r>
       <r>   -3.4686    1.0000 </r>
       <r>   -3.4669    1.0000 </r>
       <r>   -3.4659    1.0000 </r>
       <r>   -3.4637    1.0000 </r>
       <r>   -3.3893    1.0000 </r>
       <r>   -3.3574    1.0000 </r>
       <r>   -3.3421    1.0000 </r>
       <r>   -3.3384    1.0000 </r>
       <r>   -3.3383    1.0000 </r>
       <r>   -3.3144    1.0000 </r>
       <r>   -3.3069    1.0000 </r>
       <r>   -3.1464    1.0000 </r>
       <r>   -3.0895    1.0000 </r>
       <r>   -3.0767    1.0000 </r>
       <r>   -3.0738    1.0000 </r>
       <r>   -3.0711    1.0000 </r>
       <r>   -3.0667    1.0000 </r>
       <r>   -3.0028    1.0000 </r>
       <r>   -2.9991    1.0000 </r>
       <r>   -2.9863    1.0000 </r>
       <r>   -2.9383    1.0000 </r>
       <r>   -2.9377    1.0000 </r>
       <r>   -2.8454    1.0000 </r>
       <r>   -2.7636    1.0000 </r>
       <r>   -2.7602    1.0000 </r>
       <r>   -2.7516    1.0000 </r>
       <r>   -2.7275    1.0000 </r>
       <r>   -2.7235    1.0000 </r>
       <r>   -2.6736    1.0000 </r>
       <r>   -2.6722    1.0000 </r>
       <r>   -2.6688    1.0000 </r>
       <r>   -2.6495    1.0000 </r>
       <r>   -2.6131    1.0000 </r>
       <r>   -2.5455    1.0000 </r>
       <r>   -2.5451    1.0000 </r>
       <r>   -2.5426    1.0000 </r>
       <r>   -2.5145    1.0000 </r>
       <r>   -2.4622    1.0000 </r>
       <r>   -2.3910    1.0000 </r>
       <r>   -2.3857    1.0000 </r>
       <r>   -2.3768    1.0000 </r>
       <r>   -2.3749    1.0000 </r>
       <r>   -2.3743    1.0000 </r>
       <r>   -2.3721    1.0000 </r>
       <r>   -2.3706    1.0000 </r>
       <r>   -2.3697    1.0000 </r>
       <r>   -2.3693    1.0000 </r>
       <r>   -2.3682    1.0000 </r>
       <r>   -2.3661    1.0000 </r>
       <r>   -2.3422    1.0000 </r>
       <r>   -2.2704    1.0000 </r>
       <r>   -2.2625    1.0000 </r>
       <r>   -2.2565    1.0000 </r>
       <r>   -2.2410    1.0000 </r>
       <r>   -2.2406    1.0000 </r>
       <r>   -2.2405    1.0000 </r>
       <r>   -2.2402    1.0000 </r>
       <r>   -2.2360    1.0000 </r>
       <r>   -2.2059    1.0000 </r>
       <r>   -2.1944    1.0000 </r>
       <r>   -2.1931    1.0000 </r>
       <r>   -2.1631    1.0000 </r>
       <r>   -2.1502    1.0000 </r>
       <r>   -2.1430    1.0000 </r>
       <r>   -2.1241    1.0000 </r>
       <r>   -2.0975    1.0000 </r>
       <r>   -2.0911    1.0000 </r>
       <r>   -2.0908    1.0000 </r>
       <r>   -2.0855    1.0000 </r>
       <r>   -2.0853    1.0000 </r>
       <r>   -2.0590    1.0000 </r>
       <r>   -2.0563    1.0000 </r>
       <r>   -2.0519    1.0000 </r>
       <r>   -2.0493    1.0000 </r>
       <r>   -2.0079    1.0000 </r>
       <r>   -1.9629    1.0000 </r>
       <r>   -1.9430    1.0000 </r>
       <r>   -1.9430    1.0000 </r>
       <r>   -1.9332    1.0000 </r>
       <r>   -1.9330    1.0000 </r>
       <r>   -1.9309    1.0000 </r>
       <r>   -1.9063    1.0000 </r>
       <r>   -1.9051    1.0000 </r>
       <r>   -1.8976    1.0000 </r>
       <r>   -1.8957    1.0000 </r>
       <r>   -1.8647    1.0000 </r>
       <r>   -1.8602    1.0000 </r>
       <r>   -1.8597    1.0000 </r>
       <r>   -1.8592    1.0000 </r>
       <r>   -1.8576    1.0000 </r>
       <r>   -1.8575    1.0000 </r>
       <r>   -1.8557    1.0000 </r>
       <r>   -1.8549    1.0000 </r>
       <r>   -1.8512    1.0000 </r>
       <r>   -1.7802    1.0000 </r>
       <r>   -1.7782    1.0000 </r>
       <r>   -1.7778    1.0000 </r>
       <r>   -1.7767    1.0000 </r>
       <r>   -1.7746    1.0000 </r>
       <r>   -1.7738    1.0000 </r>
       <r>   -1.7731    1.0000 </r>
       <r>   -1.7709    1.0000 </r>
       <r>   -1.7443    1.0000 </r>
       <r>   -1.7430    1.0000 </r>
       <r>   -1.7411    1.0000 </r>
       <r>   -1.7405    1.0000 </r>
       <r>   -1.7111    1.0000 </r>
       <r>   -1.7053    1.0000 </r>
       <r>   -1.6626    1.0000 </r>
       <r>   -1.6452    1.0000 </r>
       <r>   -1.6451    1.0000 </r>
       <r>   -1.6449    1.0000 </r>
       <r>   -1.6449    1.0000 </r>
       <r>   -1.6229    1.0000 </r>
       <r>   -1.6091    1.0000 </r>
       <r>   -1.6079    1.0000 </r>
       <r>   -1.5848    1.0000 </r>
       <r>   -1.5837    1.0000 </r>
       <r>   -1.5795    1.0000 </r>
       <r>   -1.5574    1.0000 </r>
       <r>   -1.5549    1.0000 </r>
       <r>   -1.5499    1.0000 </r>
       <r>   -1.4512    1.0000 </r>
       <r>   -1.4439    1.0000 </r>
       <r>   -1.4410    1.0000 </r>
       <r>   -1.4316    1.0000 </r>
       <r>   -1.2550    1.0000 </r>
       <r>   -1.2523    1.0000 </r>
       <r>   -1.2355    1.0000 </r>
       <r>   -1.2346    1.0000 </r>
       <r>   -1.2261    1.0000 </r>
       <r>   -1.2240    1.0000 </r>
       <r>   -1.2208    1.0000 </r>
       <r>   -1.2078    1.0000 </r>
       <r>   -1.2066    1.0000 </r>
       <r>   -1.2060    1.0000 </r>
       <r>   -1.2046    1.0000 </r>
       <r>   -1.1916    1.0000 </r>
       <r>   -1.1873    1.0000 </r>
       <r>   -1.1831    1.0000 </r>
       <r>   -1.1710    1.0000 </r>
       <r>   -1.1484    1.0000 </r>
       <r>   -1.1162    1.0000 </r>
       <r>   -1.0877    1.0000 </r>
       <r>   -1.0877    1.0000 </r>
       <r>   -1.0824    1.0000 </r>
       <r>   -1.0823    1.0000 </r>
       <r>   -1.0539    1.0000 </r>
       <r>   -1.0093    1.0000 </r>
       <r>   -0.9286    1.0000 </r>
       <r>   -0.9152    1.0000 </r>
       <r>   -0.9100    1.0000 </r>
       <r>   -0.9084    1.0000 </r>
       <r>   -0.9005    1.0000 </r>
       <r>   -0.8548    1.0000 </r>
       <r>   -0.8441    1.0000 </r>
       <r>   -0.8217    1.0000 </r>
       <r>   -0.7759    1.0000 </r>
       <r>   -0.7080    1.0000 </r>
       <r>   -0.6860    1.0000 </r>
       <r>   -0.6846    1.0000 </r>
       <r>   -0.6527    1.0000 </r>
       <r>   -0.5968    1.0000 </r>
       <r>   -0.5947    1.0000 </r>
       <r>   -0.5909    1.0000 </r>
       <r>   -0.5229    1.0000 </r>
       <r>   -0.5177    1.0000 </r>
       <r>   -0.5170    1.0000 </r>
       <r>   -0.5148    1.0000 </r>
       <r>   -0.5136    1.0000 </r>
       <r>   -0.4635    1.0000 </r>
       <r>   -0.4589    1.0000 </r>
       <r>   -0.4575    1.0000 </r>
       <r>   -0.4560    1.0000 </r>
       <r>   -0.4535    1.0000 </r>
       <r>   -0.4531    1.0000 </r>
       <r>   -0.4511    1.0000 </r>
       <r>   -0.4491    1.0000 </r>
       <r>   -0.4032    1.0000 </r>
       <r>   -0.3835    1.0000 </r>
       <r>   -0.3834    1.0000 </r>
       <r>   -0.3556    1.0000 </r>
       <r>   -0.3511    1.0000 </r>
       <r>   -0.3486    1.0000 </r>
       <r>   -0.3461    1.0000 </r>
       <r>   -0.3449    1.0000 </r>
       <r>   -0.3265    1.0000 </r>
       <r>   -0.3261    1.0000 </r>
       <r>   -0.3258    1.0000 </r>
       <r>   -0.3254    1.0000 </r>
       <r>   -0.2756    1.0000 </r>
       <r>   -0.2626    1.0000 </r>
       <r>   -0.2579    1.0000 </r>
       <r>   -0.2568    1.0000 </r>
       <r>   -0.2554    1.0000 </r>
       <r>   -0.2544    1.0000 </r>
       <r>   -0.2453    1.0000 </r>
       <r>   -0.2247    1.0000 </r>
       <r>   -0.2241    1.0000 </r>
       <r>   -0.2152    1.0000 </r>
       <r>   -0.2091    1.0000 </r>
       <r>   -0.1410    1.0000 </r>
       <r>   -0.1393    1.0000 </r>
       <r>   -0.0451    1.0000 </r>
       <r>   -0.0063    1.0000 </r>
       <r>    0.0011    1.0000 </r>
       <r>    0.0100    1.0000 </r>
       <r>    0.0112    1.0000 </r>
       <r>    0.0179    1.0000 </r>
       <r>    0.0186    1.0000 </r>
       <r>    0.0339    1.0000 </r>
       <r>    0.0361    1.0000 </r>
       <r>    0.0742    1.0000 </r>
       <r>    0.1871    1.0000 </r>
       <r>    0.2884    1.0000 </r>
       <r>    0.3191    1.0000 </r>
       <r>    0.3440    1.0000 </r>
       <r>    0.3461    1.0000 </r>
       <r>    0.3481    1.0000 </r>
       <r>    0.3502    1.0000 </r>
       <r>    0.3748    1.0000 </r>
       <r>    0.3968    1.0000 </r>
       <r>    0.4529    1.0000 </r>
       <r>    0.4766    1.0000 </r>
       <r>    0.4773    1.0000 </r>
       <r>    0.4890    1.0000 </r>
       <r>    0.5105    1.0000 </r>
       <r>    0.5572    1.0000 </r>
       <r>    0.5587    1.0000 </r>
       <r>    0.5662    1.0000 </r>
       <r>    0.5869    1.0000 </r>
       <r>    0.5888    1.0000 </r>
       <r>    0.5968    1.0000 </r>
       <r>    0.6207    1.0000 </r>
       <r>    0.6360    1.0000 </r>
       <r>    0.6559    1.0000 </r>
       <r>    0.6941    1.0000 </r>
       <r>    0.7033    1.0000 </r>
       <r>    0.7338    1.0000 </r>
       <r>    0.7363    1.0000 </r>
       <r>    0.8552    1.0000 </r>
       <r>    0.8558    1.0000 </r>
       <r>    0.8569    1.0000 </r>
       <r>    0.8625    1.0000 </r>
       <r>    0.8648    1.0000 </r>
       <r>    0.8661    1.0000 </r>
       <r>    0.8689    1.0000 </r>
       <r>    0.8747    1.0000 </r>
       <r>    0.8758    1.0000 </r>
       <r>    0.8783    1.0000 </r>
       <r>    0.8838    1.0000 </r>
       <r>    0.8860    1.0000 </r>
       <r>    0.8954    1.0000 </r>
       <r>    0.8963    1.0000 </r>
       <r>    0.9056    1.0000 </r>
       <r>    0.9085    1.0000 </r>
       <r>    0.9937    1.0000 </r>
       <r>    1.0028    1.0000 </r>
       <r>    1.0601    1.0000 </r>
       <r>    1.0658    1.0000 </r>
       <r>    1.0778    1.0000 </r>
       <r>    1.0780    1.0000 </r>
       <r>    1.0945    1.0000 </r>
       <r>    1.0950    1.0000 </r>
       <r>    1.1084    1.0000 </r>
       <r>    1.1095    1.0000 </r>
       <r>    1.1181    1.0000 </r>
       <r>    1.2574    1.0000 </r>
       <r>    1.2631    1.0000 </r>
       <r>    1.3112    1.0000 </r>
       <r>    1.4349    1.0000 </r>
       <r>    1.4537    1.0000 </r>
       <r>    1.4565    1.0000 </r>
       <r>    1.4707    1.0000 </r>
       <r>    1.6005    1.0000 </r>
       <r>    1.6023    1.0000 </r>
       <r>    1.6057    1.0000 </r>
       <r>    1.6064    1.0000 </r>
       <r>    1.6160    1.0000 </r>
       <r>    1.6256    1.0000 </r>
       <r>    1.6573    1.0000 </r>
       <r>    1.6678    1.0000 </r>
       <r>    1.7134    1.0000 </r>
       <r>    1.7153    1.0000 </r>
       <r>    1.7690    1.0000 </r>
       <r>    1.7734    1.0000 </r>
       <r>    1.8453    1.0000 </r>
       <r>    1.8518    1.0000 </r>
       <r>    1.8539    1.0000 </r>
       <r>    1.8623    1.0000 </r>
       <r>    1.8663    1.0000 </r>
       <r>    1.8708    1.0000 </r>
       <r>    1.8778    1.0000 </r>
       <r>    1.8794    1.0000 </r>
       <r>    1.9907    1.0000 </r>
       <r>    2.0037    1.0000 </r>
       <r>    2.1888    1.0000 </r>
       <r>    2.1902    1.0000 </r>
       <r>    2.1966    1.0000 </r>
       <r>    2.2000    1.0000 </r>
       <r>    2.2080    1.0000 </r>
       <r>    2.2110    1.0000 </r>
       <r>    2.3798    1.0000 </r>
       <r>    2.3814    1.0000 </r>
       <r>    2.3893    1.0000 </r>
       <r>    2.3894    1.0000 </r>
       <r>    5.5465    0.0000 </r>
       <r>    6.6592    0.0000 </r>
       <r>    6.6757    0.0000 </r>
       <r>    6.6831    0.0000 </r>
       <r>    6.7935    0.0000 </r>
       <r>    6.8857    0.0000 </r>
       <r>    6.9412    0.0000 </r>
       <r>    7.0095    0.0000 </r>
       <r>    7.0225    0.0000 </r>
       <r>    7.0454    0.0000 </r>
       <r>    7.0547    0.0000 </r>
       <r>    7.0761    0.0000 </r>
       <r>    7.0868    0.0000 </r>
       <r>    7.1079    0.0000 </r>
       <r>    7.1170    0.0000 </r>
       <r>    7.1456    0.0000 </r>
       <r>    7.1472    0.0000 </r>
       <r>    7.2567    0.0000 </r>
       <r>    7.2658    0.0000 </r>
       <r>    7.2659    0.0000 </r>
       <r>    7.2864    0.0000 </r>
       <r>    7.2869    0.0000 </r>
       <r>    7.4418    0.0000 </r>
       <r>    7.4578    0.0000 </r>
       <r>    7.4657    0.0000 </r>
       <r>    7.4804    0.0000 </r>
       <r>    7.4896    0.0000 </r>
       <r>    7.5710    0.0000 </r>
       <r>    7.5752    0.0000 </r>
       <r>    7.6366    0.0000 </r>
       <r>    7.6482    0.0000 </r>
       <r>    7.6611    0.0000 </r>
       <r>    7.6650    0.0000 </r>
       <r>    7.6660    0.0000 </r>
       <r>    7.6671    0.0000 </r>
       <r>    7.6832    0.0000 </r>
       <r>    7.7172    0.0000 </r>
       <r>    7.7330    0.0000 </r>
       <r>    7.7353    0.0000 </r>
       <r>    7.7953    0.0000 </r>
       <r>    7.8470    0.0000 </r>
       <r>    7.8815    0.0000 </r>
       <r>    7.8994    0.0000 </r>
       <r>    7.9712    0.0000 </r>
       <r>    7.9780    0.0000 </r>
       <r>    8.0053    0.0000 </r>
       <r>    8.0070    0.0000 </r>
       <r>    8.0967    0.0000 </r>
       <r>    8.0998    0.0000 </r>
       <r>    8.1133    0.0000 </r>
       <r>    8.2083    0.0000 </r>
       <r>    8.2300    0.0000 </r>
       <r>    8.2528    0.0000 </r>
       <r>    8.2893    0.0000 </r>
       <r>    8.3386    0.0000 </r>
       <r>    8.3416    0.0000 </r>
       <r>    8.3681    0.0000 </r>
       <r>    8.4742    0.0000 </r>
       <r>    8.4831    0.0000 </r>
       <r>    8.4915    0.0000 </r>
       <r>    8.4957    0.0000 </r>
       <r>    8.4966    0.0000 </r>
       <r>    8.5092    0.0000 </r>
       <r>    8.5103    0.0000 </r>
       <r>    8.5114    0.0000 </r>
       <r>    8.5336    0.0000 </r>
       <r>    8.5699    0.0000 </r>
       <r>    8.6005    0.0000 </r>
       <r>    8.6275    0.0000 </r>
       <r>    8.7880    0.0000 </r>
       <r>    8.8298    0.0000 </r>
       <r>    8.9040    0.0000 </r>
       <r>    8.9109    0.0000 </r>
       <r>    8.9294    0.0000 </r>
       <r>    9.0006    0.0000 </r>
       <r>    9.0076    0.0000 </r>
       <r>    9.0121    0.0000 </r>
       <r>    9.0197    0.0000 </r>
       <r>    9.0202    0.0000 </r>
       <r>    9.0240    0.0000 </r>
       <r>    9.0308    0.0000 </r>
       <r>    9.1319    0.0000 </r>
       <r>    9.1445    0.0000 </r>
       <r>    9.1628    0.0000 </r>
       <r>    9.1667    0.0000 </r>
       <r>    9.1845    0.0000 </r>
       <r>    9.2083    0.0000 </r>
       <r>    9.2090    0.0000 </r>
       <r>    9.2143    0.0000 </r>
       <r>    9.3691    0.0000 </r>
       <r>    9.4084    0.0000 </r>
       <r>    9.4127    0.0000 </r>
       <r>    9.4325    0.0000 </r>
       <r>    9.4443    0.0000 </r>
       <r>    9.4485    0.0000 </r>
       <r>    9.5845    0.0000 </r>
       <r>    9.6020    0.0000 </r>
       <r>    9.6037    0.0000 </r>
       <r>    9.6062    0.0000 </r>
       <r>    9.6077    0.0000 </r>
       <r>    9.6390    0.0000 </r>
       <r>    9.6656    0.0000 </r>
       <r>    9.7114    0.0000 </r>
       <r>    9.7129    0.0000 </r>
       <r>    9.7139    0.0000 </r>
       <r>    9.7296    0.0000 </r>
       <r>    9.7695    0.0000 </r>
       <r>    9.7875    0.0000 </r>
       <r>    9.8359    0.0000 </r>
       <r>    9.8370    0.0000 </r>
       <r>    9.9242    0.0000 </r>
       <r>    9.9267    0.0000 </r>
       <r>    9.9649    0.0000 </r>
       <r>    9.9693    0.0000 </r>
       <r>    9.9726    0.0000 </r>
       <r>   10.0341    0.0000 </r>
       <r>   10.0729    0.0000 </r>
       <r>   10.1148    0.0000 </r>
       <r>   10.1335    0.0000 </r>
       <r>   10.3109    0.0000 </r>
       <r>   10.3471    0.0000 </r>
       <r>   10.4258    0.0000 </r>
       <r>   10.4297    0.0000 </r>
       <r>   10.5260    0.0000 </r>
       <r>   10.5267    0.0000 </r>
       <r>   10.5487    0.0000 </r>
       <r>   10.5559    0.0000 </r>
       <r>   10.8979    0.0000 </r>
       <r>   11.0002    0.0000 </r>
       <r>   11.2072    0.0000 </r>
       <r>   11.2110    0.0000 </r>
       <r>   11.2919    0.0000 </r>
       <r>   11.4107    0.0000 </r>
       <r>   11.4175    0.0000 </r>
       <r>   11.4357    0.0000 </r>
       <r>   11.4418    0.0000 </r>
       <r>   11.5066    0.0000 </r>
       <r>   11.5360    0.0000 </r>
       <r>   11.5531    0.0000 </r>
       <r>   11.5852    0.0000 </r>
       <r>   11.5927    0.0000 </r>
       <r>   11.5972    0.0000 </r>
       <r>   11.6097    0.0000 </r>
       <r>   11.6257    0.0000 </r>
       <r>   11.6656    0.0000 </r>
       <r>   11.7310    0.0000 </r>
       <r>   11.8118    0.0000 </r>
       <r>   11.8824    0.0000 </r>
       <r>   11.9150    0.0000 </r>
       <r>   11.9491    0.0000 </r>
       <r>   11.9777    0.0000 </r>
       <r>   12.0019    0.0000 </r>
      </set>
      <set comment="kpoint 7">
       <r>  -17.1659    1.0000 </r>
       <r>  -15.7428    1.0000 </r>
       <r>  -15.6887    1.0000 </r>
       <r>  -15.4126    1.0000 </r>
       <r>  -15.2830    1.0000 </r>
       <r>  -15.2751    1.0000 </r>
       <r>  -15.2415    1.0000 </r>
       <r>  -15.2046    1.0000 </r>
       <r>  -15.1411    1.0000 </r>
       <r>  -15.0832    1.0000 </r>
       <r>  -15.0469    1.0000 </r>
       <r>  -15.0342    1.0000 </r>
       <r>  -15.0147    1.0000 </r>
       <r>  -14.9844    1.0000 </r>
       <r>  -14.9841    1.0000 </r>
       <r>  -14.9065    1.0000 </r>
       <r>  -14.8988    1.0000 </r>
       <r>  -14.8521    1.0000 </r>
       <r>  -14.7582    1.0000 </r>
       <r>  -14.7572    1.0000 </r>
       <r>  -14.6147    1.0000 </r>
       <r>  -14.5662    1.0000 </r>
       <r>  -14.5392    1.0000 </r>
       <r>  -14.4661    1.0000 </r>
       <r>  -14.4631    1.0000 </r>
       <r>  -14.4596    1.0000 </r>
       <r>  -14.4583    1.0000 </r>
       <r>  -14.4216    1.0000 </r>
       <r>  -14.4023    1.0000 </r>
       <r>  -14.3956    1.0000 </r>
       <r>  -14.3845    1.0000 </r>
       <r>  -14.3353    1.0000 </r>
       <r>  -14.2471    1.0000 </r>
       <r>  -14.2456    1.0000 </r>
       <r>  -14.2433    1.0000 </r>
       <r>  -14.2426    1.0000 </r>
       <r>  -14.2076    1.0000 </r>
       <r>  -14.2064    1.0000 </r>
       <r>  -14.1678    1.0000 </r>
       <r>  -14.1498    1.0000 </r>
       <r>  -14.1054    1.0000 </r>
       <r>  -14.0339    1.0000 </r>
       <r>  -13.9977    1.0000 </r>
       <r>  -13.9973    1.0000 </r>
       <r>  -13.9390    1.0000 </r>
       <r>  -13.7795    1.0000 </r>
       <r>  -13.7420    1.0000 </r>
       <r>  -13.7409    1.0000 </r>
       <r>  -13.7115    1.0000 </r>
       <r>  -13.7107    1.0000 </r>
       <r>  -13.7025    1.0000 </r>
       <r>  -13.6812    1.0000 </r>
       <r>  -13.6563    1.0000 </r>
       <r>  -13.6548    1.0000 </r>
       <r>  -13.5964    1.0000 </r>
       <r>  -13.5332    1.0000 </r>
       <r>  -13.5329    1.0000 </r>
       <r>  -13.5183    1.0000 </r>
       <r>  -13.5180    1.0000 </r>
       <r>  -13.5017    1.0000 </r>
       <r>  -13.3575    1.0000 </r>
       <r>  -13.3334    1.0000 </r>
       <r>  -13.2539    1.0000 </r>
       <r>  -13.2220    1.0000 </r>
       <r>  -13.1077    1.0000 </r>
       <r>  -13.0691    1.0000 </r>
       <r>  -13.0633    1.0000 </r>
       <r>  -13.0618    1.0000 </r>
       <r>  -13.0598    1.0000 </r>
       <r>  -13.0336    1.0000 </r>
       <r>  -13.0258    1.0000 </r>
       <r>  -13.0229    1.0000 </r>
       <r>  -13.0155    1.0000 </r>
       <r>  -12.9711    1.0000 </r>
       <r>  -12.9230    1.0000 </r>
       <r>  -12.8939    1.0000 </r>
       <r>  -12.8923    1.0000 </r>
       <r>  -12.8888    1.0000 </r>
       <r>  -12.8883    1.0000 </r>
       <r>  -12.8789    1.0000 </r>
       <r>  -12.8776    1.0000 </r>
       <r>  -12.8771    1.0000 </r>
       <r>  -12.8768    1.0000 </r>
       <r>  -12.8654    1.0000 </r>
       <r>  -12.8599    1.0000 </r>
       <r>  -12.8570    1.0000 </r>
       <r>  -12.8502    1.0000 </r>
       <r>  -12.8492    1.0000 </r>
       <r>  -12.7154    1.0000 </r>
       <r>  -12.7152    1.0000 </r>
       <r>  -12.7146    1.0000 </r>
       <r>  -12.7144    1.0000 </r>
       <r>  -12.6817    1.0000 </r>
       <r>  -12.6088    1.0000 </r>
       <r>  -12.5991    1.0000 </r>
       <r>  -12.5774    1.0000 </r>
       <r>  -12.5718    1.0000 </r>
       <r>  -12.5498    1.0000 </r>
       <r>  -12.5323    1.0000 </r>
       <r>  -12.4978    1.0000 </r>
       <r>  -12.4351    1.0000 </r>
       <r>  -12.4294    1.0000 </r>
       <r>  -12.4225    1.0000 </r>
       <r>  -12.4218    1.0000 </r>
       <r>  -12.3426    1.0000 </r>
       <r>  -12.3386    1.0000 </r>
       <r>  -12.3222    1.0000 </r>
       <r>  -12.3174    1.0000 </r>
       <r>  -12.2473    1.0000 </r>
       <r>  -12.2451    1.0000 </r>
       <r>  -12.2376    1.0000 </r>
       <r>  -12.2323    1.0000 </r>
       <r>  -12.2180    1.0000 </r>
       <r>  -12.2174    1.0000 </r>
       <r>  -12.2070    1.0000 </r>
       <r>  -12.2045    1.0000 </r>
       <r>  -12.1764    1.0000 </r>
       <r>  -12.1762    1.0000 </r>
       <r>  -12.1704    1.0000 </r>
       <r>  -12.1702    1.0000 </r>
       <r>  -12.0960    1.0000 </r>
       <r>  -12.0959    1.0000 </r>
       <r>  -12.0879    1.0000 </r>
       <r>  -12.0869    1.0000 </r>
       <r>  -12.0869    1.0000 </r>
       <r>  -12.0840    1.0000 </r>
       <r>  -11.9506    1.0000 </r>
       <r>  -11.9474    1.0000 </r>
       <r>  -11.9462    1.0000 </r>
       <r>  -11.9429    1.0000 </r>
       <r>  -11.8162    1.0000 </r>
       <r>  -11.8155    1.0000 </r>
       <r>  -11.8091    1.0000 </r>
       <r>  -11.8087    1.0000 </r>
       <r>  -11.8051    1.0000 </r>
       <r>  -11.8045    1.0000 </r>
       <r>  -11.7842    1.0000 </r>
       <r>  -11.7839    1.0000 </r>
       <r>  -11.7784    1.0000 </r>
       <r>  -11.7780    1.0000 </r>
       <r>  -11.6687    1.0000 </r>
       <r>  -11.6686    1.0000 </r>
       <r>  -11.6611    1.0000 </r>
       <r>  -11.6611    1.0000 </r>
       <r>   -8.1623    1.0000 </r>
       <r>   -7.2498    1.0000 </r>
       <r>   -7.2351    1.0000 </r>
       <r>   -6.7830    1.0000 </r>
       <r>   -6.6993    1.0000 </r>
       <r>   -6.6785    1.0000 </r>
       <r>   -6.4259    1.0000 </r>
       <r>   -6.4019    1.0000 </r>
       <r>   -6.3175    1.0000 </r>
       <r>   -6.3096    1.0000 </r>
       <r>   -6.3066    1.0000 </r>
       <r>   -6.3045    1.0000 </r>
       <r>   -6.2985    1.0000 </r>
       <r>   -6.2838    1.0000 </r>
       <r>   -6.2752    1.0000 </r>
       <r>   -6.2736    1.0000 </r>
       <r>   -6.2683    1.0000 </r>
       <r>   -6.2670    1.0000 </r>
       <r>   -6.2153    1.0000 </r>
       <r>   -6.2132    1.0000 </r>
       <r>   -6.2107    1.0000 </r>
       <r>   -6.2068    1.0000 </r>
       <r>   -6.1948    1.0000 </r>
       <r>   -6.1919    1.0000 </r>
       <r>   -6.1591    1.0000 </r>
       <r>   -6.1589    1.0000 </r>
       <r>   -6.1490    1.0000 </r>
       <r>   -6.1489    1.0000 </r>
       <r>   -6.0726    1.0000 </r>
       <r>   -6.0711    1.0000 </r>
       <r>   -5.9355    1.0000 </r>
       <r>   -5.9282    1.0000 </r>
       <r>   -5.9100    1.0000 </r>
       <r>   -5.9023    1.0000 </r>
       <r>   -5.8365    1.0000 </r>
       <r>   -5.7897    1.0000 </r>
       <r>   -5.7817    1.0000 </r>
       <r>   -5.7701    1.0000 </r>
       <r>   -5.7694    1.0000 </r>
       <r>   -5.7657    1.0000 </r>
       <r>   -5.7621    1.0000 </r>
       <r>   -5.7588    1.0000 </r>
       <r>   -5.7580    1.0000 </r>
       <r>   -5.7576    1.0000 </r>
       <r>   -5.7560    1.0000 </r>
       <r>   -5.7499    1.0000 </r>
       <r>   -5.7345    1.0000 </r>
       <r>   -5.6802    1.0000 </r>
       <r>   -5.6516    1.0000 </r>
       <r>   -5.6390    1.0000 </r>
       <r>   -5.6233    1.0000 </r>
       <r>   -5.6233    1.0000 </r>
       <r>   -5.6199    1.0000 </r>
       <r>   -5.6198    1.0000 </r>
       <r>   -5.2287    1.0000 </r>
       <r>   -5.2284    1.0000 </r>
       <r>   -5.2244    1.0000 </r>
       <r>   -5.2240    1.0000 </r>
       <r>   -5.2222    1.0000 </r>
       <r>   -5.2212    1.0000 </r>
       <r>   -5.2197    1.0000 </r>
       <r>   -5.2188    1.0000 </r>
       <r>   -5.2177    1.0000 </r>
       <r>   -5.2173    1.0000 </r>
       <r>   -5.2172    1.0000 </r>
       <r>   -5.2168    1.0000 </r>
       <r>   -5.1065    1.0000 </r>
       <r>   -5.0949    1.0000 </r>
       <r>   -5.0908    1.0000 </r>
       <r>   -5.0907    1.0000 </r>
       <r>   -5.0879    1.0000 </r>
       <r>   -5.0879    1.0000 </r>
       <r>   -5.0875    1.0000 </r>
       <r>   -5.0874    1.0000 </r>
       <r>   -5.0084    1.0000 </r>
       <r>   -4.9190    1.0000 </r>
       <r>   -4.8270    1.0000 </r>
       <r>   -4.5975    1.0000 </r>
       <r>   -4.5426    1.0000 </r>
       <r>   -4.5346    1.0000 </r>
       <r>   -4.4759    1.0000 </r>
       <r>   -4.4724    1.0000 </r>
       <r>   -4.4719    1.0000 </r>
       <r>   -4.4706    1.0000 </r>
       <r>   -4.4702    1.0000 </r>
       <r>   -4.4686    1.0000 </r>
       <r>   -4.4676    1.0000 </r>
       <r>   -4.4662    1.0000 </r>
       <r>   -4.3414    1.0000 </r>
       <r>   -4.3411    1.0000 </r>
       <r>   -4.3408    1.0000 </r>
       <r>   -4.3407    1.0000 </r>
       <r>   -4.3119    1.0000 </r>
       <r>   -4.1905    1.0000 </r>
       <r>   -4.0921    1.0000 </r>
       <r>   -4.0897    1.0000 </r>
       <r>   -4.0870    1.0000 </r>
       <r>   -4.0847    1.0000 </r>
       <r>   -4.0827    1.0000 </r>
       <r>   -4.0740    1.0000 </r>
       <r>   -4.0736    1.0000 </r>
       <r>   -4.0705    1.0000 </r>
       <r>   -4.0689    1.0000 </r>
       <r>   -4.0356    1.0000 </r>
       <r>   -4.0246    1.0000 </r>
       <r>   -3.9502    1.0000 </r>
       <r>   -3.9502    1.0000 </r>
       <r>   -3.9466    1.0000 </r>
       <r>   -3.9465    1.0000 </r>
       <r>   -3.9075    1.0000 </r>
       <r>   -3.8632    1.0000 </r>
       <r>   -3.7745    1.0000 </r>
       <r>   -3.6239    1.0000 </r>
       <r>   -3.6226    1.0000 </r>
       <r>   -3.6163    1.0000 </r>
       <r>   -3.6154    1.0000 </r>
       <r>   -3.6038    1.0000 </r>
       <r>   -3.6025    1.0000 </r>
       <r>   -3.5974    1.0000 </r>
       <r>   -3.5963    1.0000 </r>
       <r>   -3.5940    1.0000 </r>
       <r>   -3.4797    1.0000 </r>
       <r>   -3.4796    1.0000 </r>
       <r>   -3.4740    1.0000 </r>
       <r>   -3.4740    1.0000 </r>
       <r>   -3.4691    1.0000 </r>
       <r>   -3.4685    1.0000 </r>
       <r>   -3.4667    1.0000 </r>
       <r>   -3.4659    1.0000 </r>
       <r>   -3.4633    1.0000 </r>
       <r>   -3.3896    1.0000 </r>
       <r>   -3.3570    1.0000 </r>
       <r>   -3.3420    1.0000 </r>
       <r>   -3.3384    1.0000 </r>
       <r>   -3.3383    1.0000 </r>
       <r>   -3.3144    1.0000 </r>
       <r>   -3.3077    1.0000 </r>
       <r>   -3.1463    1.0000 </r>
       <r>   -3.0897    1.0000 </r>
       <r>   -3.0791    1.0000 </r>
       <r>   -3.0733    1.0000 </r>
       <r>   -3.0724    1.0000 </r>
       <r>   -3.0657    1.0000 </r>
       <r>   -3.0031    1.0000 </r>
       <r>   -2.9990    1.0000 </r>
       <r>   -2.9862    1.0000 </r>
       <r>   -2.9385    1.0000 </r>
       <r>   -2.9376    1.0000 </r>
       <r>   -2.8453    1.0000 </r>
       <r>   -2.7636    1.0000 </r>
       <r>   -2.7597    1.0000 </r>
       <r>   -2.7515    1.0000 </r>
       <r>   -2.7274    1.0000 </r>
       <r>   -2.7234    1.0000 </r>
       <r>   -2.6736    1.0000 </r>
       <r>   -2.6713    1.0000 </r>
       <r>   -2.6674    1.0000 </r>
       <r>   -2.6496    1.0000 </r>
       <r>   -2.6129    1.0000 </r>
       <r>   -2.5454    1.0000 </r>
       <r>   -2.5451    1.0000 </r>
       <r>   -2.5423    1.0000 </r>
       <r>   -2.5145    1.0000 </r>
       <r>   -2.4622    1.0000 </r>
       <r>   -2.3909    1.0000 </r>
       <r>   -2.3857    1.0000 </r>
       <r>   -2.3790    1.0000 </r>
       <r>   -2.3769    1.0000 </r>
       <r>   -2.3730    1.0000 </r>
       <r>   -2.3720    1.0000 </r>
       <r>   -2.3712    1.0000 </r>
       <r>   -2.3708    1.0000 </r>
       <r>   -2.3698    1.0000 </r>
       <r>   -2.3679    1.0000 </r>
       <r>   -2.3649    1.0000 </r>
       <r>   -2.3422    1.0000 </r>
       <r>   -2.2704    1.0000 </r>
       <r>   -2.2625    1.0000 </r>
       <r>   -2.2566    1.0000 </r>
       <r>   -2.2411    1.0000 </r>
       <r>   -2.2407    1.0000 </r>
       <r>   -2.2405    1.0000 </r>
       <r>   -2.2401    1.0000 </r>
       <r>   -2.2357    1.0000 </r>
       <r>   -2.2059    1.0000 </r>
       <r>   -2.1944    1.0000 </r>
       <r>   -2.1932    1.0000 </r>
       <r>   -2.1631    1.0000 </r>
       <r>   -2.1503    1.0000 </r>
       <r>   -2.1433    1.0000 </r>
       <r>   -2.1245    1.0000 </r>
       <r>   -2.0974    1.0000 </r>
       <r>   -2.0927    1.0000 </r>
       <r>   -2.0902    1.0000 </r>
       <r>   -2.0865    1.0000 </r>
       <r>   -2.0845    1.0000 </r>
       <r>   -2.0567    1.0000 </r>
       <r>   -2.0563    1.0000 </r>
       <r>   -2.0497    1.0000 </r>
       <r>   -2.0495    1.0000 </r>
       <r>   -2.0083    1.0000 </r>
       <r>   -1.9633    1.0000 </r>
       <r>   -1.9432    1.0000 </r>
       <r>   -1.9432    1.0000 </r>
       <r>   -1.9329    1.0000 </r>
       <r>   -1.9328    1.0000 </r>
       <r>   -1.9307    1.0000 </r>
       <r>   -1.9063    1.0000 </r>
       <r>   -1.9049    1.0000 </r>
       <r>   -1.8978    1.0000 </r>
       <r>   -1.8956    1.0000 </r>
       <r>   -1.8633    1.0000 </r>
       <r>   -1.8621    1.0000 </r>
       <r>   -1.8594    1.0000 </r>
       <r>   -1.8585    1.0000 </r>
       <r>   -1.8583    1.0000 </r>
       <r>   -1.8575    1.0000 </r>
       <r>   -1.8564    1.0000 </r>
       <r>   -1.8553    1.0000 </r>
       <r>   -1.8519    1.0000 </r>
       <r>   -1.7798    1.0000 </r>
       <r>   -1.7784    1.0000 </r>
       <r>   -1.7776    1.0000 </r>
       <r>   -1.7764    1.0000 </r>
       <r>   -1.7745    1.0000 </r>
       <r>   -1.7741    1.0000 </r>
       <r>   -1.7729    1.0000 </r>
       <r>   -1.7687    1.0000 </r>
       <r>   -1.7443    1.0000 </r>
       <r>   -1.7430    1.0000 </r>
       <r>   -1.7410    1.0000 </r>
       <r>   -1.7404    1.0000 </r>
       <r>   -1.7111    1.0000 </r>
       <r>   -1.7052    1.0000 </r>
       <r>   -1.6627    1.0000 </r>
       <r>   -1.6453    1.0000 </r>
       <r>   -1.6451    1.0000 </r>
       <r>   -1.6448    1.0000 </r>
       <r>   -1.6448    1.0000 </r>
       <r>   -1.6232    1.0000 </r>
       <r>   -1.6088    1.0000 </r>
       <r>   -1.6081    1.0000 </r>
       <r>   -1.5861    1.0000 </r>
       <r>   -1.5845    1.0000 </r>
       <r>   -1.5807    1.0000 </r>
       <r>   -1.5572    1.0000 </r>
       <r>   -1.5549    1.0000 </r>
       <r>   -1.5499    1.0000 </r>
       <r>   -1.4503    1.0000 </r>
       <r>   -1.4440    1.0000 </r>
       <r>   -1.4413    1.0000 </r>
       <r>   -1.4314    1.0000 </r>
       <r>   -1.2553    1.0000 </r>
       <r>   -1.2526    1.0000 </r>
       <r>   -1.2346    1.0000 </r>
       <r>   -1.2337    1.0000 </r>
       <r>   -1.2265    1.0000 </r>
       <r>   -1.2222    1.0000 </r>
       <r>   -1.2212    1.0000 </r>
       <r>   -1.2073    1.0000 </r>
       <r>   -1.2065    1.0000 </r>
       <r>   -1.2055    1.0000 </r>
       <r>   -1.2048    1.0000 </r>
       <r>   -1.1907    1.0000 </r>
       <r>   -1.1871    1.0000 </r>
       <r>   -1.1826    1.0000 </r>
       <r>   -1.1709    1.0000 </r>
       <r>   -1.1484    1.0000 </r>
       <r>   -1.1157    1.0000 </r>
       <r>   -1.0879    1.0000 </r>
       <r>   -1.0877    1.0000 </r>
       <r>   -1.0823    1.0000 </r>
       <r>   -1.0822    1.0000 </r>
       <r>   -1.0538    1.0000 </r>
       <r>   -1.0094    1.0000 </r>
       <r>   -0.9286    1.0000 </r>
       <r>   -0.9154    1.0000 </r>
       <r>   -0.9098    1.0000 </r>
       <r>   -0.9084    1.0000 </r>
       <r>   -0.9004    1.0000 </r>
       <r>   -0.8550    1.0000 </r>
       <r>   -0.8442    1.0000 </r>
       <r>   -0.8224    1.0000 </r>
       <r>   -0.7761    1.0000 </r>
       <r>   -0.7079    1.0000 </r>
       <r>   -0.6858    1.0000 </r>
       <r>   -0.6845    1.0000 </r>
       <r>   -0.6525    1.0000 </r>
       <r>   -0.5969    1.0000 </r>
       <r>   -0.5947    1.0000 </r>
       <r>   -0.5912    1.0000 </r>
       <r>   -0.5229    1.0000 </r>
       <r>   -0.5202    1.0000 </r>
       <r>   -0.5175    1.0000 </r>
       <r>   -0.5153    1.0000 </r>
       <r>   -0.5143    1.0000 </r>
       <r>   -0.4609    1.0000 </r>
       <r>   -0.4596    1.0000 </r>
       <r>   -0.4578    1.0000 </r>
       <r>   -0.4559    1.0000 </r>
       <r>   -0.4552    1.0000 </r>
       <r>   -0.4537    1.0000 </r>
       <r>   -0.4502    1.0000 </r>
       <r>   -0.4497    1.0000 </r>
       <r>   -0.4032    1.0000 </r>
       <r>   -0.3835    1.0000 </r>
       <r>   -0.3835    1.0000 </r>
       <r>   -0.3547    1.0000 </r>
       <r>   -0.3533    1.0000 </r>
       <r>   -0.3499    1.0000 </r>
       <r>   -0.3461    1.0000 </r>
       <r>   -0.3444    1.0000 </r>
       <r>   -0.3266    1.0000 </r>
       <r>   -0.3261    1.0000 </r>
       <r>   -0.3257    1.0000 </r>
       <r>   -0.3254    1.0000 </r>
       <r>   -0.2755    1.0000 </r>
       <r>   -0.2631    1.0000 </r>
       <r>   -0.2580    1.0000 </r>
       <r>   -0.2564    1.0000 </r>
       <r>   -0.2555    1.0000 </r>
       <r>   -0.2539    1.0000 </r>
       <r>   -0.2462    1.0000 </r>
       <r>   -0.2248    1.0000 </r>
       <r>   -0.2240    1.0000 </r>
       <r>   -0.2156    1.0000 </r>
       <r>   -0.2095    1.0000 </r>
       <r>   -0.1400    1.0000 </r>
       <r>   -0.1396    1.0000 </r>
       <r>   -0.0449    1.0000 </r>
       <r>   -0.0069    1.0000 </r>
       <r>    0.0009    1.0000 </r>
       <r>    0.0092    1.0000 </r>
       <r>    0.0121    1.0000 </r>
       <r>    0.0180    1.0000 </r>
       <r>    0.0185    1.0000 </r>
       <r>    0.0354    1.0000 </r>
       <r>    0.0355    1.0000 </r>
       <r>    0.0740    1.0000 </r>
       <r>    0.1867    1.0000 </r>
       <r>    0.2886    1.0000 </r>
       <r>    0.3194    1.0000 </r>
       <r>    0.3439    1.0000 </r>
       <r>    0.3461    1.0000 </r>
       <r>    0.3496    1.0000 </r>
       <r>    0.3530    1.0000 </r>
       <r>    0.3746    1.0000 </r>
       <r>    0.3965    1.0000 </r>
       <r>    0.4526    1.0000 </r>
       <r>    0.4766    1.0000 </r>
       <r>    0.4774    1.0000 </r>
       <r>    0.4880    1.0000 </r>
       <r>    0.5111    1.0000 </r>
       <r>    0.5577    1.0000 </r>
       <r>    0.5616    1.0000 </r>
       <r>    0.5664    1.0000 </r>
       <r>    0.5875    1.0000 </r>
       <r>    0.5905    1.0000 </r>
       <r>    0.5968    1.0000 </r>
       <r>    0.6205    1.0000 </r>
       <r>    0.6356    1.0000 </r>
       <r>    0.6565    1.0000 </r>
       <r>    0.6938    1.0000 </r>
       <r>    0.7036    1.0000 </r>
       <r>    0.7340    1.0000 </r>
       <r>    0.7369    1.0000 </r>
       <r>    0.8502    1.0000 </r>
       <r>    0.8553    1.0000 </r>
       <r>    0.8561    1.0000 </r>
       <r>    0.8626    1.0000 </r>
       <r>    0.8648    1.0000 </r>
       <r>    0.8666    1.0000 </r>
       <r>    0.8689    1.0000 </r>
       <r>    0.8744    1.0000 </r>
       <r>    0.8760    1.0000 </r>
       <r>    0.8770    1.0000 </r>
       <r>    0.8839    1.0000 </r>
       <r>    0.8861    1.0000 </r>
       <r>    0.8955    1.0000 </r>
       <r>    0.8969    1.0000 </r>
       <r>    0.9057    1.0000 </r>
       <r>    0.9092    1.0000 </r>
       <r>    0.9936    1.0000 </r>
       <r>    1.0029    1.0000 </r>
       <r>    1.0601    1.0000 </r>
       <r>    1.0656    1.0000 </r>
       <r>    1.0779    1.0000 </r>
       <r>    1.0789    1.0000 </r>
       <r>    1.0940    1.0000 </r>
       <r>    1.0946    1.0000 </r>
       <r>    1.1092    1.0000 </r>
       <r>    1.1097    1.0000 </r>
       <r>    1.1171    1.0000 </r>
       <r>    1.2577    1.0000 </r>
       <r>    1.2631    1.0000 </r>
       <r>    1.3111    1.0000 </r>
       <r>    1.4343    1.0000 </r>
       <r>    1.4547    1.0000 </r>
       <r>    1.4570    1.0000 </r>
       <r>    1.4703    1.0000 </r>
       <r>    1.5994    1.0000 </r>
       <r>    1.6016    1.0000 </r>
       <r>    1.6055    1.0000 </r>
       <r>    1.6061    1.0000 </r>
       <r>    1.6159    1.0000 </r>
       <r>    1.6264    1.0000 </r>
       <r>    1.6578    1.0000 </r>
       <r>    1.6677    1.0000 </r>
       <r>    1.7144    1.0000 </r>
       <r>    1.7148    1.0000 </r>
       <r>    1.7689    1.0000 </r>
       <r>    1.7735    1.0000 </r>
       <r>    1.8454    1.0000 </r>
       <r>    1.8515    1.0000 </r>
       <r>    1.8531    1.0000 </r>
       <r>    1.8624    1.0000 </r>
       <r>    1.8659    1.0000 </r>
       <r>    1.8716    1.0000 </r>
       <r>    1.8788    1.0000 </r>
       <r>    1.8794    1.0000 </r>
       <r>    1.9902    1.0000 </r>
       <r>    2.0040    1.0000 </r>
       <r>    2.1888    1.0000 </r>
       <r>    2.1905    1.0000 </r>
       <r>    2.1963    1.0000 </r>
       <r>    2.2002    1.0000 </r>
       <r>    2.2079    1.0000 </r>
       <r>    2.2108    1.0000 </r>
       <r>    2.3795    1.0000 </r>
       <r>    2.3812    1.0000 </r>
       <r>    2.3895    1.0000 </r>
       <r>    2.3897    1.0000 </r>
       <r>    5.5465    0.0000 </r>
       <r>    6.6591    0.0000 </r>
       <r>    6.6755    0.0000 </r>
       <r>    6.6832    0.0000 </r>
       <r>    6.7935    0.0000 </r>
       <r>    6.8861    0.0000 </r>
       <r>    6.9417    0.0000 </r>
       <r>    7.0088    0.0000 </r>
       <r>    7.0225    0.0000 </r>
       <r>    7.0454    0.0000 </r>
       <r>    7.0553    0.0000 </r>
       <r>    7.0760    0.0000 </r>
       <r>    7.0863    0.0000 </r>
       <r>    7.1070    0.0000 </r>
       <r>    7.1167    0.0000 </r>
       <r>    7.1465    0.0000 </r>
       <r>    7.1473    0.0000 </r>
       <r>    7.2568    0.0000 </r>
       <r>    7.2652    0.0000 </r>
       <r>    7.2653    0.0000 </r>
       <r>    7.2869    0.0000 </r>
       <r>    7.2871    0.0000 </r>
       <r>    7.4422    0.0000 </r>
       <r>    7.4584    0.0000 </r>
       <r>    7.4661    0.0000 </r>
       <r>    7.4810    0.0000 </r>
       <r>    7.4896    0.0000 </r>
       <r>    7.5708    0.0000 </r>
       <r>    7.5764    0.0000 </r>
       <r>    7.6358    0.0000 </r>
       <r>    7.6476    0.0000 </r>
       <r>    7.6611    0.0000 </r>
       <r>    7.6652    0.0000 </r>
       <r>    7.6658    0.0000 </r>
       <r>    7.6674    0.0000 </r>
       <r>    7.6841    0.0000 </r>
       <r>    7.7151    0.0000 </r>
       <r>    7.7331    0.0000 </r>
       <r>    7.7362    0.0000 </r>
       <r>    7.7950    0.0000 </r>
       <r>    7.8476    0.0000 </r>
       <r>    7.8811    0.0000 </r>
       <r>    7.8990    0.0000 </r>
       <r>    7.9694    0.0000 </r>
       <r>    7.9774    0.0000 </r>
       <r>    8.0062    0.0000 </r>
       <r>    8.0067    0.0000 </r>
       <r>    8.0969    0.0000 </r>
       <r>    8.0996    0.0000 </r>
       <r>    8.1131    0.0000 </r>
       <r>    8.2082    0.0000 </r>
       <r>    8.2297    0.0000 </r>
       <r>    8.2538    0.0000 </r>
       <r>    8.2895    0.0000 </r>
       <r>    8.3384    0.0000 </r>
       <r>    8.3415    0.0000 </r>
       <r>    8.3690    0.0000 </r>
       <r>    8.4743    0.0000 </r>
       <r>    8.4826    0.0000 </r>
       <r>    8.4914    0.0000 </r>
       <r>    8.4949    0.0000 </r>
       <r>    8.4985    0.0000 </r>
       <r>    8.5094    0.0000 </r>
       <r>    8.5100    0.0000 </r>
       <r>    8.5110    0.0000 </r>
       <r>    8.5342    0.0000 </r>
       <r>    8.5694    0.0000 </r>
       <r>    8.5998    0.0000 </r>
       <r>    8.6280    0.0000 </r>
       <r>    8.7870    0.0000 </r>
       <r>    8.8300    0.0000 </r>
       <r>    8.9029    0.0000 </r>
       <r>    8.9106    0.0000 </r>
       <r>    8.9309    0.0000 </r>
       <r>    9.0005    0.0000 </r>
       <r>    9.0073    0.0000 </r>
       <r>    9.0118    0.0000 </r>
       <r>    9.0194    0.0000 </r>
       <r>    9.0203    0.0000 </r>
       <r>    9.0242    0.0000 </r>
       <r>    9.0313    0.0000 </r>
       <r>    9.1313    0.0000 </r>
       <r>    9.1443    0.0000 </r>
       <r>    9.1640    0.0000 </r>
       <r>    9.1665    0.0000 </r>
       <r>    9.1830    0.0000 </r>
       <r>    9.2085    0.0000 </r>
       <r>    9.2097    0.0000 </r>
       <r>    9.2144    0.0000 </r>
       <r>    9.3694    0.0000 </r>
       <r>    9.4067    0.0000 </r>
       <r>    9.4132    0.0000 </r>
       <r>    9.4324    0.0000 </r>
       <r>    9.4463    0.0000 </r>
       <r>    9.4491    0.0000 </r>
       <r>    9.5852    0.0000 </r>
       <r>    9.6013    0.0000 </r>
       <r>    9.6038    0.0000 </r>
       <r>    9.6070    0.0000 </r>
       <r>    9.6085    0.0000 </r>
       <r>    9.6389    0.0000 </r>
       <r>    9.6650    0.0000 </r>
       <r>    9.7115    0.0000 </r>
       <r>    9.7131    0.0000 </r>
       <r>    9.7144    0.0000 </r>
       <r>    9.7303    0.0000 </r>
       <r>    9.7687    0.0000 </r>
       <r>    9.7863    0.0000 </r>
       <r>    9.8355    0.0000 </r>
       <r>    9.8365    0.0000 </r>
       <r>    9.9242    0.0000 </r>
       <r>    9.9266    0.0000 </r>
       <r>    9.9647    0.0000 </r>
       <r>    9.9704    0.0000 </r>
       <r>    9.9724    0.0000 </r>
       <r>   10.0342    0.0000 </r>
       <r>   10.0724    0.0000 </r>
       <r>   10.1156    0.0000 </r>
       <r>   10.1329    0.0000 </r>
       <r>   10.3097    0.0000 </r>
       <r>   10.3464    0.0000 </r>
       <r>   10.4281    0.0000 </r>
       <r>   10.4288    0.0000 </r>
       <r>   10.5251    0.0000 </r>
       <r>   10.5263    0.0000 </r>
       <r>   10.5506    0.0000 </r>
       <r>   10.5546    0.0000 </r>
       <r>   10.8982    0.0000 </r>
       <r>   10.9991    0.0000 </r>
       <r>   11.2081    0.0000 </r>
       <r>   11.2116    0.0000 </r>
       <r>   11.2930    0.0000 </r>
       <r>   11.4152    0.0000 </r>
       <r>   11.4217    0.0000 </r>
       <r>   11.4361    0.0000 </r>
       <r>   11.4695    0.0000 </r>
       <r>   11.5051    0.0000 </r>
       <r>   11.5214    0.0000 </r>
       <r>   11.5572    0.0000 </r>
       <r>   11.5699    0.0000 </r>
       <r>   11.5918    0.0000 </r>
       <r>   11.5919    0.0000 </r>
       <r>   11.6082    0.0000 </r>
       <r>   11.6406    0.0000 </r>
       <r>   11.6686    0.0000 </r>
       <r>   11.7408    0.0000 </r>
       <r>   11.7915    0.0000 </r>
       <r>   11.8516    0.0000 </r>
       <r>   11.8935    0.0000 </r>
       <r>   11.9510    0.0000 </r>
       <r>   12.0086    0.0000 </r>
       <r>   12.0541    0.0000 </r>
      </set>
      <set comment="kpoint 8">
       <r>  -17.1659    1.0000 </r>
       <r>  -15.7431    1.0000 </r>
       <r>  -15.6885    1.0000 </r>
       <r>  -15.4116    1.0000 </r>
       <r>  -15.2836    1.0000 </r>
       <r>  -15.2743    1.0000 </r>
       <r>  -15.2426    1.0000 </r>
       <r>  -15.2040    1.0000 </r>
       <r>  -15.1422    1.0000 </r>
       <r>  -15.0836    1.0000 </r>
       <r>  -15.0473    1.0000 </r>
       <r>  -15.0337    1.0000 </r>
       <r>  -15.0154    1.0000 </r>
       <r>  -14.9844    1.0000 </r>
       <r>  -14.9835    1.0000 </r>
       <r>  -14.9059    1.0000 </r>
       <r>  -14.8988    1.0000 </r>
       <r>  -14.8523    1.0000 </r>
       <r>  -14.7580    1.0000 </r>
       <r>  -14.7572    1.0000 </r>
       <r>  -14.6144    1.0000 </r>
       <r>  -14.5659    1.0000 </r>
       <r>  -14.5387    1.0000 </r>
       <r>  -14.4663    1.0000 </r>
       <r>  -14.4630    1.0000 </r>
       <r>  -14.4598    1.0000 </r>
       <r>  -14.4585    1.0000 </r>
       <r>  -14.4218    1.0000 </r>
       <r>  -14.4024    1.0000 </r>
       <r>  -14.3958    1.0000 </r>
       <r>  -14.3847    1.0000 </r>
       <r>  -14.3348    1.0000 </r>
       <r>  -14.2472    1.0000 </r>
       <r>  -14.2456    1.0000 </r>
       <r>  -14.2434    1.0000 </r>
       <r>  -14.2428    1.0000 </r>
       <r>  -14.2074    1.0000 </r>
       <r>  -14.2063    1.0000 </r>
       <r>  -14.1677    1.0000 </r>
       <r>  -14.1497    1.0000 </r>
       <r>  -14.1056    1.0000 </r>
       <r>  -14.0343    1.0000 </r>
       <r>  -13.9976    1.0000 </r>
       <r>  -13.9973    1.0000 </r>
       <r>  -13.9395    1.0000 </r>
       <r>  -13.7793    1.0000 </r>
       <r>  -13.7407    1.0000 </r>
       <r>  -13.7395    1.0000 </r>
       <r>  -13.7127    1.0000 </r>
       <r>  -13.7115    1.0000 </r>
       <r>  -13.7012    1.0000 </r>
       <r>  -13.6800    1.0000 </r>
       <r>  -13.6576    1.0000 </r>
       <r>  -13.6557    1.0000 </r>
       <r>  -13.5967    1.0000 </r>
       <r>  -13.5325    1.0000 </r>
       <r>  -13.5322    1.0000 </r>
       <r>  -13.5190    1.0000 </r>
       <r>  -13.5187    1.0000 </r>
       <r>  -13.5020    1.0000 </r>
       <r>  -13.3574    1.0000 </r>
       <r>  -13.3334    1.0000 </r>
       <r>  -13.2537    1.0000 </r>
       <r>  -13.2218    1.0000 </r>
       <r>  -13.1076    1.0000 </r>
       <r>  -13.0687    1.0000 </r>
       <r>  -13.0639    1.0000 </r>
       <r>  -13.0627    1.0000 </r>
       <r>  -13.0598    1.0000 </r>
       <r>  -13.0330    1.0000 </r>
       <r>  -13.0269    1.0000 </r>
       <r>  -13.0226    1.0000 </r>
       <r>  -13.0162    1.0000 </r>
       <r>  -12.9705    1.0000 </r>
       <r>  -12.9229    1.0000 </r>
       <r>  -12.8934    1.0000 </r>
       <r>  -12.8918    1.0000 </r>
       <r>  -12.8892    1.0000 </r>
       <r>  -12.8888    1.0000 </r>
       <r>  -12.8785    1.0000 </r>
       <r>  -12.8778    1.0000 </r>
       <r>  -12.8773    1.0000 </r>
       <r>  -12.8767    1.0000 </r>
       <r>  -12.8657    1.0000 </r>
       <r>  -12.8592    1.0000 </r>
       <r>  -12.8563    1.0000 </r>
       <r>  -12.8506    1.0000 </r>
       <r>  -12.8498    1.0000 </r>
       <r>  -12.7153    1.0000 </r>
       <r>  -12.7150    1.0000 </r>
       <r>  -12.7147    1.0000 </r>
       <r>  -12.7145    1.0000 </r>
       <r>  -12.6812    1.0000 </r>
       <r>  -12.6087    1.0000 </r>
       <r>  -12.5973    1.0000 </r>
       <r>  -12.5756    1.0000 </r>
       <r>  -12.5739    1.0000 </r>
       <r>  -12.5524    1.0000 </r>
       <r>  -12.5332    1.0000 </r>
       <r>  -12.4987    1.0000 </r>
       <r>  -12.4352    1.0000 </r>
       <r>  -12.4291    1.0000 </r>
       <r>  -12.4230    1.0000 </r>
       <r>  -12.4217    1.0000 </r>
       <r>  -12.3414    1.0000 </r>
       <r>  -12.3379    1.0000 </r>
       <r>  -12.3208    1.0000 </r>
       <r>  -12.3165    1.0000 </r>
       <r>  -12.2454    1.0000 </r>
       <r>  -12.2443    1.0000 </r>
       <r>  -12.2356    1.0000 </r>
       <r>  -12.2319    1.0000 </r>
       <r>  -12.2195    1.0000 </r>
       <r>  -12.2192    1.0000 </r>
       <r>  -12.2084    1.0000 </r>
       <r>  -12.2068    1.0000 </r>
       <r>  -12.1764    1.0000 </r>
       <r>  -12.1762    1.0000 </r>
       <r>  -12.1697    1.0000 </r>
       <r>  -12.1695    1.0000 </r>
       <r>  -12.0955    1.0000 </r>
       <r>  -12.0955    1.0000 </r>
       <r>  -12.0882    1.0000 </r>
       <r>  -12.0875    1.0000 </r>
       <r>  -12.0874    1.0000 </r>
       <r>  -12.0844    1.0000 </r>
       <r>  -11.9509    1.0000 </r>
       <r>  -11.9484    1.0000 </r>
       <r>  -11.9465    1.0000 </r>
       <r>  -11.9438    1.0000 </r>
       <r>  -11.8158    1.0000 </r>
       <r>  -11.8152    1.0000 </r>
       <r>  -11.8070    1.0000 </r>
       <r>  -11.8064    1.0000 </r>
       <r>  -11.8028    1.0000 </r>
       <r>  -11.8017    1.0000 </r>
       <r>  -11.7863    1.0000 </r>
       <r>  -11.7856    1.0000 </r>
       <r>  -11.7805    1.0000 </r>
       <r>  -11.7800    1.0000 </r>
       <r>  -11.6682    1.0000 </r>
       <r>  -11.6682    1.0000 </r>
       <r>  -11.6615    1.0000 </r>
       <r>  -11.6615    1.0000 </r>
       <r>   -8.1623    1.0000 </r>
       <r>   -7.2497    1.0000 </r>
       <r>   -7.2352    1.0000 </r>
       <r>   -6.7832    1.0000 </r>
       <r>   -6.6998    1.0000 </r>
       <r>   -6.6787    1.0000 </r>
       <r>   -6.4256    1.0000 </r>
       <r>   -6.4018    1.0000 </r>
       <r>   -6.3169    1.0000 </r>
       <r>   -6.3082    1.0000 </r>
       <r>   -6.3047    1.0000 </r>
       <r>   -6.3032    1.0000 </r>
       <r>   -6.2972    1.0000 </r>
       <r>   -6.2835    1.0000 </r>
       <r>   -6.2769    1.0000 </r>
       <r>   -6.2744    1.0000 </r>
       <r>   -6.2695    1.0000 </r>
       <r>   -6.2681    1.0000 </r>
       <r>   -6.2157    1.0000 </r>
       <r>   -6.2131    1.0000 </r>
       <r>   -6.2111    1.0000 </r>
       <r>   -6.2076    1.0000 </r>
       <r>   -6.1953    1.0000 </r>
       <r>   -6.1919    1.0000 </r>
       <r>   -6.1586    1.0000 </r>
       <r>   -6.1584    1.0000 </r>
       <r>   -6.1495    1.0000 </r>
       <r>   -6.1494    1.0000 </r>
       <r>   -6.0726    1.0000 </r>
       <r>   -6.0713    1.0000 </r>
       <r>   -5.9343    1.0000 </r>
       <r>   -5.9269    1.0000 </r>
       <r>   -5.9121    1.0000 </r>
       <r>   -5.9044    1.0000 </r>
       <r>   -5.8367    1.0000 </r>
       <r>   -5.7893    1.0000 </r>
       <r>   -5.7821    1.0000 </r>
       <r>   -5.7692    1.0000 </r>
       <r>   -5.7680    1.0000 </r>
       <r>   -5.7649    1.0000 </r>
       <r>   -5.7613    1.0000 </r>
       <r>   -5.7588    1.0000 </r>
       <r>   -5.7586    1.0000 </r>
       <r>   -5.7579    1.0000 </r>
       <r>   -5.7562    1.0000 </r>
       <r>   -5.7505    1.0000 </r>
       <r>   -5.7347    1.0000 </r>
       <r>   -5.6802    1.0000 </r>
       <r>   -5.6517    1.0000 </r>
       <r>   -5.6392    1.0000 </r>
       <r>   -5.6230    1.0000 </r>
       <r>   -5.6230    1.0000 </r>
       <r>   -5.6201    1.0000 </r>
       <r>   -5.6200    1.0000 </r>
       <r>   -5.2286    1.0000 </r>
       <r>   -5.2270    1.0000 </r>
       <r>   -5.2250    1.0000 </r>
       <r>   -5.2243    1.0000 </r>
       <r>   -5.2220    1.0000 </r>
       <r>   -5.2204    1.0000 </r>
       <r>   -5.2189    1.0000 </r>
       <r>   -5.2188    1.0000 </r>
       <r>   -5.2180    1.0000 </r>
       <r>   -5.2173    1.0000 </r>
       <r>   -5.2169    1.0000 </r>
       <r>   -5.2156    1.0000 </r>
       <r>   -5.1064    1.0000 </r>
       <r>   -5.0950    1.0000 </r>
       <r>   -5.0908    1.0000 </r>
       <r>   -5.0906    1.0000 </r>
       <r>   -5.0879    1.0000 </r>
       <r>   -5.0878    1.0000 </r>
       <r>   -5.0875    1.0000 </r>
       <r>   -5.0875    1.0000 </r>
       <r>   -5.0085    1.0000 </r>
       <r>   -4.9189    1.0000 </r>
       <r>   -4.8268    1.0000 </r>
       <r>   -4.5973    1.0000 </r>
       <r>   -4.5430    1.0000 </r>
       <r>   -4.5348    1.0000 </r>
       <r>   -4.4753    1.0000 </r>
       <r>   -4.4731    1.0000 </r>
       <r>   -4.4720    1.0000 </r>
       <r>   -4.4716    1.0000 </r>
       <r>   -4.4707    1.0000 </r>
       <r>   -4.4691    1.0000 </r>
       <r>   -4.4686    1.0000 </r>
       <r>   -4.4679    1.0000 </r>
       <r>   -4.3414    1.0000 </r>
       <r>   -4.3411    1.0000 </r>
       <r>   -4.3409    1.0000 </r>
       <r>   -4.3408    1.0000 </r>
       <r>   -4.3117    1.0000 </r>
       <r>   -4.1903    1.0000 </r>
       <r>   -4.0919    1.0000 </r>
       <r>   -4.0873    1.0000 </r>
       <r>   -4.0867    1.0000 </r>
       <r>   -4.0841    1.0000 </r>
       <r>   -4.0820    1.0000 </r>
       <r>   -4.0772    1.0000 </r>
       <r>   -4.0741    1.0000 </r>
       <r>   -4.0723    1.0000 </r>
       <r>   -4.0698    1.0000 </r>
       <r>   -4.0355    1.0000 </r>
       <r>   -4.0247    1.0000 </r>
       <r>   -3.9500    1.0000 </r>
       <r>   -3.9500    1.0000 </r>
       <r>   -3.9468    1.0000 </r>
       <r>   -3.9467    1.0000 </r>
       <r>   -3.9073    1.0000 </r>
       <r>   -3.8631    1.0000 </r>
       <r>   -3.7741    1.0000 </r>
       <r>   -3.6219    1.0000 </r>
       <r>   -3.6196    1.0000 </r>
       <r>   -3.6148    1.0000 </r>
       <r>   -3.6134    1.0000 </r>
       <r>   -3.6045    1.0000 </r>
       <r>   -3.6033    1.0000 </r>
       <r>   -3.5984    1.0000 </r>
       <r>   -3.5972    1.0000 </r>
       <r>   -3.5949    1.0000 </r>
       <r>   -3.4795    1.0000 </r>
       <r>   -3.4794    1.0000 </r>
       <r>   -3.4743    1.0000 </r>
       <r>   -3.4742    1.0000 </r>
       <r>   -3.4694    1.0000 </r>
       <r>   -3.4686    1.0000 </r>
       <r>   -3.4670    1.0000 </r>
       <r>   -3.4661    1.0000 </r>
       <r>   -3.4645    1.0000 </r>
       <r>   -3.3889    1.0000 </r>
       <r>   -3.3578    1.0000 </r>
       <r>   -3.3423    1.0000 </r>
       <r>   -3.3384    1.0000 </r>
       <r>   -3.3383    1.0000 </r>
       <r>   -3.3142    1.0000 </r>
       <r>   -3.3063    1.0000 </r>
       <r>   -3.1464    1.0000 </r>
       <r>   -3.0896    1.0000 </r>
       <r>   -3.0768    1.0000 </r>
       <r>   -3.0727    1.0000 </r>
       <r>   -3.0711    1.0000 </r>
       <r>   -3.0653    1.0000 </r>
       <r>   -3.0027    1.0000 </r>
       <r>   -2.9990    1.0000 </r>
       <r>   -2.9865    1.0000 </r>
       <r>   -2.9383    1.0000 </r>
       <r>   -2.9376    1.0000 </r>
       <r>   -2.8455    1.0000 </r>
       <r>   -2.7636    1.0000 </r>
       <r>   -2.7606    1.0000 </r>
       <r>   -2.7515    1.0000 </r>
       <r>   -2.7284    1.0000 </r>
       <r>   -2.7234    1.0000 </r>
       <r>   -2.6750    1.0000 </r>
       <r>   -2.6722    1.0000 </r>
       <r>   -2.6688    1.0000 </r>
       <r>   -2.6501    1.0000 </r>
       <r>   -2.6135    1.0000 </r>
       <r>   -2.5455    1.0000 </r>
       <r>   -2.5452    1.0000 </r>
       <r>   -2.5424    1.0000 </r>
       <r>   -2.5146    1.0000 </r>
       <r>   -2.4622    1.0000 </r>
       <r>   -2.3910    1.0000 </r>
       <r>   -2.3859    1.0000 </r>
       <r>   -2.3775    1.0000 </r>
       <r>   -2.3742    1.0000 </r>
       <r>   -2.3732    1.0000 </r>
       <r>   -2.3721    1.0000 </r>
       <r>   -2.3707    1.0000 </r>
       <r>   -2.3703    1.0000 </r>
       <r>   -2.3691    1.0000 </r>
       <r>   -2.3671    1.0000 </r>
       <r>   -2.3644    1.0000 </r>
       <r>   -2.3422    1.0000 </r>
       <r>   -2.2702    1.0000 </r>
       <r>   -2.2626    1.0000 </r>
       <r>   -2.2565    1.0000 </r>
       <r>   -2.2410    1.0000 </r>
       <r>   -2.2406    1.0000 </r>
       <r>   -2.2405    1.0000 </r>
       <r>   -2.2402    1.0000 </r>
       <r>   -2.2358    1.0000 </r>
       <r>   -2.2059    1.0000 </r>
       <r>   -2.1944    1.0000 </r>
       <r>   -2.1932    1.0000 </r>
       <r>   -2.1631    1.0000 </r>
       <r>   -2.1500    1.0000 </r>
       <r>   -2.1427    1.0000 </r>
       <r>   -2.1238    1.0000 </r>
       <r>   -2.0979    1.0000 </r>
       <r>   -2.0911    1.0000 </r>
       <r>   -2.0898    1.0000 </r>
       <r>   -2.0855    1.0000 </r>
       <r>   -2.0838    1.0000 </r>
       <r>   -2.0600    1.0000 </r>
       <r>   -2.0586    1.0000 </r>
       <r>   -2.0523    1.0000 </r>
       <r>   -2.0518    1.0000 </r>
       <r>   -2.0074    1.0000 </r>
       <r>   -1.9625    1.0000 </r>
       <r>   -1.9428    1.0000 </r>
       <r>   -1.9427    1.0000 </r>
       <r>   -1.9334    1.0000 </r>
       <r>   -1.9334    1.0000 </r>
       <r>   -1.9313    1.0000 </r>
       <r>   -1.9064    1.0000 </r>
       <r>   -1.9051    1.0000 </r>
       <r>   -1.8972    1.0000 </r>
       <r>   -1.8959    1.0000 </r>
       <r>   -1.8634    1.0000 </r>
       <r>   -1.8616    1.0000 </r>
       <r>   -1.8592    1.0000 </r>
       <r>   -1.8588    1.0000 </r>
       <r>   -1.8582    1.0000 </r>
       <r>   -1.8573    1.0000 </r>
       <r>   -1.8568    1.0000 </r>
       <r>   -1.8536    1.0000 </r>
       <r>   -1.8507    1.0000 </r>
       <r>   -1.7814    1.0000 </r>
       <r>   -1.7781    1.0000 </r>
       <r>   -1.7775    1.0000 </r>
       <r>   -1.7770    1.0000 </r>
       <r>   -1.7752    1.0000 </r>
       <r>   -1.7734    1.0000 </r>
       <r>   -1.7724    1.0000 </r>
       <r>   -1.7717    1.0000 </r>
       <r>   -1.7443    1.0000 </r>
       <r>   -1.7430    1.0000 </r>
       <r>   -1.7411    1.0000 </r>
       <r>   -1.7405    1.0000 </r>
       <r>   -1.7111    1.0000 </r>
       <r>   -1.7054    1.0000 </r>
       <r>   -1.6624    1.0000 </r>
       <r>   -1.6452    1.0000 </r>
       <r>   -1.6451    1.0000 </r>
       <r>   -1.6449    1.0000 </r>
       <r>   -1.6449    1.0000 </r>
       <r>   -1.6226    1.0000 </r>
       <r>   -1.6091    1.0000 </r>
       <r>   -1.6078    1.0000 </r>
       <r>   -1.5850    1.0000 </r>
       <r>   -1.5830    1.0000 </r>
       <r>   -1.5785    1.0000 </r>
       <r>   -1.5577    1.0000 </r>
       <r>   -1.5543    1.0000 </r>
       <r>   -1.5491    1.0000 </r>
       <r>   -1.4510    1.0000 </r>
       <r>   -1.4448    1.0000 </r>
       <r>   -1.4407    1.0000 </r>
       <r>   -1.4319    1.0000 </r>
       <r>   -1.2546    1.0000 </r>
       <r>   -1.2516    1.0000 </r>
       <r>   -1.2367    1.0000 </r>
       <r>   -1.2352    1.0000 </r>
       <r>   -1.2266    1.0000 </r>
       <r>   -1.2231    1.0000 </r>
       <r>   -1.2201    1.0000 </r>
       <r>   -1.2090    1.0000 </r>
       <r>   -1.2074    1.0000 </r>
       <r>   -1.2061    1.0000 </r>
       <r>   -1.2053    1.0000 </r>
       <r>   -1.1922    1.0000 </r>
       <r>   -1.1891    1.0000 </r>
       <r>   -1.1833    1.0000 </r>
       <r>   -1.1715    1.0000 </r>
       <r>   -1.1488    1.0000 </r>
       <r>   -1.1160    1.0000 </r>
       <r>   -1.0876    1.0000 </r>
       <r>   -1.0875    1.0000 </r>
       <r>   -1.0826    1.0000 </r>
       <r>   -1.0825    1.0000 </r>
       <r>   -1.0538    1.0000 </r>
       <r>   -1.0091    1.0000 </r>
       <r>   -0.9285    1.0000 </r>
       <r>   -0.9153    1.0000 </r>
       <r>   -0.9099    1.0000 </r>
       <r>   -0.9084    1.0000 </r>
       <r>   -0.9000    1.0000 </r>
       <r>   -0.8548    1.0000 </r>
       <r>   -0.8440    1.0000 </r>
       <r>   -0.8218    1.0000 </r>
       <r>   -0.7758    1.0000 </r>
       <r>   -0.7082    1.0000 </r>
       <r>   -0.6861    1.0000 </r>
       <r>   -0.6848    1.0000 </r>
       <r>   -0.6529    1.0000 </r>
       <r>   -0.5967    1.0000 </r>
       <r>   -0.5946    1.0000 </r>
       <r>   -0.5913    1.0000 </r>
       <r>   -0.5226    1.0000 </r>
       <r>   -0.5176    1.0000 </r>
       <r>   -0.5168    1.0000 </r>
       <r>   -0.5143    1.0000 </r>
       <r>   -0.5117    1.0000 </r>
       <r>   -0.4611    1.0000 </r>
       <r>   -0.4594    1.0000 </r>
       <r>   -0.4572    1.0000 </r>
       <r>   -0.4568    1.0000 </r>
       <r>   -0.4546    1.0000 </r>
       <r>   -0.4525    1.0000 </r>
       <r>   -0.4515    1.0000 </r>
       <r>   -0.4484    1.0000 </r>
       <r>   -0.4032    1.0000 </r>
       <r>   -0.3835    1.0000 </r>
       <r>   -0.3834    1.0000 </r>
       <r>   -0.3542    1.0000 </r>
       <r>   -0.3514    1.0000 </r>
       <r>   -0.3487    1.0000 </r>
       <r>   -0.3453    1.0000 </r>
       <r>   -0.3423    1.0000 </r>
       <r>   -0.3265    1.0000 </r>
       <r>   -0.3260    1.0000 </r>
       <r>   -0.3257    1.0000 </r>
       <r>   -0.3254    1.0000 </r>
       <r>   -0.2757    1.0000 </r>
       <r>   -0.2628    1.0000 </r>
       <r>   -0.2580    1.0000 </r>
       <r>   -0.2566    1.0000 </r>
       <r>   -0.2558    1.0000 </r>
       <r>   -0.2534    1.0000 </r>
       <r>   -0.2459    1.0000 </r>
       <r>   -0.2248    1.0000 </r>
       <r>   -0.2241    1.0000 </r>
       <r>   -0.2148    1.0000 </r>
       <r>   -0.2086    1.0000 </r>
       <r>   -0.1407    1.0000 </r>
       <r>   -0.1403    1.0000 </r>
       <r>   -0.0451    1.0000 </r>
       <r>   -0.0059    1.0000 </r>
       <r>    0.0017    1.0000 </r>
       <r>    0.0097    1.0000 </r>
       <r>    0.0117    1.0000 </r>
       <r>    0.0175    1.0000 </r>
       <r>    0.0188    1.0000 </r>
       <r>    0.0341    1.0000 </r>
       <r>    0.0347    1.0000 </r>
       <r>    0.0744    1.0000 </r>
       <r>    0.1875    1.0000 </r>
       <r>    0.2889    1.0000 </r>
       <r>    0.3189    1.0000 </r>
       <r>    0.3430    1.0000 </r>
       <r>    0.3446    1.0000 </r>
       <r>    0.3458    1.0000 </r>
       <r>    0.3500    1.0000 </r>
       <r>    0.3749    1.0000 </r>
       <r>    0.3972    1.0000 </r>
       <r>    0.4529    1.0000 </r>
       <r>    0.4766    1.0000 </r>
       <r>    0.4773    1.0000 </r>
       <r>    0.4895    1.0000 </r>
       <r>    0.5103    1.0000 </r>
       <r>    0.5573    1.0000 </r>
       <r>    0.5588    1.0000 </r>
       <r>    0.5660    1.0000 </r>
       <r>    0.5829    1.0000 </r>
       <r>    0.5879    1.0000 </r>
       <r>    0.5967    1.0000 </r>
       <r>    0.6199    1.0000 </r>
       <r>    0.6357    1.0000 </r>
       <r>    0.6570    1.0000 </r>
       <r>    0.6942    1.0000 </r>
       <r>    0.7031    1.0000 </r>
       <r>    0.7336    1.0000 </r>
       <r>    0.7364    1.0000 </r>
       <r>    0.8558    1.0000 </r>
       <r>    0.8558    1.0000 </r>
       <r>    0.8583    1.0000 </r>
       <r>    0.8625    1.0000 </r>
       <r>    0.8644    1.0000 </r>
       <r>    0.8669    1.0000 </r>
       <r>    0.8688    1.0000 </r>
       <r>    0.8745    1.0000 </r>
       <r>    0.8760    1.0000 </r>
       <r>    0.8770    1.0000 </r>
       <r>    0.8844    1.0000 </r>
       <r>    0.8888    1.0000 </r>
       <r>    0.8951    1.0000 </r>
       <r>    0.8958    1.0000 </r>
       <r>    0.9059    1.0000 </r>
       <r>    0.9090    1.0000 </r>
       <r>    0.9941    1.0000 </r>
       <r>    1.0025    1.0000 </r>
       <r>    1.0600    1.0000 </r>
       <r>    1.0656    1.0000 </r>
       <r>    1.0775    1.0000 </r>
       <r>    1.0786    1.0000 </r>
       <r>    1.0949    1.0000 </r>
       <r>    1.0954    1.0000 </r>
       <r>    1.1079    1.0000 </r>
       <r>    1.1086    1.0000 </r>
       <r>    1.1180    1.0000 </r>
       <r>    1.2576    1.0000 </r>
       <r>    1.2637    1.0000 </r>
       <r>    1.3108    1.0000 </r>
       <r>    1.4353    1.0000 </r>
       <r>    1.4547    1.0000 </r>
       <r>    1.4562    1.0000 </r>
       <r>    1.4711    1.0000 </r>
       <r>    1.6007    1.0000 </r>
       <r>    1.6024    1.0000 </r>
       <r>    1.6059    1.0000 </r>
       <r>    1.6067    1.0000 </r>
       <r>    1.6163    1.0000 </r>
       <r>    1.6253    1.0000 </r>
       <r>    1.6575    1.0000 </r>
       <r>    1.6681    1.0000 </r>
       <r>    1.7126    1.0000 </r>
       <r>    1.7140    1.0000 </r>
       <r>    1.7690    1.0000 </r>
       <r>    1.7736    1.0000 </r>
       <r>    1.8458    1.0000 </r>
       <r>    1.8516    1.0000 </r>
       <r>    1.8546    1.0000 </r>
       <r>    1.8626    1.0000 </r>
       <r>    1.8656    1.0000 </r>
       <r>    1.8706    1.0000 </r>
       <r>    1.8777    1.0000 </r>
       <r>    1.8786    1.0000 </r>
       <r>    1.9906    1.0000 </r>
       <r>    2.0037    1.0000 </r>
       <r>    2.1881    1.0000 </r>
       <r>    2.1897    1.0000 </r>
       <r>    2.1965    1.0000 </r>
       <r>    2.2001    1.0000 </r>
       <r>    2.2089    1.0000 </r>
       <r>    2.2117    1.0000 </r>
       <r>    2.3800    1.0000 </r>
       <r>    2.3817    1.0000 </r>
       <r>    2.3890    1.0000 </r>
       <r>    2.3892    1.0000 </r>
       <r>    5.5465    0.0000 </r>
       <r>    6.6591    0.0000 </r>
       <r>    6.6756    0.0000 </r>
       <r>    6.6834    0.0000 </r>
       <r>    6.7935    0.0000 </r>
       <r>    6.8855    0.0000 </r>
       <r>    6.9409    0.0000 </r>
       <r>    7.0097    0.0000 </r>
       <r>    7.0225    0.0000 </r>
       <r>    7.0450    0.0000 </r>
       <r>    7.0544    0.0000 </r>
       <r>    7.0763    0.0000 </r>
       <r>    7.0869    0.0000 </r>
       <r>    7.1084    0.0000 </r>
       <r>    7.1178    0.0000 </r>
       <r>    7.1457    0.0000 </r>
       <r>    7.1463    0.0000 </r>
       <r>    7.2568    0.0000 </r>
       <r>    7.2662    0.0000 </r>
       <r>    7.2667    0.0000 </r>
       <r>    7.2860    0.0000 </r>
       <r>    7.2866    0.0000 </r>
       <r>    7.4410    0.0000 </r>
       <r>    7.4578    0.0000 </r>
       <r>    7.4660    0.0000 </r>
       <r>    7.4807    0.0000 </r>
       <r>    7.4888    0.0000 </r>
       <r>    7.5710    0.0000 </r>
       <r>    7.5744    0.0000 </r>
       <r>    7.6374    0.0000 </r>
       <r>    7.6484    0.0000 </r>
       <r>    7.6614    0.0000 </r>
       <r>    7.6654    0.0000 </r>
       <r>    7.6656    0.0000 </r>
       <r>    7.6672    0.0000 </r>
       <r>    7.6819    0.0000 </r>
       <r>    7.7179    0.0000 </r>
       <r>    7.7328    0.0000 </r>
       <r>    7.7349    0.0000 </r>
       <r>    7.7952    0.0000 </r>
       <r>    7.8477    0.0000 </r>
       <r>    7.8816    0.0000 </r>
       <r>    7.8991    0.0000 </r>
       <r>    7.9718    0.0000 </r>
       <r>    7.9787    0.0000 </r>
       <r>    8.0058    0.0000 </r>
       <r>    8.0066    0.0000 </r>
       <r>    8.0970    0.0000 </r>
       <r>    8.1000    0.0000 </r>
       <r>    8.1131    0.0000 </r>
       <r>    8.2083    0.0000 </r>
       <r>    8.2293    0.0000 </r>
       <r>    8.2534    0.0000 </r>
       <r>    8.2894    0.0000 </r>
       <r>    8.3388    0.0000 </r>
       <r>    8.3424    0.0000 </r>
       <r>    8.3668    0.0000 </r>
       <r>    8.4741    0.0000 </r>
       <r>    8.4833    0.0000 </r>
       <r>    8.4908    0.0000 </r>
       <r>    8.4949    0.0000 </r>
       <r>    8.4981    0.0000 </r>
       <r>    8.5093    0.0000 </r>
       <r>    8.5106    0.0000 </r>
       <r>    8.5112    0.0000 </r>
       <r>    8.5324    0.0000 </r>
       <r>    8.5702    0.0000 </r>
       <r>    8.6011    0.0000 </r>
       <r>    8.6269    0.0000 </r>
       <r>    8.7874    0.0000 </r>
       <r>    8.8301    0.0000 </r>
       <r>    8.9034    0.0000 </r>
       <r>    8.9105    0.0000 </r>
       <r>    8.9314    0.0000 </r>
       <r>    9.0002    0.0000 </r>
       <r>    9.0079    0.0000 </r>
       <r>    9.0114    0.0000 </r>
       <r>    9.0200    0.0000 </r>
       <r>    9.0206    0.0000 </r>
       <r>    9.0241    0.0000 </r>
       <r>    9.0313    0.0000 </r>
       <r>    9.1313    0.0000 </r>
       <r>    9.1446    0.0000 </r>
       <r>    9.1637    0.0000 </r>
       <r>    9.1660    0.0000 </r>
       <r>    9.1849    0.0000 </r>
       <r>    9.2075    0.0000 </r>
       <r>    9.2102    0.0000 </r>
       <r>    9.2135    0.0000 </r>
       <r>    9.3689    0.0000 </r>
       <r>    9.4075    0.0000 </r>
       <r>    9.4126    0.0000 </r>
       <r>    9.4320    0.0000 </r>
       <r>    9.4434    0.0000 </r>
       <r>    9.4492    0.0000 </r>
       <r>    9.5845    0.0000 </r>
       <r>    9.6017    0.0000 </r>
       <r>    9.6034    0.0000 </r>
       <r>    9.6063    0.0000 </r>
       <r>    9.6075    0.0000 </r>
       <r>    9.6386    0.0000 </r>
       <r>    9.6657    0.0000 </r>
       <r>    9.7120    0.0000 </r>
       <r>    9.7129    0.0000 </r>
       <r>    9.7136    0.0000 </r>
       <r>    9.7300    0.0000 </r>
       <r>    9.7696    0.0000 </r>
       <r>    9.7873    0.0000 </r>
       <r>    9.8365    0.0000 </r>
       <r>    9.8368    0.0000 </r>
       <r>    9.9244    0.0000 </r>
       <r>    9.9268    0.0000 </r>
       <r>    9.9646    0.0000 </r>
       <r>    9.9699    0.0000 </r>
       <r>    9.9718    0.0000 </r>
       <r>   10.0346    0.0000 </r>
       <r>   10.0714    0.0000 </r>
       <r>   10.1158    0.0000 </r>
       <r>   10.1339    0.0000 </r>
       <r>   10.3114    0.0000 </r>
       <r>   10.3481    0.0000 </r>
       <r>   10.4267    0.0000 </r>
       <r>   10.4283    0.0000 </r>
       <r>   10.5265    0.0000 </r>
       <r>   10.5274    0.0000 </r>
       <r>   10.5498    0.0000 </r>
       <r>   10.5540    0.0000 </r>
       <r>   10.8987    0.0000 </r>
       <r>   10.9998    0.0000 </r>
       <r>   11.2082    0.0000 </r>
       <r>   11.2112    0.0000 </r>
       <r>   11.2971    0.0000 </r>
       <r>   11.4124    0.0000 </r>
       <r>   11.4183    0.0000 </r>
       <r>   11.4333    0.0000 </r>
       <r>   11.4491    0.0000 </r>
       <r>   11.5172    0.0000 </r>
       <r>   11.5388    0.0000 </r>
       <r>   11.5650    0.0000 </r>
       <r>   11.5833    0.0000 </r>
       <r>   11.5866    0.0000 </r>
       <r>   11.5955    0.0000 </r>
       <r>   11.6135    0.0000 </r>
       <r>   11.6469    0.0000 </r>
       <r>   11.6654    0.0000 </r>
       <r>   11.7428    0.0000 </r>
       <r>   11.8126    0.0000 </r>
       <r>   11.8843    0.0000 </r>
       <r>   11.9347    0.0000 </r>
       <r>   11.9525    0.0000 </r>
       <r>   11.9818    0.0000 </r>
       <r>   12.0279    0.0000 </r>
      </set>
     </set>
    </set>
   </array>
  </eigenvalues>
  <separator name="orbital magnetization" >
   <v name="MAGDIPOLOUT">      0.00000000      0.00000000      0.00000000</v>
  </separator>
  <dos>
   <i name="efermi">      2.78538286 </i>
   <total>
    <array>
     <dimension dim="1">gridpoints</dimension>
     <dimension dim="2">spin</dimension>
     <field>energy</field>
     <field>total</field>
     <field>integrated</field>
     <set>
      <set comment="spin 1">
       <r>   -18.7779     0.0000     0.0000 </r>
       <r>   -18.6691     0.0000     0.0000 </r>
       <r>   -18.5603     0.0000     0.0000 </r>
       <r>   -18.4514     0.0000     0.0000 </r>
       <r>   -18.3426     0.0000     0.0000 </r>
       <r>   -18.2337     0.0000     0.0000 </r>
       <r>   -18.1249     0.0000     0.0000 </r>
       <r>   -18.0161     0.0000     0.0000 </r>
       <r>   -17.9072     0.0000     0.0000 </r>
       <r>   -17.7984     0.0000     0.0000 </r>
       <r>   -17.6896     0.0000     0.0000 </r>
       <r>   -17.5807     0.0000     0.0000 </r>
       <r>   -17.4719     0.0000     0.0000 </r>
       <r>   -17.3631     0.4557     0.0496 </r>
       <r>   -17.2542    15.4868     1.7351 </r>
       <r>   -17.1454     2.4333     2.0000 </r>
       <r>   -17.0365     0.0003     2.0000 </r>
       <r>   -16.9277     0.0000     2.0000 </r>
       <r>   -16.8189     0.0000     2.0000 </r>
       <r>   -16.7100     0.0000     2.0000 </r>
       <r>   -16.6012     0.0000     2.0000 </r>
       <r>   -16.4924     0.0000     2.0000 </r>
       <r>   -16.3835     0.0000     2.0000 </r>
       <r>   -16.2747     0.0000     2.0000 </r>
       <r>   -16.1658     0.0000     2.0000 </r>
       <r>   -16.0570     0.0000     2.0000 </r>
       <r>   -15.9482     0.0000     2.0000 </r>
       <r>   -15.8393     0.5006     2.0545 </r>
       <r>   -15.7305    22.2279     4.4737 </r>
       <r>   -15.6217    14.4131     6.0424 </r>
       <r>   -15.5128     4.0780     6.4862 </r>
       <r>   -15.4040    10.6382     7.6441 </r>
       <r>   -15.2952    23.8231    10.2369 </r>
       <r>   -15.1863    44.9666    15.1309 </r>
       <r>   -15.0775    44.3798    19.9611 </r>
       <r>   -14.9686    56.1114    26.0681 </r>
       <r>   -14.8598    60.5546    32.6587 </r>
       <r>   -14.7510    62.0309    39.4099 </r>
       <r>   -14.6421    36.5971    43.3930 </r>
       <r>   -14.5333    54.1637    49.2880 </r>
       <r>   -14.4245    69.5383    56.8564 </r>
       <r>   -14.3156    59.9303    63.3790 </r>
       <r>   -14.2068    75.7495    71.6233 </r>
       <r>   -14.0979    58.5820    77.9992 </r>
       <r>   -13.9891    35.0761    81.8168 </r>
       <r>   -13.8803    36.5757    85.7976 </r>
       <r>   -13.7714    68.8658    93.2927 </r>
       <r>   -13.6626   111.1796   105.3932 </r>
       <r>   -13.5538    67.5271   112.7426 </r>
       <r>   -13.4449    58.4282   119.1017 </r>
       <r>   -13.3361    63.7554   126.0407 </r>
       <r>   -13.2272    50.1521   131.4991 </r>
       <r>   -13.1184    40.8666   135.9469 </r>
       <r>   -13.0096    97.3614   146.5434 </r>
       <r>   -12.9007    87.4224   156.0582 </r>
       <r>   -12.7919   150.3815   172.4253 </r>
       <r>   -12.6831    59.3757   178.8875 </r>
       <r>   -12.5742    71.3952   186.6580 </r>
       <r>   -12.4654    82.6900   195.6577 </r>
       <r>   -12.3566    74.2326   203.7369 </r>
       <r>   -12.2477   163.8013   221.5645 </r>
       <r>   -12.1389   201.7207   243.5192 </r>
       <r>   -12.0300   118.2443   256.3886 </r>
       <r>   -11.9212    56.1339   262.4980 </r>
       <r>   -11.8124    63.0291   269.3579 </r>
       <r>   -11.7035    95.3747   279.7382 </r>
       <r>   -11.5947    56.0828   285.8421 </r>
       <r>   -11.4859    13.5078   287.3122 </r>
       <r>   -11.3770     6.2759   287.9953 </r>
       <r>   -11.2682     0.0435   288.0000 </r>
       <r>   -11.1593     0.0000   288.0000 </r>
       <r>   -11.0505     0.0000   288.0000 </r>
       <r>   -10.9417     0.0000   288.0000 </r>
       <r>   -10.8328     0.0000   288.0000 </r>
       <r>   -10.7240     0.0000   288.0000 </r>
       <r>   -10.6152     0.0000   288.0000 </r>
       <r>   -10.5063     0.0000   288.0000 </r>
       <r>   -10.3975     0.0000   288.0000 </r>
       <r>   -10.2887     0.0000   288.0000 </r>
       <r>   -10.1798     0.0000   288.0000 </r>
       <r>   -10.0710     0.0000   288.0000 </r>
       <r>    -9.9621     0.0000   288.0000 </r>
       <r>    -9.8533     0.0000   288.0000 </r>
       <r>    -9.7445     0.0000   288.0000 </r>
       <r>    -9.6356     0.0000   288.0000 </r>
       <r>    -9.5268     0.0000   288.0000 </r>
       <r>    -9.4180     0.0000   288.0000 </r>
       <r>    -9.3091     0.0000   288.0000 </r>
       <r>    -9.2003     0.0000   288.0000 </r>
       <r>    -9.0914     0.0000   288.0000 </r>
       <r>    -8.9826     0.0000   288.0000 </r>
       <r>    -8.8738     0.0000   288.0000 </r>
       <r>    -8.7649     0.0000   288.0000 </r>
       <r>    -8.6561     0.0000   288.0000 </r>
       <r>    -8.5473     0.0000   288.0000 </r>
       <r>    -8.4384     0.3760   288.0409 </r>
       <r>    -8.3296    15.1267   289.6873 </r>
       <r>    -8.2208     2.8729   290.0000 </r>
       <r>    -8.1119     0.0004   290.0000 </r>
       <r>    -8.0031     0.0000   290.0000 </r>
       <r>    -7.8942     0.0000   290.0000 </r>
       <r>    -7.7854     0.0000   290.0000 </r>
       <r>    -7.6766     0.0000   290.0000 </r>
       <r>    -7.5677     0.0000   290.0000 </r>
       <r>    -7.4589     0.0011   290.0001 </r>
       <r>    -7.3501     3.1201   290.3397 </r>
       <r>    -7.2412    29.2210   293.5200 </r>
       <r>    -7.1324     4.4092   293.9999 </r>
       <r>    -7.0235     0.0008   294.0000 </r>
       <r>    -6.9147     0.0042   294.0005 </r>
       <r>    -6.8059     5.0498   294.5501 </r>
       <r>    -6.6970    21.5496   296.8955 </r>
       <r>    -6.5882    22.6134   299.3566 </r>
       <r>    -6.4794    34.6674   303.1297 </r>
       <r>    -6.3705    41.9215   307.6923 </r>
       <r>    -6.2617   123.3486   321.1172 </r>
       <r>    -6.1528   132.5382   335.5423 </r>
       <r>    -6.0440    65.9079   342.7155 </r>
       <r>    -5.9352    41.1866   347.1981 </r>
       <r>    -5.8263    61.3978   353.8804 </r>
       <r>    -5.7175   172.2508   372.6277 </r>
       <r>    -5.6087   175.7620   391.7571 </r>
       <r>    -5.4998    89.7418   401.5243 </r>
       <r>    -5.3910    12.7654   402.9137 </r>
       <r>    -5.2822    13.3751   404.3694 </r>
       <r>    -5.1733   151.3892   420.8461 </r>
       <r>    -5.0645   109.0945   432.7196 </r>
       <r>    -4.9556    42.3075   437.3242 </r>
       <r>    -4.8468    27.8555   440.3559 </r>
       <r>    -4.7380    21.2809   442.6721 </r>
       <r>    -4.6291    15.7747   444.3890 </r>
       <r>    -4.5203    50.5213   449.8875 </r>
       <r>    -4.4115   151.8738   466.4170 </r>
       <r>    -4.3026    95.1857   476.7767 </r>
       <r>    -4.1938    33.2386   480.3943 </r>
       <r>    -4.0849    64.2108   487.3828 </r>
       <r>    -3.9761    96.3870   497.8733 </r>
       <r>    -3.8673    69.8462   505.4751 </r>
       <r>    -3.7584    23.0896   507.9881 </r>
       <r>    -3.6496    28.7601   511.1183 </r>
       <r>    -3.5408   121.8748   524.3828 </r>
       <r>    -3.4319   128.9562   538.4180 </r>
       <r>    -3.3231    81.9132   547.3331 </r>
       <r>    -3.2143    41.2021   551.8175 </r>
       <r>    -3.1054    74.8499   559.9639 </r>
       <r>    -2.9966   117.4886   572.7510 </r>
       <r>    -2.8877   140.6484   588.0587 </r>
       <r>    -2.7789   120.9251   601.2198 </r>
       <r>    -2.6701   127.4705   615.0933 </r>
       <r>    -2.5612    52.6264   620.8210 </r>
       <r>    -2.4524    63.9794   627.7844 </r>
       <r>    -2.3436   150.5566   644.1705 </r>
       <r>    -2.2347   125.3353   657.8116 </r>
       <r>    -2.1259   115.1115   670.3400 </r>
       <r>    -2.0170   149.0684   686.5641 </r>
       <r>    -1.9082   130.8103   700.8011 </r>
       <r>    -1.7994   179.9540   720.3867 </r>
       <r>    -1.6905   193.1153   741.4048 </r>
       <r>    -1.5817   187.8438   761.8492 </r>
       <r>    -1.4729   170.2305   780.3765 </r>
       <r>    -1.3640   102.6862   791.5526 </r>
       <r>    -1.2552    77.4306   799.9799 </r>
       <r>    -1.1464   190.7987   820.7458 </r>
       <r>    -1.0375   131.1193   835.0164 </r>
       <r>    -0.9287    83.6355   844.1191 </r>
       <r>    -0.8198   110.2438   856.1177 </r>
       <r>    -0.7110   110.6234   868.1576 </r>
       <r>    -0.6022   103.5678   879.4296 </r>
       <r>    -0.4933    77.7779   887.8947 </r>
       <r>    -0.3845   172.7464   906.6959 </r>
       <r>    -0.2757   181.8068   926.4832 </r>
       <r>    -0.1668    99.5893   937.3222 </r>
       <r>    -0.0580    46.8286   942.4188 </r>
       <r>     0.0509    82.2404   951.3696 </r>
       <r>     0.1597    50.7657   956.8948 </r>
       <r>     0.2685   126.1464   970.6242 </r>
       <r>     0.3774   128.6337   984.6243 </r>
       <r>     0.4862   111.4543   996.7547 </r>
       <r>     0.5950   100.7479  1007.7197 </r>
       <r>     0.7039    96.2019  1018.1901 </r>
       <r>     0.8127    71.4790  1025.9696 </r>
       <r>     0.9216   153.5938  1042.6863 </r>
       <r>     1.0304    92.1936  1052.7204 </r>
       <r>     1.1392    94.1580  1062.9682 </r>
       <r>     1.2481    80.6616  1071.7472 </r>
       <r>     1.3569    88.9851  1081.4321 </r>
       <r>     1.4657    70.1042  1089.0620 </r>
       <r>     1.5746    57.6090  1095.3320 </r>
       <r>     1.6834    74.3151  1103.4202 </r>
       <r>     1.7922    58.2723  1109.7624 </r>
       <r>     1.9011   115.7177  1122.3567 </r>
       <r>     2.0099    81.7713  1131.2565 </r>
       <r>     2.1188    48.4899  1136.5340 </r>
       <r>     2.2276    44.0568  1141.3290 </r>
       <r>     2.3364    22.5396  1143.7821 </r>
       <r>     2.4453    61.4784  1150.4732 </r>
       <r>     2.5541    13.3746  1151.9289 </r>
       <r>     2.6629     0.6533  1152.0000 </r>
       <r>     2.7718     0.0000  1152.0000 </r>
       <r>     2.8806     0.0000  1152.0000 </r>
       <r>     2.9895     0.0000  1152.0000 </r>
       <r>     3.0983     0.0000  1152.0000 </r>
       <r>     3.2071     0.0000  1152.0000 </r>
       <r>     3.3160     0.0000  1152.0000 </r>
       <r>     3.4248     0.0000  1152.0000 </r>
       <r>     3.5336     0.0000  1152.0000 </r>
       <r>     3.6425     0.0000  1152.0000 </r>
       <r>     3.7513     0.0000  1152.0000 </r>
       <r>     3.8601     0.0000  1152.0000 </r>
       <r>     3.9690     0.0000  1152.0000 </r>
       <r>     4.0778     0.0000  1152.0000 </r>
       <r>     4.1867     0.0000  1152.0000 </r>
       <r>     4.2955     0.0000  1152.0000 </r>
       <r>     4.4043     0.0000  1152.0000 </r>
       <r>     4.5132     0.0003  1152.0000 </r>
       <r>     4.6220     2.6125  1152.2844 </r>
       <r>     4.7308    15.3407  1153.9540 </r>
       <r>     4.8397     0.4227  1154.0000 </r>
       <r>     4.9485     0.0000  1154.0000 </r>
       <r>     5.0574     0.0000  1154.0000 </r>
       <r>     5.1662     0.0000  1154.0000 </r>
       <r>     5.2750     0.0000  1154.0000 </r>
       <r>     5.3839     0.0000  1154.0000 </r>
       <r>     5.4927     0.0000  1154.0000 </r>
       <r>     5.6015     0.0000  1154.0000 </r>
       <r>     5.7104     0.0000  1154.0000 </r>
       <r>     5.8192     0.3400  1154.0370 </r>
       <r>     5.9280    13.4209  1155.4977 </r>
       <r>     6.0369     4.6112  1155.9996 </r>
       <r>     6.1457     0.0040  1156.0000 </r>
       <r>     6.2546     0.0000  1156.0000 </r>
       <r>     6.3634     0.0026  1156.0003 </r>
       <r>     6.4722     3.2565  1156.3547 </r>
       <r>     6.5811    10.8693  1157.5377 </r>
       <r>     6.6899    38.1933  1161.6945 </r>
       <r>     6.7987     7.6357  1162.5256 </r>
       <r>     6.9076    20.7401  1164.7829 </r>
       <r>     7.0164    37.7489  1168.8913 </r>
       <r>     7.1253    69.7543  1176.4832 </r>
       <r>     7.2341    65.3815  1183.5991 </r>
       <r>     7.3429   100.5354  1194.5411 </r>
       <r>     7.4518    95.8802  1204.9764 </r>
       <r>     7.5606    47.5532  1210.1519 </r>
       <r>     7.6694    65.8747  1217.3215 </r>
       <r>     7.7783    93.0793  1227.4520 </r>
       <r>     7.8871    86.4272  1236.8584 </r>
       <r>     7.9960    85.0625  1246.1164 </r>
       <r>     8.1048    49.9201  1251.5495 </r>
       <r>     8.2136    74.0659  1259.6106 </r>
       <r>     8.3225    74.6016  1267.7300 </r>
       <r>     8.4313    56.9345  1273.9266 </r>
       <r>     8.5401    82.8943  1282.9486 </r>
       <r>     8.6490    67.3923  1290.2833 </r>
       <r>     8.7578    47.7179  1295.4768 </r>
       <r>     8.8666    22.8274  1297.9613 </r>
       <r>     8.9755    45.3345  1302.8954 </r>
       <r>     9.0843    70.4696  1310.5650 </r>
       <r>     9.1932    69.3537  1318.1133 </r>
       <r>     9.3020    99.3102  1328.9219 </r>
       <r>     9.4108    69.8172  1336.5206 </r>
       <r>     9.5197    42.6027  1341.1573 </r>
       <r>     9.6285    65.7870  1348.3174 </r>
       <r>     9.7373    71.7385  1356.1252 </r>
       <r>     9.8462    40.7176  1360.5568 </r>
       <r>     9.9550    38.9453  1364.7954 </r>
       <r>    10.0639    44.9646  1369.6893 </r>
       <r>    10.1727    84.8230  1378.9211 </r>
       <r>    10.2815    63.1634  1385.7956 </r>
       <r>    10.3904    56.4829  1391.9431 </r>
       <r>    10.4992    72.8527  1399.8721 </r>
       <r>    10.6080    65.2176  1406.9702 </r>
       <r>    10.7169    42.6146  1411.6083 </r>
       <r>    10.8257    72.9030  1419.5428 </r>
       <r>    10.9345    37.4348  1423.6171 </r>
       <r>    11.0434    14.6111  1425.2073 </r>
       <r>    11.1522     1.2010  1425.3380 </r>
       <r>    11.2611    23.0998  1427.8521 </r>
       <r>    11.3699    18.9913  1429.9191 </r>
       <r>    11.4787    33.8045  1433.5983 </r>
       <r>    11.5876    49.0846  1438.9405 </r>
       <r>    11.6964    53.7297  1444.7883 </r>
       <r>    11.8052    46.4234  1449.8408 </r>
       <r>    11.9141    28.6520  1452.9592 </r>
       <r>    12.0229    14.5195  1454.5395 </r>
       <r>    12.1318     8.1674  1455.4284 </r>
       <r>    12.2406     1.6631  1455.6094 </r>
       <r>    12.3494     1.5897  1455.7824 </r>
       <r>    12.4583     1.9414  1455.9937 </r>
       <r>    12.5671     0.0576  1456.0000 </r>
       <r>    12.6759     0.0000  1456.0000 </r>
       <r>    12.7848     0.0000  1456.0000 </r>
       <r>    12.8936     0.0000  1456.0000 </r>
       <r>    13.0024     0.0000  1456.0000 </r>
       <r>    13.1113     0.0000  1456.0000 </r>
       <r>    13.2201     0.0000  1456.0000 </r>
       <r>    13.3290     0.0000  1456.0000 </r>
       <r>    13.4378     0.0000  1456.0000 </r>
       <r>    13.5466     0.0000  1456.0000 </r>
       <r>    13.6555     0.0000  1456.0000 </r>
       <r>    13.7643     0.0000  1456.0000 </r>
       <r>    13.8731     0.0000  1456.0000 </r>
      </set>
      <set comment="spin 2">
       <r>   -18.7779     0.0000     0.0000 </r>
       <r>   -18.6691     0.0000     0.0000 </r>
       <r>   -18.5603     0.0000     0.0000 </r>
       <r>   -18.4514     0.0000     0.0000 </r>
       <r>   -18.3426     0.0000     0.0000 </r>
       <r>   -18.2337     0.0000     0.0000 </r>
       <r>   -18.1249     0.0000     0.0000 </r>
       <r>   -18.0161     0.0000     0.0000 </r>
       <r>   -17.9072     0.0000     0.0000 </r>
       <r>   -17.7984     0.0000     0.0000 </r>
       <r>   -17.6896     0.0000     0.0000 </r>
       <r>   -17.5807     0.0000     0.0000 </r>
       <r>   -17.4719     0.0000     0.0000 </r>
       <r>   -17.3631     0.0000     0.0000 </r>
       <r>   -17.2542     0.1157     0.0126 </r>
       <r>   -17.1454    13.1183     1.4403 </r>
       <r>   -17.0365     5.1398     1.9997 </r>
       <r>   -16.9277     0.0023     2.0000 </r>
       <r>   -16.8189     0.0000     2.0000 </r>
       <r>   -16.7100     0.0000     2.0000 </r>
       <r>   -16.6012     0.0000     2.0000 </r>
       <r>   -16.4924     0.0000     2.0000 </r>
       <r>   -16.3835     0.0000     2.0000 </r>
       <r>   -16.2747     0.0000     2.0000 </r>
       <r>   -16.1658     0.0000     2.0000 </r>
       <r>   -16.0570     0.0000     2.0000 </r>
       <r>   -15.9482     0.0000     2.0000 </r>
       <r>   -15.8393     0.0446     2.0049 </r>
       <r>   -15.7305    10.9570     3.1974 </r>
       <r>   -15.6217    25.1031     5.9295 </r>
       <r>   -15.5128     5.0262     6.4766 </r>
       <r>   -15.4040     9.9505     7.5595 </r>
       <r>   -15.2952    21.4830     9.8977 </r>
       <r>   -15.1863    47.2388    15.0390 </r>
       <r>   -15.0775    42.2018    19.6321 </r>
       <r>   -14.9686    58.7017    26.0210 </r>
       <r>   -14.8598    59.6982    32.5184 </r>
       <r>   -14.7510    61.8830    39.2536 </r>
       <r>   -14.6421    37.1287    43.2945 </r>
       <r>   -14.5333    52.4285    49.0007 </r>
       <r>   -14.4245    71.3810    56.7696 </r>
       <r>   -14.3156    59.5999    63.2562 </r>
       <r>   -14.2068    76.2214    71.5519 </r>
       <r>   -14.0979    58.2206    77.8885 </r>
       <r>   -13.9891    35.2780    81.7280 </r>
       <r>   -13.8803    36.5969    85.7111 </r>
       <r>   -13.7714    67.9692    93.1087 </r>
       <r>   -13.6626   112.1776   105.3178 </r>
       <r>   -13.5538    67.4564   112.6595 </r>
       <r>   -13.4449    58.9586   119.0764 </r>
       <r>   -13.3361    62.7087   125.9014 </r>
       <r>   -13.2272    50.5804   131.4064 </r>
       <r>   -13.1184    41.3039   135.9018 </r>
       <r>   -13.0096    97.1593   146.4763 </r>
       <r>   -12.9007    86.3409   155.8734 </r>
       <r>   -12.7919   151.8469   172.4000 </r>
       <r>   -12.6831    59.0379   178.8255 </r>
       <r>   -12.5742    71.4791   186.6050 </r>
       <r>   -12.4654    82.5133   195.5855 </r>
       <r>   -12.3566    74.4161   203.6847 </r>
       <r>   -12.2477   164.0550   221.5400 </r>
       <r>   -12.1389   201.6384   243.4857 </r>
       <r>   -12.0300   118.4339   256.3757 </r>
       <r>   -11.9212    56.0854   262.4798 </r>
       <r>   -11.8124    63.0341   269.3403 </r>
       <r>   -11.7035    95.5243   279.7368 </r>
       <r>   -11.5947    56.0613   285.8384 </r>
       <r>   -11.4859    13.5395   287.3120 </r>
       <r>   -11.3770     6.2782   287.9953 </r>
       <r>   -11.2682     0.0435   288.0000 </r>
       <r>   -11.1593     0.0000   288.0000 </r>
       <r>   -11.0505     0.0000   288.0000 </r>
       <r>   -10.9417     0.0000   288.0000 </r>
       <r>   -10.8328     0.0000   288.0000 </r>
       <r>   -10.7240     0.0000   288.0000 </r>
       <r>   -10.6152     0.0000   288.0000 </r>
       <r>   -10.5063     0.0000   288.0000 </r>
       <r>   -10.3975     0.0000   288.0000 </r>
       <r>   -10.2887     0.0000   288.0000 </r>
       <r>   -10.1798     0.0000   288.0000 </r>
       <r>   -10.0710     0.0000   288.0000 </r>
       <r>    -9.9621     0.0000   288.0000 </r>
       <r>    -9.8533     0.0000   288.0000 </r>
       <r>    -9.7445     0.0000   288.0000 </r>
       <r>    -9.6356     0.0000   288.0000 </r>
       <r>    -9.5268     0.0000   288.0000 </r>
       <r>    -9.4180     0.0000   288.0000 </r>
       <r>    -9.3091     0.0000   288.0000 </r>
       <r>    -9.2003     0.0000   288.0000 </r>
       <r>    -9.0914     0.0000   288.0000 </r>
       <r>    -8.9826     0.0000   288.0000 </r>
       <r>    -8.8738     0.0000   288.0000 </r>
       <r>    -8.7649     0.0000   288.0000 </r>
       <r>    -8.6561     0.0000   288.0000 </r>
       <r>    -8.5473     0.0000   288.0000 </r>
       <r>    -8.4384     0.0000   288.0000 </r>
       <r>    -8.3296     0.0000   288.0000 </r>
       <r>    -8.2208     1.1621   288.1265 </r>
       <r>    -8.1119    15.9954   289.8674 </r>
       <r>    -8.0031     1.2185   290.0000 </r>
       <r>    -7.8942     0.0000   290.0000 </r>
       <r>    -7.7854     0.0000   290.0000 </r>
       <r>    -7.6766     0.0000   290.0000 </r>
       <r>    -7.5677     0.0000   290.0000 </r>
       <r>    -7.4589     0.0000   290.0000 </r>
       <r>    -7.3501     0.7170   290.0780 </r>
       <r>    -7.2412    22.1551   292.4893 </r>
       <r>    -7.1324    13.8487   293.9966 </r>
       <r>    -7.0235     0.0314   294.0000 </r>
       <r>    -6.9147     0.0014   294.0001 </r>
       <r>    -6.8059     3.5933   294.3912 </r>
       <r>    -6.6970    21.5317   296.7347 </r>
       <r>    -6.5882    22.4091   299.1736 </r>
       <r>    -6.4794    34.1497   302.8904 </r>
       <r>    -6.3705    42.7227   307.5402 </r>
       <r>    -6.2617   123.2250   320.9516 </r>
       <r>    -6.1528   133.5123   335.4827 </r>
       <r>    -6.0440    66.0875   342.6754 </r>
       <r>    -5.9352    41.3443   347.1752 </r>
       <r>    -5.8263    60.0376   353.7095 </r>
       <r>    -5.7175   171.5281   372.3781 </r>
       <r>    -5.6087   177.4751   391.6940 </r>
       <r>    -5.4998    90.3154   401.5236 </r>
       <r>    -5.3910    12.3492   402.8677 </r>
       <r>    -5.2822    13.2333   404.3079 </r>
       <r>    -5.1733   150.3911   420.6760 </r>
       <r>    -5.0645   107.4973   432.3757 </r>
       <r>    -4.9556    44.0925   437.1746 </r>
       <r>    -4.8468    28.3232   440.2572 </r>
       <r>    -4.7380    22.1051   442.6631 </r>
       <r>    -4.6291    13.9451   444.1808 </r>
       <r>    -4.5203    49.8715   449.6087 </r>
       <r>    -4.4115   154.2220   466.3937 </r>
       <r>    -4.3026    84.6973   475.6119 </r>
       <r>    -4.1938    23.9990   478.2239 </r>
       <r>    -4.0849    71.4123   485.9962 </r>
       <r>    -3.9761   107.4833   497.6943 </r>
       <r>    -3.8673    70.5402   505.3717 </r>
       <r>    -3.7584    22.0034   507.7665 </r>
       <r>    -3.6496    27.0867   510.7145 </r>
       <r>    -3.5408   122.0629   523.9995 </r>
       <r>    -3.4319   128.0225   537.9330 </r>
       <r>    -3.3231    79.1124   546.5434 </r>
       <r>    -3.2143    46.3233   551.5851 </r>
       <r>    -3.1054    70.5562   559.2642 </r>
       <r>    -2.9966   122.3016   572.5751 </r>
       <r>    -2.8877   138.6805   587.6687 </r>
       <r>    -2.7789   111.6922   599.8249 </r>
       <r>    -2.6701   135.6605   614.5898 </r>
       <r>    -2.5612    54.6042   620.5327 </r>
       <r>    -2.4524    63.7000   627.4656 </r>
       <r>    -2.3436   149.4875   643.7354 </r>
       <r>    -2.2347   125.3402   657.3770 </r>
       <r>    -2.1259   116.9355   670.1039 </r>
       <r>    -2.0170   141.9072   685.5487 </r>
       <r>    -1.9082   130.3876   699.7397 </r>
       <r>    -1.7994   184.2114   719.7887 </r>
       <r>    -1.6905   192.2613   740.7138 </r>
       <r>    -1.5817   191.6874   761.5765 </r>
       <r>    -1.4729   169.4855   780.0227 </r>
       <r>    -1.3640   103.0126   791.2343 </r>
       <r>    -1.2552    75.7790   799.4819 </r>
       <r>    -1.1464   190.3794   820.2022 </r>
       <r>    -1.0375   131.6239   834.5277 </r>
       <r>    -0.9287    78.0482   843.0222 </r>
       <r>    -0.8198   117.7970   855.8429 </r>
       <r>    -0.7110   105.2821   867.3015 </r>
       <r>    -0.6022   107.1467   878.9630 </r>
       <r>    -0.4933    79.5182   887.6175 </r>
       <r>    -0.3845   168.4492   905.9510 </r>
       <r>    -0.2757   185.9826   926.1928 </r>
       <r>    -0.1668   101.0827   937.1943 </r>
       <r>    -0.0580    46.3899   942.2432 </r>
       <r>     0.0509    76.2457   950.5416 </r>
       <r>     0.1597    55.0608   956.5342 </r>
       <r>     0.2685   126.3715   970.2881 </r>
       <r>     0.3774   125.4414   983.9408 </r>
       <r>     0.4862   113.3628   996.2788 </r>
       <r>     0.5950   101.9019  1007.3695 </r>
       <r>     0.7039    95.9568  1017.8132 </r>
       <r>     0.8127    73.6377  1025.8277 </r>
       <r>     0.9216   153.3898  1042.5221 </r>
       <r>     1.0304    91.8016  1052.5136 </r>
       <r>     1.1392    93.8757  1062.7307 </r>
       <r>     1.2481    79.0211  1071.3311 </r>
       <r>     1.3569    91.8139  1081.3238 </r>
       <r>     1.4657    68.8027  1088.8121 </r>
       <r>     1.5746    57.4743  1095.0674 </r>
       <r>     1.6834    75.8592  1103.3237 </r>
       <r>     1.7922    58.2155  1109.6597 </r>
       <r>     1.9011   115.9520  1122.2796 </r>
       <r>     2.0099    81.3613  1131.1347 </r>
       <r>     2.1188    49.3960  1136.5108 </r>
       <r>     2.2276    43.7222  1141.2694 </r>
       <r>     2.3364    22.7682  1143.7474 </r>
       <r>     2.4453    61.6313  1150.4552 </r>
       <r>     2.5541    13.5373  1151.9285 </r>
       <r>     2.6629     0.6566  1152.0000 </r>
       <r>     2.7718     0.0000  1152.0000 </r>
       <r>     2.8806     0.0000  1152.0000 </r>
       <r>     2.9895     0.0000  1152.0000 </r>
       <r>     3.0983     0.0000  1152.0000 </r>
       <r>     3.2071     0.0000  1152.0000 </r>
       <r>     3.3160     0.0000  1152.0000 </r>
       <r>     3.4248     0.0000  1152.0000 </r>
       <r>     3.5336     0.0000  1152.0000 </r>
       <r>     3.6425     0.0000  1152.0000 </r>
       <r>     3.7513     0.0000  1152.0000 </r>
       <r>     3.8601     0.0000  1152.0000 </r>
       <r>     3.9690     0.0000  1152.0000 </r>
       <r>     4.0778     0.0000  1152.0000 </r>
       <r>     4.1867     0.0000  1152.0000 </r>
       <r>     4.2955     0.0000  1152.0000 </r>
       <r>     4.4043     0.0000  1152.0000 </r>
       <r>     4.5132     0.0000  1152.0000 </r>
       <r>     4.6220     0.0000  1152.0000 </r>
       <r>     4.7308     0.0000  1152.0000 </r>
       <r>     4.8397     0.0000  1152.0000 </r>
       <r>     4.9485     0.0000  1152.0000 </r>
       <r>     5.0574     0.0000  1152.0000 </r>
       <r>     5.1662     0.0000  1152.0000 </r>
       <r>     5.2750     0.0000  1152.0000 </r>
       <r>     5.3839     0.0000  1152.0000 </r>
       <r>     5.4927     0.9930  1152.1081 </r>
       <r>     5.6015    16.0502  1153.8549 </r>
       <r>     5.7104     1.3328  1154.0000 </r>
       <r>     5.8192     0.0001  1154.0000 </r>
       <r>     5.9280     0.0000  1154.0000 </r>
       <r>     6.0369     0.0000  1154.0000 </r>
       <r>     6.1457     0.0000  1154.0000 </r>
       <r>     6.2546     0.0000  1154.0000 </r>
       <r>     6.3634     0.0000  1154.0000 </r>
       <r>     6.4722     0.6749  1154.0735 </r>
       <r>     6.5811     8.2209  1154.9682 </r>
       <r>     6.6899    28.5447  1158.0749 </r>
       <r>     6.7987    36.3242  1162.0283 </r>
       <r>     6.9076    23.2520  1164.5590 </r>
       <r>     7.0164    35.6579  1168.4399 </r>
       <r>     7.1253    70.7661  1176.1419 </r>
       <r>     7.2341    63.5906  1183.0629 </r>
       <r>     7.3429   101.2495  1194.0825 </r>
       <r>     7.4518    93.4119  1204.2492 </r>
       <r>     7.5606    52.1795  1209.9283 </r>
       <r>     7.6694    63.9189  1216.8850 </r>
       <r>     7.7783    93.3235  1227.0421 </r>
       <r>     7.8871    86.2563  1236.4299 </r>
       <r>     7.9960    84.5980  1245.6373 </r>
       <r>     8.1048    49.1351  1250.9850 </r>
       <r>     8.2136    71.5171  1258.7687 </r>
       <r>     8.3225    78.9408  1267.3604 </r>
       <r>     8.4313    55.4777  1273.3984 </r>
       <r>     8.5401    83.9669  1282.5371 </r>
       <r>     8.6490    67.2699  1289.8586 </r>
       <r>     8.7578    47.3627  1295.0134 </r>
       <r>     8.8666    19.2925  1297.1131 </r>
       <r>     8.9755    43.8944  1301.8905 </r>
       <r>     9.0843    71.8665  1309.7122 </r>
       <r>     9.1932    70.2374  1317.3566 </r>
       <r>     9.3020    90.8393  1327.2433 </r>
       <r>     9.4108    72.1325  1335.0940 </r>
       <r>     9.5197    47.7204  1340.2877 </r>
       <r>     9.6285    58.7907  1346.6863 </r>
       <r>     9.7373    78.0639  1355.1825 </r>
       <r>     9.8462    45.2710  1360.1097 </r>
       <r>     9.9550    38.7400  1364.3260 </r>
       <r>    10.0639    43.7967  1369.0927 </r>
       <r>    10.1727    84.8325  1378.3256 </r>
       <r>    10.2815    63.8399  1385.2738 </r>
       <r>    10.3904    59.0479  1391.7004 </r>
       <r>    10.4992    71.7915  1399.5139 </r>
       <r>    10.6080    66.6506  1406.7680 </r>
       <r>    10.7169    42.8505  1411.4317 </r>
       <r>    10.8257    72.3720  1419.3084 </r>
       <r>    10.9345    37.2017  1423.3574 </r>
       <r>    11.0434    16.5366  1425.1571 </r>
       <r>    11.1522     1.6155  1425.3330 </r>
       <r>    11.2611    21.5070  1427.6737 </r>
       <r>    11.3699    18.7234  1429.7115 </r>
       <r>    11.4787    34.5495  1433.4718 </r>
       <r>    11.5876    52.5377  1439.1898 </r>
       <r>    11.6964    49.4692  1444.5739 </r>
       <r>    11.8052    43.0106  1449.2551 </r>
       <r>    11.9141    26.4789  1452.1369 </r>
       <r>    12.0229    21.3253  1454.4579 </r>
       <r>    12.1318     7.1811  1455.2395 </r>
       <r>    12.2406     0.6948  1455.3151 </r>
       <r>    12.3494     4.1782  1455.7698 </r>
       <r>    12.4583     2.0580  1455.9938 </r>
       <r>    12.5671     0.0567  1456.0000 </r>
       <r>    12.6759     0.0000  1456.0000 </r>
       <r>    12.7848     0.0000  1456.0000 </r>
       <r>    12.8936     0.0000  1456.0000 </r>
       <r>    13.0024     0.0000  1456.0000 </r>
       <r>    13.1113     0.0000  1456.0000 </r>
       <r>    13.2201     0.0000  1456.0000 </r>
       <r>    13.3290     0.0000  1456.0000 </r>
       <r>    13.4378     0.0000  1456.0000 </r>
       <r>    13.5466     0.0000  1456.0000 </r>
       <r>    13.6555     0.0000  1456.0000 </r>
       <r>    13.7643     0.0000  1456.0000 </r>
       <r>    13.8731     0.0000  1456.0000 </r>
      </set>
     </set>
    </array>
   </total>
  </dos>
 </calculation>
 <structure name="finalpos" >
  <crystal>
   <varray name="basis" >
    <v>      14.93631415       0.00000000       0.00000000 </v>
    <v>      -7.46815707      12.93522749      -0.00000000 </v>
    <v>       0.00000000       0.00000000      13.34127628 </v>
   </varray>
   <i name="volume">   2577.59623255 </i>
   <varray name="rec_basis" >
    <v>       0.06695092       0.03865413      -0.00000000 </v>
    <v>       0.00000000       0.07730827      -0.00000000 </v>
    <v>       0.00000000       0.00000000       0.07495535 </v>
   </varray>
  </crystal>
  <varray name="positions" >
   <v>       0.44444444       0.38888889       0.37500000 </v>
   <v>       0.11110578       0.05553988       0.12514209 </v>
   <v>       0.61111893       0.55556454       0.12533815 </v>
   <v>       0.44443410       0.05553988       0.12514209 </v>
   <v>       0.94445577       0.55623423       0.12511237 </v>
   <v>       0.77777778       0.05555556       0.12508750 </v>
   <v>       0.11111111       0.72222222       0.62490204 </v>
   <v>       0.44443410       0.72222755       0.62485791 </v>
   <v>       0.27776879       0.22221440       0.62466185 </v>
   <v>       0.77779345       0.72222755       0.62485791 </v>
   <v>       0.61111409       0.22221925       0.62484996 </v>
   <v>       0.94444599       0.22222938       0.62490241 </v>
   <v>       0.27776861       0.72222439       0.12511237 </v>
   <v>       0.11110516       0.22221925       0.12515004 </v>
   <v>       0.44444561       0.22221440       0.12533815 </v>
   <v>       0.61111409       0.72222817       0.12515004 </v>
   <v>       0.94445577       0.72222439       0.12511237 </v>
   <v>       0.77778339       0.22222938       0.12509759 </v>
   <v>       0.11110895       0.88887756       0.62488763 </v>
   <v>       0.44443273       0.88888303       0.62489877 </v>
   <v>       0.27776879       0.38888773       0.62466185 </v>
   <v>       0.61111893       0.38888773       0.62466185 </v>
   <v>       0.77778339       0.88888734       0.62490241 </v>
   <v>       0.94445030       0.38890061       0.62489877 </v>
   <v>       0.11110578       0.38889924       0.12514209 </v>
   <v>       0.27776861       0.88887756       0.12511237 </v>
   <v>       0.61110395       0.88888734       0.12509759 </v>
   <v>       0.44444444       0.38888889       0.12572567 </v>
   <v>       0.94445030       0.88888303       0.12510123 </v>
   <v>       0.77779345       0.38889924       0.12514209 </v>
   <v>       0.27776995       0.55556338       0.62481384 </v>
   <v>       0.11110578       0.05553988       0.62485791 </v>
   <v>       0.61111893       0.55556454       0.62466185 </v>
   <v>       0.44443410       0.05553988       0.62485791 </v>
   <v>       0.94445577       0.55556472       0.62488763 </v>
   <v>       0.11110895       0.55556472       0.12511237 </v>
   <v>       0.77777778       0.05555556       0.62491250 </v>
   <v>       0.27776995       0.05553990       0.12518616 </v>
   <v>       0.44444561       0.55556454       0.12533815 </v>
   <v>       0.77779343       0.55556338       0.12518616 </v>
   <v>       0.61110395       0.05554994       0.12509759 </v>
   <v>       0.44444561       0.55556454       0.62466185 </v>
   <v>       0.94444599       0.05554994       0.12509759 </v>
   <v>       0.27776861       0.72222439       0.62488763 </v>
   <v>       0.11110516       0.22221925       0.62484996 </v>
   <v>       0.44444561       0.22221440       0.62466185 </v>
   <v>       0.61111409       0.72222817       0.62484996 </v>
   <v>       0.94445577       0.72222439       0.62488763 </v>
   <v>       0.77778339       0.22222938       0.62490241 </v>
   <v>       0.11111111       0.72222222       0.12509796 </v>
   <v>       0.44443410       0.72222755       0.12514209 </v>
   <v>       0.27776879       0.22221440       0.12533815 </v>
   <v>       0.77779345       0.72222755       0.12514209 </v>
   <v>       0.61111409       0.22221925       0.12515004 </v>
   <v>       0.94444599       0.22222938       0.12509759 </v>
   <v>       0.11110578       0.38889924       0.62485791 </v>
   <v>       0.27776861       0.88887756       0.62488763 </v>
   <v>       0.61110395       0.88888734       0.62490241 </v>
   <v>       0.44444444       0.38888889       0.62427433 </v>
   <v>       0.94445030       0.88888303       0.62489877 </v>
   <v>       0.11110895       0.88887756       0.12511237 </v>
   <v>       0.77779345       0.38889924       0.62485791 </v>
   <v>       0.44443273       0.88888303       0.12510123 </v>
   <v>       0.27776879       0.38888773       0.12533815 </v>
   <v>       0.27776995       0.55556338       0.12518616 </v>
   <v>       0.61111893       0.38888773       0.12533815 </v>
   <v>       0.77778339       0.88888734       0.12509759 </v>
   <v>       0.94445030       0.38890061       0.12510123 </v>
   <v>       0.11110895       0.55556472       0.62488763 </v>
   <v>       0.27776995       0.05553990       0.62481384 </v>
   <v>       0.77779343       0.55556338       0.62481384 </v>
   <v>       0.61110395       0.05554994       0.62490241 </v>
   <v>       0.94444599       0.05554994       0.62490241 </v>
   <v>       0.05492459       0.11067225       0.37500000 </v>
   <v>       0.55597948       0.61195895       0.37500000 </v>
   <v>       0.38821178       0.10798614       0.37500000 </v>
   <v>       0.88997050       0.61165191       0.37500000 </v>
   <v>       0.72233166       0.11100168       0.37500000 </v>
   <v>       0.05555347       0.77777986       0.87500000 </v>
   <v>       0.38889499       0.77778040       0.87500000 </v>
   <v>       0.22222211       0.27777772       0.87500000 </v>
   <v>       0.72222208       0.77778036       0.87500000 </v>
   <v>       0.55555561       0.27777772       0.87500000 </v>
   <v>       0.88888780       0.27777560       0.87500000 </v>
   <v>       0.22203010       0.77768172       0.37500000 </v>
   <v>       0.05492459       0.27758567       0.37500000 </v>
   <v>       0.38321436       0.26642872       0.37500000 </v>
   <v>       0.55574766       0.77840874       0.37500000 </v>
   <v>       0.88973042       0.77847773       0.37500000 </v>
   <v>       0.72266108       0.27758567       0.37500000 </v>
   <v>       0.05555294       0.94444793       0.87500000 </v>
   <v>       0.38889499       0.94444793       0.87500000 </v>
   <v>       0.22222295       0.44443974       0.87500000 </v>
   <v>       0.55555250       0.44444291       0.87500000 </v>
   <v>       0.72222259       0.94444517       0.87500000 </v>
   <v>       0.88888540       0.44443834       0.87500000 </v>
   <v>       0.05485561       0.44458602       0.37500000 </v>
   <v>       0.22168142       0.94336284       0.37500000 </v>
   <v>       0.55571596       0.94452465       0.37500000 </v>
   <v>       0.38321436       0.45011897       0.37500000 </v>
   <v>       0.88880868       0.94452465       0.37500000 </v>
   <v>       0.72534720       0.44512155       0.37500000 </v>
   <v>       0.22222502       0.61110832       0.87500000 </v>
   <v>       0.05555297       0.11111126       0.87500000 </v>
   <v>       0.55555561       0.61111123       0.87500000 </v>
   <v>       0.38889360       0.11111654       0.87500000 </v>
   <v>       0.88888330       0.61110832       0.87500000 </v>
   <v>       0.05565162       0.61130323       0.37500000 </v>
   <v>       0.72222259       0.11111075       0.87500000 </v>
   <v>       0.21977436       0.10798614       0.37500000 </v>
   <v>       0.38821178       0.61355898       0.37500000 </v>
   <v>       0.72534720       0.61355898       0.37500000 </v>
   <v>       0.55574766       0.11067225       0.37500000 </v>
   <v>       0.38889360       0.61111039       0.87500000 </v>
   <v>       0.88867002       0.11100168       0.37500000 </v>
   <v>       0.22222639       0.77777986       0.87500000 </v>
   <v>       0.05555297       0.27777505       0.87500000 </v>
   <v>       0.38889042       0.27778084       0.87500000 </v>
   <v>       0.55555829       0.77778036       0.87500000 </v>
   <v>       0.88888540       0.77778040       0.87500000 </v>
   <v>       0.72222208       0.27777505       0.87500000 </v>
   <v>       0.05565162       0.77768172       0.37500000 </v>
   <v>       0.38874731       0.77847773       0.37500000 </v>
   <v>       0.22137438       0.27735386       0.37500000 </v>
   <v>       0.72266108       0.77840874       0.37500000 </v>
   <v>       0.55597948       0.27735386       0.37500000 </v>
   <v>       0.88880868       0.27761737       0.37500000 </v>
   <v>       0.05555294       0.44443834       0.87500000 </v>
   <v>       0.22222502       0.94445003       0.87500000 </v>
   <v>       0.55555773       0.94444553       0.87500000 </v>
   <v>       0.38889042       0.44444291       0.87500000 </v>
   <v>       0.88888780       0.94444553       0.87500000 </v>
   <v>       0.05485561       0.94360291       0.37500000 </v>
   <v>       0.72221679       0.44443974       0.87500000 </v>
   <v>       0.38874731       0.94360291       0.37500000 </v>
   <v>       0.21977436       0.44512155       0.37500000 </v>
   <v>       0.22168142       0.61165191       0.37500000 </v>
   <v>       0.56690462       0.45011897       0.37500000 </v>
   <v>       0.72233166       0.94466331       0.37500000 </v>
   <v>       0.88973042       0.44458602       0.37500000 </v>
   <v>       0.05555347       0.61110694       0.87500000 </v>
   <v>       0.22222295       0.11111654       0.87500000 </v>
   <v>       0.72221679       0.61111039       0.87500000 </v>
   <v>       0.55555829       0.11111126       0.87500000 </v>
   <v>       0.88888816       0.11111075       0.87500000 </v>
   <v>       0.10888702       0.05363429       0.37500000 </v>
   <v>       0.61662821       0.56151023       0.37500000 </v>
   <v>       0.44474727       0.05363429       0.37500000 </v>
   <v>       0.94505350       0.55569452       0.37500000 </v>
   <v>       0.77777778       0.05555556       0.37500000 </v>
   <v>       0.11111111       0.72222222       0.87500000 </v>
   <v>       0.44445789       0.72225917       0.87500000 </v>
   <v>       0.27773656       0.22218886       0.87500000 </v>
   <v>       0.77780129       0.72225917       0.87500000 </v>
   <v>       0.61113701       0.22219632       0.87500000 </v>
   <v>       0.94441891       0.22220602       0.87500000 </v>
   <v>       0.27763881       0.72269232       0.37500000 </v>
   <v>       0.10939752       0.22136543       0.37500000 </v>
   <v>       0.44488202       0.21670513       0.37500000 </v>
   <v>       0.61196791       0.72393582       0.37500000 </v>
   <v>       0.94505350       0.72269232       0.37500000 </v>
   <v>       0.77798832       0.22181380       0.37500000 </v>
   <v>       0.11109976       0.88887925       0.87500000 </v>
   <v>       0.44445802       0.88889568       0.87500000 </v>
   <v>       0.27773656       0.38888103       0.87500000 </v>
   <v>       0.61114447       0.38888103       0.87500000 </v>
   <v>       0.77778711       0.88891442       0.87500000 </v>
   <v>       0.94443766       0.38887531       0.87500000 </v>
   <v>       0.10888702       0.38858606       0.37500000 </v>
   <v>       0.27763881       0.88827983       0.37500000 </v>
   <v>       0.61151953       0.88950785       0.37500000 </v>
   <v>       0.94428960       0.88904373       0.37500000 </v>
   <v>       0.77969904       0.38858606       0.37500000 </v>
   <v>       0.27776270       0.55557063       0.87500000 </v>
   <v>       0.11107416       0.05553205       0.87500000 </v>
   <v>       0.61114447       0.55559678       0.87500000 </v>
   <v>       0.44445789       0.05553205       0.87500000 </v>
   <v>       0.94445408       0.55555385       0.87500000 </v>
   <v>       0.11064101       0.55569452       0.37500000 </v>
   <v>       0.77777778       0.05555556       0.87500000 </v>
   <v>       0.27665444       0.05330889       0.37500000 </v>
   <v>       0.44488202       0.56151023       0.37500000 </v>
   <v>       0.78002445       0.55667889       0.37500000 </v>
   <v>       0.61151953       0.05534502       0.37500000 </v>
   <v>       0.44445231       0.55559678       0.87500000 </v>
   <v>       0.94382548       0.05534502       0.37500000 </v>
   <v>       0.27777949       0.72223357       0.87500000 </v>
   <v>       0.11105932       0.22219632       0.87500000 </v>
   <v>       0.44445231       0.22218886       0.87500000 </v>
   <v>       0.61113701       0.72227402       0.87500000 </v>
   <v>       0.94445408       0.72223357       0.87500000 </v>
   <v>       0.77778711       0.22220602       0.87500000 </v>
   <v>       0.11111111       0.72222222       0.37500000 </v>
   <v>       0.44474727       0.72444631       0.37500000 </v>
   <v>       0.27182310       0.21670513       0.37500000 </v>
   <v>       0.77969904       0.72444631       0.37500000 </v>
   <v>       0.61196791       0.22136543       0.37500000 </v>
   <v>       0.94382548       0.22181380       0.37500000 </v>
   <v>       0.11107416       0.38887545       0.87500000 </v>
   <v>       0.27777949       0.88887925       0.87500000 </v>
   <v>       0.61112731       0.88891442       0.87500000 </v>
   <v>       0.44444444       0.38888889       0.87500000 </v>
   <v>       0.94443766       0.88889568       0.87500000 </v>
   <v>       0.11064101       0.88827983       0.37500000 </v>
   <v>       0.77780129       0.38887545       0.87500000 </v>
   <v>       0.44475413       0.88904373       0.37500000 </v>
   <v>       0.27182310       0.38845131       0.37500000 </v>
   <v>       0.27665444       0.55667889       0.37500000 </v>
   <v>       0.61662821       0.38845131       0.37500000 </v>
   <v>       0.77798832       0.88950785       0.37500000 </v>
   <v>       0.94428960       0.38857921       0.37500000 </v>
   <v>       0.11109976       0.55555385       0.87500000 </v>
   <v>       0.27776270       0.05552540       0.87500000 </v>
   <v>       0.77780793       0.55557063       0.87500000 </v>
   <v>       0.61112731       0.05554622       0.87500000 </v>
   <v>       0.94441891       0.05554622       0.87500000 </v>
   <v>       0.05546928       0.11103632       0.12487403 </v>
   <v>       0.55563492       0.61126984       0.12476730 </v>
   <v>       0.38882801       0.11092619       0.12483104 </v>
   <v>       0.88900701       0.61117017       0.12488859 </v>
   <v>       0.72223458       0.11109875       0.12491481 </v>
   <v>       0.05557215       0.77776118       0.62509033 </v>
   <v>       0.38885004       0.77781495       0.62510653 </v>
   <v>       0.22206349       0.27769841       0.62523270 </v>
   <v>       0.72229702       0.77786405       0.62512597 </v>
   <v>       0.55563492       0.27769841       0.62523270 </v>
   <v>       0.88889259       0.27778519       0.62508998 </v>
   <v>       0.22218903       0.77776118       0.12490967 </v>
   <v>       0.05546928       0.27776630       0.12487403 </v>
   <v>       0.38878395       0.27756790       0.12459556 </v>
   <v>       0.55556704       0.77786405       0.12487403 </v>
   <v>       0.88896491       0.77781495       0.12489347 </v>
   <v>       0.72229702       0.27776630       0.12487403 </v>
   <v>       0.05551838       0.94436842       0.62510653 </v>
   <v>       0.38885004       0.94436842       0.62510653 </v>
   <v>       0.22209818       0.44450532       0.62516896 </v>
   <v>       0.55576543       0.44454938       0.62540444 </v>
   <v>       0.72223458       0.94446917       0.62508519 </v>
   <v>       0.88896491       0.44448330       0.62510653 </v>
   <v>       0.05551838       0.44448330       0.12489347 </v>
   <v>       0.22216316       0.94432633       0.12488859 </v>
   <v>       0.55554814       0.94444074       0.12491002 </v>
   <v>       0.38878395       0.44454938       0.12459556 </v>
   <v>       0.88889259       0.94444074       0.12491002 </v>
   <v>       0.72240714       0.44450532       0.12483104 </v>
   <v>       0.22216316       0.61117017       0.62511141 </v>
   <v>       0.05546928       0.11103632       0.62512597 </v>
   <v>       0.55563492       0.61126984       0.62523270 </v>
   <v>       0.38882801       0.11092619       0.62516896 </v>
   <v>       0.88900701       0.61117017       0.62511141 </v>
   <v>       0.05557215       0.61114430       0.12490967 </v>
   <v>       0.72223458       0.11109875       0.62508519 </v>
   <v>       0.22209818       0.11092619       0.12483104 </v>
   <v>       0.38882801       0.61123515       0.12483104 </v>
   <v>       0.72240714       0.61123515       0.12483104 </v>
   <v>       0.55556704       0.11103632       0.12487403 </v>
   <v>       0.38882801       0.61123515       0.62516896 </v>
   <v>       0.88886417       0.11109875       0.12491481 </v>
   <v>       0.22218903       0.77776118       0.62509033 </v>
   <v>       0.05546928       0.27776630       0.62512597 </v>
   <v>       0.38878395       0.27756790       0.62540444 </v>
   <v>       0.55556704       0.77786405       0.62512597 </v>
   <v>       0.88896491       0.77781495       0.62510653 </v>
   <v>       0.72229702       0.27776630       0.62512597 </v>
   <v>       0.05557215       0.77776118       0.12490967 </v>
   <v>       0.38885004       0.77781495       0.12489347 </v>
   <v>       0.22206349       0.27769841       0.12476730 </v>
   <v>       0.72229702       0.77786405       0.12487403 </v>
   <v>       0.55563492       0.27769841       0.12476730 </v>
   <v>       0.88889259       0.27778519       0.12491002 </v>
   <v>       0.05551838       0.44448330       0.62510653 </v>
   <v>       0.22216316       0.94432633       0.62511141 </v>
   <v>       0.55554814       0.94444074       0.62508998 </v>
   <v>       0.38878395       0.44454938       0.62540444 </v>
   <v>       0.88889259       0.94444074       0.62508998 </v>
   <v>       0.05551838       0.94436842       0.12489347 </v>
   <v>       0.72240714       0.44450532       0.62516896 </v>
   <v>       0.38885004       0.94436842       0.12489347 </v>
   <v>       0.22209818       0.44450532       0.12483104 </v>
   <v>       0.22216316       0.61117017       0.12488859 </v>
   <v>       0.55576543       0.44454938       0.12459556 </v>
   <v>       0.72223458       0.94446917       0.12491481 </v>
   <v>       0.88896491       0.44448330       0.12489347 </v>
   <v>       0.05557215       0.61114430       0.62509033 </v>
   <v>       0.22209818       0.11092619       0.62516896 </v>
   <v>       0.72240714       0.61123515       0.62516896 </v>
   <v>       0.55556704       0.11103632       0.62512597 </v>
   <v>       0.88886417       0.11109875       0.62508519 </v>
  </varray>
 </structure>
</modeling>
