<?xml version="1.0" encoding="ISO-8859-1"?>
<modeling>
 <generator>
  <i name="program" type="string">vasp </i>
  <i name="version" type="string">6.4.2  </i>
  <i name="subversion" type="string">20Jul23 (build Nov 06 2023 14:01:30) complex                          parallel </i>
  <i name="platform" type="string">LinuxIFC </i>
  <i name="date" type="string">2024 11 16 </i>
  <i name="time" type="string">04:10:33 </i>
 </generator>
 <incar>
  <i type="int" name="IALGO">    38</i>
  <i type="string" name="ALGO">Fast</i>
  <i type="logical" name="ADDGRID"> T  </i>
  <i type="int" name="ISPIN">     2</i>
  <i type="int" name="NELM">   100</i>
  <i type="int" name="NELMIN">     4</i>
  <i type="int" name="IBRION">    -1</i>
  <i name="EDIFF">      0.00000100</i>
  <i name="ENCUT">    500.00000000</i>
  <i name="NUPDOWN">      1.00000000</i>
  <i name="NELECT">   1153.00000000</i>
  <i type="logical" name="LREAL"> F  </i>
  <i type="int" name="ISMEAR">     0</i>
  <i name="SIGMA">      0.05000000</i>
  <i type="logical" name="LWAVE"> F  </i>
  <i type="logical" name="LCHARG"> F  </i>
  <i type="string" name="GGA">PE</i>
  <i type="int" name="IVDW">    11</i>
 </incar>
 <primitive_cell>
  <structure name="primitive_cell" >
   <crystal>
    <varray name="basis" >
     <v>      14.93631415       0.00000000       0.00000000 </v>
     <v>      -7.46815707      12.93522749      -0.00000000 </v>
     <v>       0.00000000       0.00000000      13.34127628 </v>
    </varray>
    <i name="volume">   2577.59623255 </i>
    <varray name="rec_basis" >
     <v>       0.06695092       0.03865413      -0.00000000 </v>
     <v>       0.00000000       0.07730827      -0.00000000 </v>
     <v>       0.00000000       0.00000000       0.07495535 </v>
    </varray>
   </crystal>
   <varray name="positions" >
    <v>       0.44444444       0.38888889       0.37500000 </v>
    <v>       0.11110578       0.05553988       0.12514209 </v>
    <v>       0.61111893       0.55556454       0.12533815 </v>
    <v>       0.44443410       0.05553988       0.12514209 </v>
    <v>       0.94445577       0.55556472       0.12511237 </v>
    <v>       0.77777778       0.05555556       0.12508750 </v>
    <v>       0.11111111       0.72222222       0.62490204 </v>
    <v>       0.44443410       0.72222755       0.62485791 </v>
    <v>       0.27776879       0.22221440       0.62466185 </v>
    <v>       0.77779345       0.72222755       0.62485791 </v>
    <v>       0.61111409       0.22221925       0.62484996 </v>
    <v>       0.94444599       0.22222938       0.62490241 </v>
    <v>       0.27776861       0.72222439       0.12511237 </v>
    <v>       0.11110516       0.22221925       0.12515004 </v>
    <v>       0.44444561       0.22221440       0.12533815 </v>
    <v>       0.61111409       0.72222817       0.12515004 </v>
    <v>       0.94445577       0.72222439       0.12511237 </v>
    <v>       0.77778339       0.22222938       0.12509759 </v>
    <v>       0.11110895       0.88887756       0.62488763 </v>
    <v>       0.44443273       0.88888303       0.62489877 </v>
    <v>       0.27776879       0.38888773       0.62466185 </v>
    <v>       0.61111893       0.38888773       0.62466185 </v>
    <v>       0.77778339       0.88888734       0.62490241 </v>
    <v>       0.94445030       0.38890061       0.62489877 </v>
    <v>       0.11110578       0.38889924       0.12514209 </v>
    <v>       0.27776861       0.88887756       0.12511237 </v>
    <v>       0.61110395       0.88888734       0.12509759 </v>
    <v>       0.44444444       0.38888889       0.12572567 </v>
    <v>       0.94445030       0.88888303       0.12510123 </v>
    <v>       0.77779345       0.38889924       0.12514209 </v>
    <v>       0.27776995       0.55556338       0.62481384 </v>
    <v>       0.11110578       0.05553988       0.62485791 </v>
    <v>       0.61111893       0.55556454       0.62466185 </v>
    <v>       0.44443410       0.05553988       0.62485791 </v>
    <v>       0.94445577       0.55556472       0.62488763 </v>
    <v>       0.11110895       0.55556472       0.12511237 </v>
    <v>       0.77777778       0.05555556       0.62491250 </v>
    <v>       0.27776995       0.05553990       0.12518616 </v>
    <v>       0.44444561       0.55556454       0.12533815 </v>
    <v>       0.77779343       0.55556338       0.12518616 </v>
    <v>       0.61110395       0.05554994       0.12509759 </v>
    <v>       0.44444561       0.55556454       0.62466185 </v>
    <v>       0.94444599       0.05554994       0.12509759 </v>
    <v>       0.27776861       0.72222439       0.62488763 </v>
    <v>       0.11110516       0.22221925       0.62484996 </v>
    <v>       0.44444561       0.22221440       0.62466185 </v>
    <v>       0.61111409       0.72222817       0.62484996 </v>
    <v>       0.94445577       0.72222439       0.62488763 </v>
    <v>       0.77778339       0.22222938       0.62490241 </v>
    <v>       0.11111111       0.72222222       0.12509796 </v>
    <v>       0.44443410       0.72222755       0.12514209 </v>
    <v>       0.27776879       0.22221440       0.12533815 </v>
    <v>       0.77779345       0.72222755       0.12514209 </v>
    <v>       0.61111409       0.22221925       0.12515004 </v>
    <v>       0.94444599       0.22222938       0.12509759 </v>
    <v>       0.11110578       0.38889924       0.62485791 </v>
    <v>       0.27776861       0.88887756       0.62488763 </v>
    <v>       0.61110395       0.88888734       0.62490241 </v>
    <v>       0.44444444       0.38888889       0.62427433 </v>
    <v>       0.94445030       0.88888303       0.62489877 </v>
    <v>       0.11110895       0.88887756       0.12511237 </v>
    <v>       0.77779345       0.38889924       0.62485791 </v>
    <v>       0.44443273       0.88888303       0.12510123 </v>
    <v>       0.27776879       0.38888773       0.12533815 </v>
    <v>       0.27776995       0.55556338       0.12518616 </v>
    <v>       0.61111893       0.38888773       0.12533815 </v>
    <v>       0.77778339       0.88888734       0.12509759 </v>
    <v>       0.94445030       0.38890061       0.12510123 </v>
    <v>       0.11110895       0.55556472       0.62488763 </v>
    <v>       0.27776995       0.05553990       0.62481384 </v>
    <v>       0.77779343       0.55556338       0.62481384 </v>
    <v>       0.61110395       0.05554994       0.62490241 </v>
    <v>       0.94444599       0.05554994       0.62490241 </v>
    <v>       0.05492459       0.11067225       0.37500000 </v>
    <v>       0.55597948       0.61195895       0.37500000 </v>
    <v>       0.38821178       0.10798614       0.37500000 </v>
    <v>       0.88997050       0.61165191       0.37500000 </v>
    <v>       0.72233166       0.11100168       0.37500000 </v>
    <v>       0.05555347       0.77777986       0.87500000 </v>
    <v>       0.38889499       0.77778040       0.87500000 </v>
    <v>       0.22222211       0.27777772       0.87500000 </v>
    <v>       0.72222208       0.77778036       0.87500000 </v>
    <v>       0.55555561       0.27777772       0.87500000 </v>
    <v>       0.88888780       0.27777560       0.87500000 </v>
    <v>       0.22203010       0.77768172       0.37500000 </v>
    <v>       0.05492459       0.27758567       0.37500000 </v>
    <v>       0.38321436       0.26642872       0.37500000 </v>
    <v>       0.55574766       0.77840874       0.37500000 </v>
    <v>       0.88973042       0.77847773       0.37500000 </v>
    <v>       0.72266108       0.27758567       0.37500000 </v>
    <v>       0.05555294       0.94444793       0.87500000 </v>
    <v>       0.38889499       0.94444793       0.87500000 </v>
    <v>       0.22222295       0.44443974       0.87500000 </v>
    <v>       0.55555250       0.44444291       0.87500000 </v>
    <v>       0.72222259       0.94444517       0.87500000 </v>
    <v>       0.88888540       0.44443834       0.87500000 </v>
    <v>       0.05485561       0.44458602       0.37500000 </v>
    <v>       0.22168142       0.94336284       0.37500000 </v>
    <v>       0.55571596       0.94452465       0.37500000 </v>
    <v>       0.38321436       0.45011897       0.37500000 </v>
    <v>       0.88880868       0.94452465       0.37500000 </v>
    <v>       0.72534720       0.44512155       0.37500000 </v>
    <v>       0.22222502       0.61110832       0.87500000 </v>
    <v>       0.05555297       0.11111126       0.87500000 </v>
    <v>       0.55555561       0.61111123       0.87500000 </v>
    <v>       0.38889360       0.11111654       0.87500000 </v>
    <v>       0.88888330       0.61110832       0.87500000 </v>
    <v>       0.05565162       0.61130323       0.37500000 </v>
    <v>       0.72222259       0.11111075       0.87500000 </v>
    <v>       0.21977436       0.10798614       0.37500000 </v>
    <v>       0.38821178       0.61355898       0.37500000 </v>
    <v>       0.72534720       0.61355898       0.37500000 </v>
    <v>       0.55574766       0.11067225       0.37500000 </v>
    <v>       0.38889360       0.61111039       0.87500000 </v>
    <v>       0.88867002       0.11100168       0.37500000 </v>
    <v>       0.22222639       0.77777986       0.87500000 </v>
    <v>       0.05555297       0.27777505       0.87500000 </v>
    <v>       0.38889042       0.27778084       0.87500000 </v>
    <v>       0.55555829       0.77778036       0.87500000 </v>
    <v>       0.88888540       0.77778040       0.87500000 </v>
    <v>       0.72222208       0.27777505       0.87500000 </v>
    <v>       0.05565162       0.77768172       0.37500000 </v>
    <v>       0.38874731       0.77847773       0.37500000 </v>
    <v>       0.22137438       0.27735386       0.37500000 </v>
    <v>       0.72266108       0.77840874       0.37500000 </v>
    <v>       0.55597948       0.27735386       0.37500000 </v>
    <v>       0.88880868       0.27761737       0.37500000 </v>
    <v>       0.05555294       0.44443834       0.87500000 </v>
    <v>       0.22222502       0.94445003       0.87500000 </v>
    <v>       0.55555773       0.94444553       0.87500000 </v>
    <v>       0.38889042       0.44444291       0.87500000 </v>
    <v>       0.88888780       0.94444553       0.87500000 </v>
    <v>       0.05485561       0.94360291       0.37500000 </v>
    <v>       0.72221679       0.44443974       0.87500000 </v>
    <v>       0.38874731       0.94360291       0.37500000 </v>
    <v>       0.21977436       0.44512155       0.37500000 </v>
    <v>       0.22168142       0.61165191       0.37500000 </v>
    <v>       0.56690462       0.45011897       0.37500000 </v>
    <v>       0.72233166       0.94466331       0.37500000 </v>
    <v>       0.88973042       0.44458602       0.37500000 </v>
    <v>       0.05555347       0.61110694       0.87500000 </v>
    <v>       0.22222295       0.11111654       0.87500000 </v>
    <v>       0.72221679       0.61111039       0.87500000 </v>
    <v>       0.55555829       0.11111126       0.87500000 </v>
    <v>       0.88888816       0.11111075       0.87500000 </v>
    <v>       0.10888702       0.05363429       0.37500000 </v>
    <v>       0.61662821       0.56151023       0.37500000 </v>
    <v>       0.44474727       0.05363429       0.37500000 </v>
    <v>       0.94505350       0.55569452       0.37500000 </v>
    <v>       0.77777778       0.05555556       0.37500000 </v>
    <v>       0.11111111       0.72222222       0.87500000 </v>
    <v>       0.44445789       0.72225917       0.87500000 </v>
    <v>       0.27773656       0.22218886       0.87500000 </v>
    <v>       0.77780129       0.72225917       0.87500000 </v>
    <v>       0.61113701       0.22219632       0.87500000 </v>
    <v>       0.94441891       0.22220602       0.87500000 </v>
    <v>       0.27763881       0.72269232       0.37500000 </v>
    <v>       0.10939752       0.22136543       0.37500000 </v>
    <v>       0.44488202       0.21670513       0.37500000 </v>
    <v>       0.61196791       0.72393582       0.37500000 </v>
    <v>       0.94505350       0.72269232       0.37500000 </v>
    <v>       0.77798832       0.22181380       0.37500000 </v>
    <v>       0.11109976       0.88887925       0.87500000 </v>
    <v>       0.44445802       0.88889568       0.87500000 </v>
    <v>       0.27773656       0.38888103       0.87500000 </v>
    <v>       0.61114447       0.38888103       0.87500000 </v>
    <v>       0.77778711       0.88891442       0.87500000 </v>
    <v>       0.94443766       0.38887531       0.87500000 </v>
    <v>       0.10888702       0.38858606       0.37500000 </v>
    <v>       0.27763881       0.88827983       0.37500000 </v>
    <v>       0.61151953       0.88950785       0.37500000 </v>
    <v>       0.94428960       0.88904373       0.37500000 </v>
    <v>       0.77969904       0.38858606       0.37500000 </v>
    <v>       0.27776270       0.55557063       0.87500000 </v>
    <v>       0.11107416       0.05553205       0.87500000 </v>
    <v>       0.61114447       0.55559678       0.87500000 </v>
    <v>       0.44445789       0.05553205       0.87500000 </v>
    <v>       0.94445408       0.55555385       0.87500000 </v>
    <v>       0.11064101       0.55569452       0.37500000 </v>
    <v>       0.77777778       0.05555556       0.87500000 </v>
    <v>       0.27665444       0.05330889       0.37500000 </v>
    <v>       0.44488202       0.56151023       0.37500000 </v>
    <v>       0.78002445       0.55667889       0.37500000 </v>
    <v>       0.61151953       0.05534502       0.37500000 </v>
    <v>       0.44445231       0.55559678       0.87500000 </v>
    <v>       0.94382548       0.05534502       0.37500000 </v>
    <v>       0.27777949       0.72223357       0.87500000 </v>
    <v>       0.11105932       0.22219632       0.87500000 </v>
    <v>       0.44445231       0.22218886       0.87500000 </v>
    <v>       0.61113701       0.72227402       0.87500000 </v>
    <v>       0.94445408       0.72223357       0.87500000 </v>
    <v>       0.77778711       0.22220602       0.87500000 </v>
    <v>       0.11161044       0.72222222       0.37549932 </v>
    <v>       0.44474727       0.72444631       0.37500000 </v>
    <v>       0.27182310       0.21670513       0.37500000 </v>
    <v>       0.77969904       0.72444631       0.37500000 </v>
    <v>       0.61196791       0.22136543       0.37500000 </v>
    <v>       0.94382548       0.22181380       0.37500000 </v>
    <v>       0.11107416       0.38887545       0.87500000 </v>
    <v>       0.27777949       0.88887925       0.87500000 </v>
    <v>       0.61112731       0.88891442       0.87500000 </v>
    <v>       0.44444444       0.38888889       0.87500000 </v>
    <v>       0.94443766       0.88889568       0.87500000 </v>
    <v>       0.11064101       0.88827983       0.37500000 </v>
    <v>       0.77780129       0.38887545       0.87500000 </v>
    <v>       0.44475413       0.88904373       0.37500000 </v>
    <v>       0.27182310       0.38845131       0.37500000 </v>
    <v>       0.27665444       0.55667889       0.37500000 </v>
    <v>       0.61662821       0.38845131       0.37500000 </v>
    <v>       0.77798832       0.88950785       0.37500000 </v>
    <v>       0.94428960       0.38857921       0.37500000 </v>
    <v>       0.11109976       0.55555385       0.87500000 </v>
    <v>       0.27776270       0.05552540       0.87500000 </v>
    <v>       0.77780793       0.55557063       0.87500000 </v>
    <v>       0.61112731       0.05554622       0.87500000 </v>
    <v>       0.94441891       0.05554622       0.87500000 </v>
    <v>       0.05546928       0.11103632       0.12487403 </v>
    <v>       0.55563492       0.61126984       0.12476730 </v>
    <v>       0.38882801       0.11092619       0.12483104 </v>
    <v>       0.88900701       0.61117017       0.12488859 </v>
    <v>       0.72223458       0.11109875       0.12491481 </v>
    <v>       0.05557215       0.77776118       0.62509033 </v>
    <v>       0.38885004       0.77781495       0.62510653 </v>
    <v>       0.22206349       0.27769841       0.62523270 </v>
    <v>       0.72229702       0.77786405       0.62512597 </v>
    <v>       0.55563492       0.27769841       0.62523270 </v>
    <v>       0.88889259       0.27778519       0.62508998 </v>
    <v>       0.22218903       0.77776118       0.12490967 </v>
    <v>       0.05546928       0.27776630       0.12487403 </v>
    <v>       0.38878395       0.27756790       0.12459556 </v>
    <v>       0.55556704       0.77786405       0.12487403 </v>
    <v>       0.88896491       0.77781495       0.12489347 </v>
    <v>       0.72229702       0.27776630       0.12487403 </v>
    <v>       0.05551838       0.94436842       0.62510653 </v>
    <v>       0.38885004       0.94436842       0.62510653 </v>
    <v>       0.22209818       0.44450532       0.62516896 </v>
    <v>       0.55576543       0.44454938       0.62540444 </v>
    <v>       0.72223458       0.94446917       0.62508519 </v>
    <v>       0.88896491       0.44448330       0.62510653 </v>
    <v>       0.05551838       0.44448330       0.12489347 </v>
    <v>       0.22216316       0.94432633       0.12488859 </v>
    <v>       0.55554814       0.94444074       0.12491002 </v>
    <v>       0.38878395       0.44454938       0.12459556 </v>
    <v>       0.88889259       0.94444074       0.12491002 </v>
    <v>       0.72240714       0.44450532       0.12483104 </v>
    <v>       0.22216316       0.61117017       0.62511141 </v>
    <v>       0.05546928       0.11103632       0.62512597 </v>
    <v>       0.55563492       0.61126984       0.62523270 </v>
    <v>       0.38882801       0.11092619       0.62516896 </v>
    <v>       0.88900701       0.61117017       0.62511141 </v>
    <v>       0.05557215       0.61114430       0.12490967 </v>
    <v>       0.72223458       0.11109875       0.62508519 </v>
    <v>       0.22209818       0.11092619       0.12483104 </v>
    <v>       0.38882801       0.61123515       0.12483104 </v>
    <v>       0.72240714       0.61123515       0.12483104 </v>
    <v>       0.55556704       0.11103632       0.12487403 </v>
    <v>       0.38882801       0.61123515       0.62516896 </v>
    <v>       0.88886417       0.11109875       0.12491481 </v>
    <v>       0.22218903       0.77776118       0.62509033 </v>
    <v>       0.05546928       0.27776630       0.62512597 </v>
    <v>       0.38878395       0.27756790       0.62540444 </v>
    <v>       0.55556704       0.77786405       0.62512597 </v>
    <v>       0.88896491       0.77781495       0.62510653 </v>
    <v>       0.72229702       0.27776630       0.62512597 </v>
    <v>       0.05557215       0.77776118       0.12490967 </v>
    <v>       0.38885004       0.77781495       0.12489347 </v>
    <v>       0.22206349       0.27769841       0.12476730 </v>
    <v>       0.72229702       0.77786405       0.12487403 </v>
    <v>       0.55563492       0.27769841       0.12476730 </v>
    <v>       0.88889259       0.27778519       0.12491002 </v>
    <v>       0.05551838       0.44448330       0.62510653 </v>
    <v>       0.22216316       0.94432633       0.62511141 </v>
    <v>       0.55554814       0.94444074       0.62508998 </v>
    <v>       0.38878395       0.44454938       0.62540444 </v>
    <v>       0.88889259       0.94444074       0.62508998 </v>
    <v>       0.05551838       0.94436842       0.12489347 </v>
    <v>       0.72240714       0.44450532       0.62516896 </v>
    <v>       0.38885004       0.94436842       0.12489347 </v>
    <v>       0.22209818       0.44450532       0.12483104 </v>
    <v>       0.22216316       0.61117017       0.12488859 </v>
    <v>       0.55576543       0.44454938       0.12459556 </v>
    <v>       0.72223458       0.94446917       0.12491481 </v>
    <v>       0.88896491       0.44448330       0.12489347 </v>
    <v>       0.05557215       0.61114430       0.62509033 </v>
    <v>       0.22209818       0.11092619       0.62516896 </v>
    <v>       0.72240714       0.61123515       0.62516896 </v>
    <v>       0.55556704       0.11103632       0.62512597 </v>
    <v>       0.88886417       0.11109875       0.62508519 </v>
   </varray>
  </structure>
  <varray name="primitive_index" >
   <v type="int" >        1 </v>
   <v type="int" >        2 </v>
   <v type="int" >        3 </v>
   <v type="int" >        4 </v>
   <v type="int" >        5 </v>
   <v type="int" >        6 </v>
   <v type="int" >        7 </v>
   <v type="int" >        8 </v>
   <v type="int" >        9 </v>
   <v type="int" >       10 </v>
   <v type="int" >       11 </v>
   <v type="int" >       12 </v>
   <v type="int" >       13 </v>
   <v type="int" >       14 </v>
   <v type="int" >       15 </v>
   <v type="int" >       16 </v>
   <v type="int" >       17 </v>
   <v type="int" >       18 </v>
   <v type="int" >       19 </v>
   <v type="int" >       20 </v>
   <v type="int" >       21 </v>
   <v type="int" >       22 </v>
   <v type="int" >       23 </v>
   <v type="int" >       24 </v>
   <v type="int" >       25 </v>
   <v type="int" >       26 </v>
   <v type="int" >       27 </v>
   <v type="int" >       28 </v>
   <v type="int" >       29 </v>
   <v type="int" >       30 </v>
   <v type="int" >       31 </v>
   <v type="int" >       32 </v>
   <v type="int" >       33 </v>
   <v type="int" >       34 </v>
   <v type="int" >       35 </v>
   <v type="int" >       36 </v>
   <v type="int" >       37 </v>
   <v type="int" >       38 </v>
   <v type="int" >       39 </v>
   <v type="int" >       40 </v>
   <v type="int" >       41 </v>
   <v type="int" >       42 </v>
   <v type="int" >       43 </v>
   <v type="int" >       44 </v>
   <v type="int" >       45 </v>
   <v type="int" >       46 </v>
   <v type="int" >       47 </v>
   <v type="int" >       48 </v>
   <v type="int" >       49 </v>
   <v type="int" >       50 </v>
   <v type="int" >       51 </v>
   <v type="int" >       52 </v>
   <v type="int" >       53 </v>
   <v type="int" >       54 </v>
   <v type="int" >       55 </v>
   <v type="int" >       56 </v>
   <v type="int" >       57 </v>
   <v type="int" >       58 </v>
   <v type="int" >       59 </v>
   <v type="int" >       60 </v>
   <v type="int" >       61 </v>
   <v type="int" >       62 </v>
   <v type="int" >       63 </v>
   <v type="int" >       64 </v>
   <v type="int" >       65 </v>
   <v type="int" >       66 </v>
   <v type="int" >       67 </v>
   <v type="int" >       68 </v>
   <v type="int" >       69 </v>
   <v type="int" >       70 </v>
   <v type="int" >       71 </v>
   <v type="int" >       72 </v>
   <v type="int" >       73 </v>
   <v type="int" >       74 </v>
   <v type="int" >       75 </v>
   <v type="int" >       76 </v>
   <v type="int" >       77 </v>
   <v type="int" >       78 </v>
   <v type="int" >       79 </v>
   <v type="int" >       80 </v>
   <v type="int" >       81 </v>
   <v type="int" >       82 </v>
   <v type="int" >       83 </v>
   <v type="int" >       84 </v>
   <v type="int" >       85 </v>
   <v type="int" >       86 </v>
   <v type="int" >       87 </v>
   <v type="int" >       88 </v>
   <v type="int" >       89 </v>
   <v type="int" >       90 </v>
   <v type="int" >       91 </v>
   <v type="int" >       92 </v>
   <v type="int" >       93 </v>
   <v type="int" >       94 </v>
   <v type="int" >       95 </v>
   <v type="int" >       96 </v>
   <v type="int" >       97 </v>
   <v type="int" >       98 </v>
   <v type="int" >       99 </v>
   <v type="int" >      100 </v>
   <v type="int" >      101 </v>
   <v type="int" >      102 </v>
   <v type="int" >      103 </v>
   <v type="int" >      104 </v>
   <v type="int" >      105 </v>
   <v type="int" >      106 </v>
   <v type="int" >      107 </v>
   <v type="int" >      108 </v>
   <v type="int" >      109 </v>
   <v type="int" >      110 </v>
   <v type="int" >      111 </v>
   <v type="int" >      112 </v>
   <v type="int" >      113 </v>
   <v type="int" >      114 </v>
   <v type="int" >      115 </v>
   <v type="int" >      116 </v>
   <v type="int" >      117 </v>
   <v type="int" >      118 </v>
   <v type="int" >      119 </v>
   <v type="int" >      120 </v>
   <v type="int" >      121 </v>
   <v type="int" >      122 </v>
   <v type="int" >      123 </v>
   <v type="int" >      124 </v>
   <v type="int" >      125 </v>
   <v type="int" >      126 </v>
   <v type="int" >      127 </v>
   <v type="int" >      128 </v>
   <v type="int" >      129 </v>
   <v type="int" >      130 </v>
   <v type="int" >      131 </v>
   <v type="int" >      132 </v>
   <v type="int" >      133 </v>
   <v type="int" >      134 </v>
   <v type="int" >      135 </v>
   <v type="int" >      136 </v>
   <v type="int" >      137 </v>
   <v type="int" >      138 </v>
   <v type="int" >      139 </v>
   <v type="int" >      140 </v>
   <v type="int" >      141 </v>
   <v type="int" >      142 </v>
   <v type="int" >      143 </v>
   <v type="int" >      144 </v>
   <v type="int" >      145 </v>
   <v type="int" >      146 </v>
   <v type="int" >      147 </v>
   <v type="int" >      148 </v>
   <v type="int" >      149 </v>
   <v type="int" >      150 </v>
   <v type="int" >      151 </v>
   <v type="int" >      152 </v>
   <v type="int" >      153 </v>
   <v type="int" >      154 </v>
   <v type="int" >      155 </v>
   <v type="int" >      156 </v>
   <v type="int" >      157 </v>
   <v type="int" >      158 </v>
   <v type="int" >      159 </v>
   <v type="int" >      160 </v>
   <v type="int" >      161 </v>
   <v type="int" >      162 </v>
   <v type="int" >      163 </v>
   <v type="int" >      164 </v>
   <v type="int" >      165 </v>
   <v type="int" >      166 </v>
   <v type="int" >      167 </v>
   <v type="int" >      168 </v>
   <v type="int" >      169 </v>
   <v type="int" >      170 </v>
   <v type="int" >      171 </v>
   <v type="int" >      172 </v>
   <v type="int" >      173 </v>
   <v type="int" >      174 </v>
   <v type="int" >      175 </v>
   <v type="int" >      176 </v>
   <v type="int" >      177 </v>
   <v type="int" >      178 </v>
   <v type="int" >      179 </v>
   <v type="int" >      180 </v>
   <v type="int" >      181 </v>
   <v type="int" >      182 </v>
   <v type="int" >      183 </v>
   <v type="int" >      184 </v>
   <v type="int" >      185 </v>
   <v type="int" >      186 </v>
   <v type="int" >      187 </v>
   <v type="int" >      188 </v>
   <v type="int" >      189 </v>
   <v type="int" >      190 </v>
   <v type="int" >      191 </v>
   <v type="int" >      192 </v>
   <v type="int" >      193 </v>
   <v type="int" >      194 </v>
   <v type="int" >      195 </v>
   <v type="int" >      196 </v>
   <v type="int" >      197 </v>
   <v type="int" >      198 </v>
   <v type="int" >      199 </v>
   <v type="int" >      200 </v>
   <v type="int" >      201 </v>
   <v type="int" >      202 </v>
   <v type="int" >      203 </v>
   <v type="int" >      204 </v>
   <v type="int" >      205 </v>
   <v type="int" >      206 </v>
   <v type="int" >      207 </v>
   <v type="int" >      208 </v>
   <v type="int" >      209 </v>
   <v type="int" >      210 </v>
   <v type="int" >      211 </v>
   <v type="int" >      212 </v>
   <v type="int" >      213 </v>
   <v type="int" >      214 </v>
   <v type="int" >      215 </v>
   <v type="int" >      216 </v>
   <v type="int" >      217 </v>
   <v type="int" >      218 </v>
   <v type="int" >      219 </v>
   <v type="int" >      220 </v>
   <v type="int" >      221 </v>
   <v type="int" >      222 </v>
   <v type="int" >      223 </v>
   <v type="int" >      224 </v>
   <v type="int" >      225 </v>
   <v type="int" >      226 </v>
   <v type="int" >      227 </v>
   <v type="int" >      228 </v>
   <v type="int" >      229 </v>
   <v type="int" >      230 </v>
   <v type="int" >      231 </v>
   <v type="int" >      232 </v>
   <v type="int" >      233 </v>
   <v type="int" >      234 </v>
   <v type="int" >      235 </v>
   <v type="int" >      236 </v>
   <v type="int" >      237 </v>
   <v type="int" >      238 </v>
   <v type="int" >      239 </v>
   <v type="int" >      240 </v>
   <v type="int" >      241 </v>
   <v type="int" >      242 </v>
   <v type="int" >      243 </v>
   <v type="int" >      244 </v>
   <v type="int" >      245 </v>
   <v type="int" >      246 </v>
   <v type="int" >      247 </v>
   <v type="int" >      248 </v>
   <v type="int" >      249 </v>
   <v type="int" >      250 </v>
   <v type="int" >      251 </v>
   <v type="int" >      252 </v>
   <v type="int" >      253 </v>
   <v type="int" >      254 </v>
   <v type="int" >      255 </v>
   <v type="int" >      256 </v>
   <v type="int" >      257 </v>
   <v type="int" >      258 </v>
   <v type="int" >      259 </v>
   <v type="int" >      260 </v>
   <v type="int" >      261 </v>
   <v type="int" >      262 </v>
   <v type="int" >      263 </v>
   <v type="int" >      264 </v>
   <v type="int" >      265 </v>
   <v type="int" >      266 </v>
   <v type="int" >      267 </v>
   <v type="int" >      268 </v>
   <v type="int" >      269 </v>
   <v type="int" >      270 </v>
   <v type="int" >      271 </v>
   <v type="int" >      272 </v>
   <v type="int" >      273 </v>
   <v type="int" >      274 </v>
   <v type="int" >      275 </v>
   <v type="int" >      276 </v>
   <v type="int" >      277 </v>
   <v type="int" >      278 </v>
   <v type="int" >      279 </v>
   <v type="int" >      280 </v>
   <v type="int" >      281 </v>
   <v type="int" >      282 </v>
   <v type="int" >      283 </v>
   <v type="int" >      284 </v>
   <v type="int" >      285 </v>
   <v type="int" >      286 </v>
   <v type="int" >      287 </v>
   <v type="int" >      288 </v>
  </varray>
 </primitive_cell>
 <kpoints>
  <generation param="Gamma">
   <v type="int" name="divisions">       2        2        2 </v>
   <v name="usershift">      0.00000000       0.00000000       0.00000000 </v>
   <v name="genvec1">      0.50000000       0.00000000       0.00000000 </v>
   <v name="genvec2">      0.00000000       0.50000000      -0.00000000 </v>
   <v name="genvec3">      0.00000000      -0.00000000       0.50000000 </v>
   <v name="shift">      0.00000000       0.00000000       0.00000000 </v>
  </generation>
  <varray name="kpointlist" >
   <v>       0.00000000       0.00000000       0.00000000 </v>
   <v>       0.50000000       0.00000000       0.00000000 </v>
   <v>       0.00000000       0.50000000       0.00000000 </v>
   <v>       0.50000000       0.50000000       0.00000000 </v>
   <v>       0.00000000      -0.00000000       0.50000000 </v>
   <v>       0.50000000      -0.00000000       0.50000000 </v>
   <v>       0.00000000       0.50000000       0.50000000 </v>
   <v>       0.50000000       0.50000000       0.50000000 </v>
  </varray>
  <varray name="weights" >
   <v>       0.12500000 </v>
   <v>       0.12500000 </v>
   <v>       0.12500000 </v>
   <v>       0.12500000 </v>
   <v>       0.12500000 </v>
   <v>       0.12500000 </v>
   <v>       0.12500000 </v>
   <v>       0.12500000 </v>
  </varray>
 </kpoints>
 <parameters>
  <separator name="general" >
   <i type="string" name="SYSTEM">unknown system</i>
   <i type="logical" name="LCOMPAT"> F  </i>
  </separator>
  <separator name="electronic" >
   <i type="string" name="PREC">normal</i>
   <i name="ENMAX">    500.00000000</i>
   <i name="ENAUG">    627.11200000</i>
   <i name="EDIFF">      0.00000100</i>
   <i type="int" name="IALGO">    68</i>
   <i type="int" name="IWAVPR">    10</i>
   <i type="int" name="NBANDS">   728</i>
   <i type="int" name="NBANDSLOW">    -1</i>
   <i type="int" name="NBANDSHIGH">    -1</i>
   <i name="NELECT">   1153.00000000</i>
   <i type="int" name="TURBO">     0</i>
   <i type="int" name="IRESTART">     0</i>
   <i type="int" name="NREBOOT">     0</i>
   <i type="int" name="NMIN">     0</i>
   <i name="EREF">      0.00000000</i>
   <separator name="electronic smearing" >
    <i type="int" name="ISMEAR">     0</i>
    <i name="SIGMA">      0.05000000</i>
    <i name="KSPACING">      0.50000000</i>
    <i type="logical" name="KGAMMA"> T  </i>
    <i type="logical" name="KBLOWUP"> T  </i>
   </separator>
   <separator name="electronic projectors" >
    <i type="logical" name="LREAL"> F  </i>
    <v name="ROPT">      0.00000000      0.00000000      0.00000000</v>
    <i type="int" name="LMAXPAW">  -100</i>
    <i type="int" name="LMAXMIX">     2</i>
    <i type="logical" name="NLSPLINE"> F  </i>
   </separator>
   <separator name="electronic startup" >
    <i type="int" name="ISTART">     0</i>
    <i type="int" name="ICHARG">     2</i>
    <i type="int" name="INIWAV">     1</i>
   </separator>
   <separator name="electronic spin" >
    <i type="int" name="ISPIN">     2</i>
    <i type="logical" name="LNONCOLLINEAR"> F  </i>
    <v name="MAGMOM">      0.00347222      0.00347222      0.00347222      0.00347222      0.00347222      0.00347222      0.00347222      0.00347222      0.00347222      0.00347222      0.00347222      0.00347222      0.00347222      0.00347222      0.00347222      0.00347222      0.00347222      0.00347222      0.00347222      0.00347222
      0.00347222      0.00347222      0.00347222      0.00347222      0.00347222      0.00347222      0.00347222      0.00347222      0.00347222      0.00347222      0.00347222      0.00347222      0.00347222      0.00347222      0.00347222      0.00347222      0.00347222      0.00347222      0.00347222      0.00347222
      0.00347222      0.00347222      0.00347222      0.00347222      0.00347222      0.00347222      0.00347222      0.00347222      0.00347222      0.00347222      0.00347222      0.00347222      0.00347222      0.00347222      0.00347222      0.00347222      0.00347222      0.00347222      0.00347222      0.00347222
      0.00347222      0.00347222      0.00347222      0.00347222      0.00347222      0.00347222      0.00347222      0.00347222      0.00347222      0.00347222      0.00347222      0.00347222      0.00347222      0.00347222      0.00347222      0.00347222      0.00347222      0.00347222      0.00347222      0.00347222
      0.00347222      0.00347222      0.00347222      0.00347222      0.00347222      0.00347222      0.00347222      0.00347222      0.00347222      0.00347222      0.00347222      0.00347222      0.00347222      0.00347222      0.00347222      0.00347222      0.00347222      0.00347222      0.00347222      0.00347222
      0.00347222      0.00347222      0.00347222      0.00347222      0.00347222      0.00347222      0.00347222      0.00347222      0.00347222      0.00347222      0.00347222      0.00347222      0.00347222      0.00347222      0.00347222      0.00347222      0.00347222      0.00347222      0.00347222      0.00347222
      0.00347222      0.00347222      0.00347222      0.00347222      0.00347222      0.00347222      0.00347222      0.00347222      0.00347222      0.00347222      0.00347222      0.00347222      0.00347222      0.00347222      0.00347222      0.00347222      0.00347222      0.00347222      0.00347222      0.00347222
      0.00347222      0.00347222      0.00347222      0.00347222      0.00347222      0.00347222      0.00347222      0.00347222      0.00347222      0.00347222      0.00347222      0.00347222      0.00347222      0.00347222      0.00347222      0.00347222      0.00347222      0.00347222      0.00347222      0.00347222
      0.00347222      0.00347222      0.00347222      0.00347222      0.00347222      0.00347222      0.00347222      0.00347222      0.00347222      0.00347222      0.00347222      0.00347222      0.00347222      0.00347222      0.00347222      0.00347222      0.00347222      0.00347222      0.00347222      0.00347222
      0.00347222      0.00347222      0.00347222      0.00347222      0.00347222      0.00347222      0.00347222      0.00347222      0.00347222      0.00347222      0.00347222      0.00347222      0.00347222      0.00347222      0.00347222      0.00347222      0.00347222      0.00347222      0.00347222      0.00347222
      0.00347222      0.00347222      0.00347222      0.00347222      0.00347222      0.00347222      0.00347222      0.00347222      0.00347222      0.00347222      0.00347222      0.00347222      0.00347222      0.00347222      0.00347222      0.00347222      0.00347222      0.00347222      0.00347222      0.00347222
      0.00347222      0.00347222      0.00347222      0.00347222      0.00347222      0.00347222      0.00347222      0.00347222      0.00347222      0.00347222      0.00347222      0.00347222      0.00347222      0.00347222      0.00347222      0.00347222      0.00347222      0.00347222      0.00347222      0.00347222
      0.00347222      0.00347222      0.00347222      0.00347222      0.00347222      0.00347222      0.00347222      0.00347222      0.00347222      0.00347222      0.00347222      0.00347222      0.00347222      0.00347222      0.00347222      0.00347222      0.00347222      0.00347222      0.00347222      0.00347222
      0.00347222      0.00347222      0.00347222      0.00347222      0.00347222      0.00347222      0.00347222      0.00347222      0.00347222      0.00347222      0.00347222      0.00347222      0.00347222      0.00347222      0.00347222      0.00347222      0.00347222      0.00347222      0.00347222      0.00347222
      0.00347222      0.00347222      0.00347222      0.00347222      0.00347222      0.00347222      0.00347222      0.00347222</v>
    <i name="NUPDOWN">      1.00000000</i>
    <i type="logical" name="LSORBIT"> F  </i>
    <v name="SAXIS">      0.00000000      0.00000000      1.00000000</v>
    <i type="logical" name="LSPIRAL"> F  </i>
    <v name="QSPIRAL">      0.00000000      0.00000000      0.00000000</v>
    <i type="logical" name="LZEROZ"> F  </i>
   </separator>
   <separator name="electronic exchange-correlation" >
    <i type="logical" name="LASPH"> F  </i>
    <i type="logical" name="LMETAGGA"> F  </i>
   </separator>
   <separator name="electronic convergence" >
    <i type="int" name="NELM">   100</i>
    <i type="int" name="NELMDL">    -5</i>
    <i type="int" name="NELMIN">     4</i>
    <i name="ENINI">    500.00000000</i>
    <separator name="electronic convergence detail" >
     <i type="logical" name="LDIAG"> T  </i>
     <i type="logical" name="LSUBROT"> F  </i>
     <i name="WEIMIN">      0.00000000</i>
     <i name="EBREAK">      0.00000000</i>
     <i name="DEPER">      0.30000000</i>
     <i type="int" name="NRMM">     4</i>
     <i name="TIME">      0.40000000</i>
    </separator>
   </separator>
   <separator name="electronic mixer" >
    <i name="AMIX">      0.40000000</i>
    <i name="BMIX">      1.00000000</i>
    <i name="AMIN">      0.10000000</i>
    <i name="AMIX_MAG">      1.60000000</i>
    <i name="BMIX_MAG">      1.00000000</i>
    <separator name="electronic mixer details" >
     <i type="int" name="IMIX">     4</i>
     <i type="logical" name="MIXFIRST"> F  </i>
     <i type="int" name="MAXMIX">   -45</i>
     <i name="WC">    100.00000000</i>
     <i type="int" name="INIMIX">     1</i>
     <i type="int" name="MIXPRE">     1</i>
     <i type="int" name="MREMOVE">     5</i>
    </separator>
   </separator>
   <separator name="electronic dipolcorrection" >
    <i type="logical" name="LDIPOL"> F  </i>
    <i type="logical" name="LMONO"> F  </i>
    <i type="int" name="IDIPOL">     0</i>
    <i name="EPSILON">      1.00000000</i>
    <v name="DIPOL">   -100.00000000   -100.00000000   -100.00000000</v>
    <i name="EFIELD">      0.00000000</i>
   </separator>
  </separator>
  <separator name="grids" >
   <i type="int" name="NGX">    84</i>
   <i type="int" name="NGY">    84</i>
   <i type="int" name="NGZ">    80</i>
   <i type="int" name="NGXF">   168</i>
   <i type="int" name="NGYF">   168</i>
   <i type="int" name="NGZF">   160</i>
   <i type="logical" name="ADDGRID"> T  </i>
  </separator>
  <separator name="ionic" >
   <i type="int" name="NSW">     0</i>
   <i type="int" name="IBRION">    -1</i>
   <i type="int" name="MDALGO">     0</i>
   <i type="int" name="ISIF">     2</i>
   <i name="PSTRESS">      0.00000000</i>
   <i name="EDIFFG">      0.00001000</i>
   <i type="int" name="NFREE">     0</i>
   <i name="POTIM">      0.50000000</i>
   <i name="SMASS">     -3.00000000</i>
   <i name="SCALEE">      1.00000000</i>
  </separator>
  <separator name="ionic md" >
   <i name="TEBEG">      0.00010000</i>
   <i name="TEEND">      0.00010000</i>
   <i type="int" name="NBLOCK">     1</i>
   <i type="int" name="KBLOCK">     1</i>
   <i type="int" name="NPACO">   256</i>
   <i name="APACO">     10.00000000</i>
  </separator>
  <separator name="symmetry" >
   <i type="int" name="ISYM">     2</i>
   <i name="SYMPREC">      0.00001000</i>
  </separator>
  <separator name="dos" >
   <i type="int" name="LORBIT">     0</i>
   <v name="RWIGS">     -1.00000000     -1.00000000     -1.00000000</v>
   <i type="int" name="NEDOS">   301</i>
   <i name="EMIN">     10.00000000</i>
   <i name="EMAX">    -10.00000000</i>
   <i name="EFERMI">      0.00000000</i>
  </separator>
  <separator name="writing" >
   <i type="int" name="NWRITE">     2</i>
   <i type="logical" name="LWAVE"> F  </i>
   <i type="logical" name="LDOWNSAMPLE"> F  </i>
   <i type="logical" name="LCHARG"> F  </i>
   <i type="logical" name="LPARD"> F  </i>
   <i type="logical" name="LVTOT"> F  </i>
   <i type="logical" name="LVHAR"> F  </i>
   <i type="logical" name="LELF"> F  </i>
   <i type="logical" name="LOPTICS"> F  </i>
   <v name="STM">      0.00000000      0.00000000      0.00000000      0.00000000      0.00000000      0.00000000      0.00000000</v>
  </separator>
  <separator name="performance" >
   <i type="int" name="NPAR">     8</i>
   <i type="int" name="NSIM">     4</i>
   <i type="int" name="NBLK">    -1</i>
   <i type="logical" name="LPLANE"> T  </i>
   <i type="logical" name="LSCALAPACK"> T  </i>
   <i type="logical" name="LSCAAWARE"> T  </i>
   <i type="logical" name="LSCALU"> F  </i>
   <i type="logical" name="LASYNC"> F  </i>
   <i type="logical" name="LORBITALREAL"> F  </i>
  </separator>
  <separator name="miscellaneous" >
   <i type="int" name="IDIOT">     3</i>
   <i type="int" name="PHON_NSTRUCT">    -1</i>
   <i type="logical" name="LMUSIC"> F  </i>
   <v name="POMASS">     30.97400000     14.00100000     10.81100000</v>
   <v name="DARWINR">      0.00000000      0.00000000      0.00000000</v>
   <v name="DARWINV">      1.00000000      1.00000000      1.00000000</v>
   <i type="logical" name="LCORR"> T  </i>
  </separator>
  <i type="logical" name="GGA_COMPAT"> T  </i>
  <i type="logical" name="LBERRY"> F  </i>
  <i type="int" name="ICORELEVEL">     0</i>
  <i type="logical" name="LDAU"> F  </i>
  <i type="int" name="I_CONSTRAINED_M">     0</i>
  <separator name="electronic exchange-correlation" >
   <i type="string" name="GGA">PE</i>
   <i type="int" name="VOSKOWN">     0</i>
   <i type="logical" name="LHFCALC"> F  </i>
   <i type="string" name="PRECFOCK"></i>
   <i type="logical" name="LSYMGRAD"> F  </i>
   <i type="logical" name="LHFONE"> F  </i>
   <i type="logical" name="LRHFCALC"> F  </i>
   <i type="logical" name="LTHOMAS"> F  </i>
   <i type="logical" name="LMODELHF"> F  </i>
   <i type="logical" name="LFOCKACE"> F  </i>
   <i name="ENCUT4O">     -1.00000000</i>
   <i type="int" name="EXXOEP">     0</i>
   <i type="int" name="FOURORBIT">     0</i>
   <i name="AEXX">      0.00000000</i>
   <i name="HFALPHA">      0.00000000</i>
   <i name="MCALPHA">      0.00000000</i>
   <i name="ALDAX">      1.00000000</i>
   <i name="AGGAX">      1.00000000</i>
   <i name="ALDAC">      1.00000000</i>
   <i name="AGGAC">      1.00000000</i>
   <i type="int" name="NKREDX">     1</i>
   <i type="int" name="NKREDY">     1</i>
   <i type="int" name="NKREDZ">     1</i>
   <i type="logical" name="SHIFTRED"> F  </i>
   <i type="logical" name="ODDONLY"> F  </i>
   <i type="logical" name="EVENONLY"> F  </i>
   <i type="int" name="LMAXFOCK">     0</i>
   <i type="int" name="NMAXFOCKAE">     0</i>
   <i type="logical" name="LFOCKAEDFT"> F  </i>
   <i name="HFSCREEN">      0.00000000</i>
   <i name="HFSCREENC">      0.00000000</i>
   <i type="int" name="NBANDSGWLOW">     0</i>
  </separator>
  <separator name="vdW DFT" >
   <i type="logical" name="LUSE_VDW"> F  </i>
   <i type="int" name="IVDW_NL">     1</i>
   <i type="logical" name="LSPIN_VDW"> F  </i>
   <i name="Zab_VDW">     -0.84910000</i>
   <i name="PARAM1">      0.12340000</i>
   <i name="PARAM2">      1.00000000</i>
   <i name="PARAM3">      0.00000000</i>
  </separator>
  <separator name="model GW" >
   <i type="int" name="MODEL_GW">     0</i>
   <i name="MODEL_EPS0">      5.36999215</i>
   <i name="MODEL_ALPHA">      1.00000000</i>
  </separator>
  <separator name="linear response parameters" >
   <i type="logical" name="LEPSILON"> F  </i>
   <i type="logical" name="LRPA"> F  </i>
   <i type="logical" name="LNABLA"> F  </i>
   <i type="logical" name="LVEL"> F  </i>
   <i name="CSHIFT">      0.10000000</i>
   <i name="OMEGAMAX">     -1.00000000</i>
   <i name="DEG_THRESHOLD">      0.00200000</i>
   <i name="RTIME">     -0.10000000</i>
   <i name="WPLASMAI">      0.00000000</i>
   <v name="DFIELD">      0.00000000      0.00000000      0.00000000</v>
   <v name="WPLASMA">      0.00000000      0.00000000      0.00000000      0.00000000      0.00000000      0.00000000      0.00000000      0.00000000      0.00000000</v>
  </separator>
  <separator name="orbital magnetization" >
   <i type="logical" name="NUCIND"> F  </i>
   <v name="MAGPOS">      0.00000000      0.00000000      0.00000000</v>
   <i type="logical" name="LNICSALL"> T  </i>
   <i type="logical" name="ORBITALMAG"> F  </i>
   <i type="logical" name="LMAGBLOCH"> F  </i>
   <i type="logical" name="LCHIMAG"> F  </i>
   <i type="logical" name="LGAUGE"> T  </i>
   <i type="int" name="MAGATOM">     0</i>
   <v name="MAGDIPOL">      0.00000000      0.00000000      0.00000000</v>
   <v name="AVECCONST">      0.00000000      0.00000000      0.00000000</v>
  </separator>
  <separator name="response functions" >
   <i type="logical" name="LALL_IN_ONE"> F  </i>
   <i type="int" name="IALL_IN_ONE">    -1</i>
   <i type="int" name="NBANDS_WAVE">    -1</i>
   <i type="logical" name="LFINITE_TEMPERATURE"> F  </i>
   <i type="logical" name="LADDER"> F  </i>
   <i type="logical" name="LRPAFORCE"> F  </i>
   <i type="logical" name="LFXC"> F  </i>
   <i type="logical" name="LHARTREE"> T  </i>
   <i type="int" name="IBSE">     0</i>
   <v type="int" name="KPOINT">    -1     0     0     0</v>
   <i type="logical" name="LTCTC"> F  </i>
   <i type="logical" name="LTCTE"> F  </i>
   <i type="logical" name="LTETE"> F  </i>
   <i type="logical" name="LTRIPLET"> F  </i>
   <i type="logical" name="LFXCEPS"> F  </i>
   <i type="logical" name="LFXHEG"> F  </i>
   <i type="int" name="NATURALO">     2</i>
   <i type="logical" name="LHOLEGF"> F  </i>
   <i type="logical" name="L2ORDER"> F  </i>
   <i type="logical" name="LDMP1"> F  </i>
   <i type="logical" name="LMP2LT"> F  </i>
   <i type="logical" name="LSMP2LT"> F  </i>
   <i type="logical" name="LGWLF"> F  </i>
   <i name="ENCUTGW">     -1.60000002</i>
   <i name="ENCUTGWSOFT">     -1.60000002</i>
   <i name="ENCUTLF">     -1.00000000</i>
   <i type="logical" name="LESF_SPLINES"> F  </i>
   <i type="int" name="LMAXMP2">    -1</i>
   <i name="SCISSOR">      0.00000000</i>
   <i type="int" name="NOMEGA">     0</i>
   <i type="int" name="NOMEGAR">     0</i>
   <i type="int" name="NBANDSGW">    -1</i>
   <i type="int" name="NBANDSO">    -1</i>
   <i type="int" name="NBANDSV">    -1</i>
   <i type="int" name="NELMGW">     1</i>
   <i type="int" name="NELMHF">     1</i>
   <i type="int" name="DIM">     3</i>
   <i type="int" name="IESPILON">     4</i>
   <i type="int" name="ANTIRES">     0</i>
   <i name="OMEGAMAX">    -30.00000000</i>
   <i name="OMEGAMIN">    -30.00000000</i>
   <i name="OMEGATL">   -200.00000000</i>
   <i type="int" name="OMEGAGRID">     0</i>
   <i name="CSHIFT">     -0.10000000</i>
   <i type="logical" name="LSELFENERGY"> F  </i>
   <i type="logical" name="LSPECTRAL"> F  </i>
   <i type="logical" name="LSPECTRALGW"> F  </i>
   <i type="logical" name="LSINGLES"> F  </i>
   <i type="logical" name="LFERMIGW"> F  </i>
   <i type="logical" name="ODDONLYGW"> F  </i>
   <i type="logical" name="EVENONLYGW"> F  </i>
   <i type="int" name="NKREDLFX">     1</i>
   <i type="int" name="NKREDLFY">     1</i>
   <i type="int" name="NKREDLFZ">     1</i>
   <i type="int" name="MAXMEM">  2800</i>
   <i type="int" name="TELESCOPE">     0</i>
   <i type="int" name="NTAUPAR">    -1</i>
   <i type="int" name="NOMEGAPAR">    -1</i>
   <i name="DAMP_NEWTON">      0.80000001</i>
   <i name="LAMBDA">      1.00000000</i>
  </separator>
  <separator name="External order field" >
   <i name="OFIELD_KAPPA">      0.00000000</i>
   <v name="OFIELD_K">      0.00000000      0.00000000      0.00000000</v>
   <i name="OFIELD_Q6_NEAR">      0.00000000</i>
   <i name="OFIELD_Q6_FAR">      0.00000000</i>
   <i name="OFIELD_A">      0.00000000</i>
  </separator>
  <separator name="optional k-points parameters" >
   <i type="int" name="KPOINTS_OPT_MODE">     1</i>
   <i type="logical" name="LKPOINTS_OPT"> F  </i>
  </separator>
  <separator name="solvation model" >
   <i type="logical" name="LSOL"> F  </i>
  </separator>
 </parameters>
 <atominfo>
  <atoms>     288 </atoms>
  <types>       3 </types>
  <array name="atoms" >
   <dimension dim="1">ion</dimension>
   <field type="string">element</field>
   <field type="int">atomtype</field>
   <set>
    <rc><c>P </c><c>   1</c></rc>
    <rc><c>N </c><c>   2</c></rc>
    <rc><c>N </c><c>   2</c></rc>
    <rc><c>N </c><c>   2</c></rc>
    <rc><c>N </c><c>   2</c></rc>
    <rc><c>N </c><c>   2</c></rc>
    <rc><c>N </c><c>   2</c></rc>
    <rc><c>N </c><c>   2</c></rc>
    <rc><c>N </c><c>   2</c></rc>
    <rc><c>N </c><c>   2</c></rc>
    <rc><c>N </c><c>   2</c></rc>
    <rc><c>N </c><c>   2</c></rc>
    <rc><c>N </c><c>   2</c></rc>
    <rc><c>N </c><c>   2</c></rc>
    <rc><c>N </c><c>   2</c></rc>
    <rc><c>N </c><c>   2</c></rc>
    <rc><c>N </c><c>   2</c></rc>
    <rc><c>N </c><c>   2</c></rc>
    <rc><c>N </c><c>   2</c></rc>
    <rc><c>N </c><c>   2</c></rc>
    <rc><c>N </c><c>   2</c></rc>
    <rc><c>N </c><c>   2</c></rc>
    <rc><c>N </c><c>   2</c></rc>
    <rc><c>N </c><c>   2</c></rc>
    <rc><c>N </c><c>   2</c></rc>
    <rc><c>N </c><c>   2</c></rc>
    <rc><c>N </c><c>   2</c></rc>
    <rc><c>N </c><c>   2</c></rc>
    <rc><c>N </c><c>   2</c></rc>
    <rc><c>N </c><c>   2</c></rc>
    <rc><c>N </c><c>   2</c></rc>
    <rc><c>N </c><c>   2</c></rc>
    <rc><c>N </c><c>   2</c></rc>
    <rc><c>N </c><c>   2</c></rc>
    <rc><c>N </c><c>   2</c></rc>
    <rc><c>N </c><c>   2</c></rc>
    <rc><c>N </c><c>   2</c></rc>
    <rc><c>N </c><c>   2</c></rc>
    <rc><c>N </c><c>   2</c></rc>
    <rc><c>N </c><c>   2</c></rc>
    <rc><c>N </c><c>   2</c></rc>
    <rc><c>N </c><c>   2</c></rc>
    <rc><c>N </c><c>   2</c></rc>
    <rc><c>N </c><c>   2</c></rc>
    <rc><c>N </c><c>   2</c></rc>
    <rc><c>N </c><c>   2</c></rc>
    <rc><c>N </c><c>   2</c></rc>
    <rc><c>N </c><c>   2</c></rc>
    <rc><c>N </c><c>   2</c></rc>
    <rc><c>N </c><c>   2</c></rc>
    <rc><c>N </c><c>   2</c></rc>
    <rc><c>N </c><c>   2</c></rc>
    <rc><c>N </c><c>   2</c></rc>
    <rc><c>N </c><c>   2</c></rc>
    <rc><c>N </c><c>   2</c></rc>
    <rc><c>N </c><c>   2</c></rc>
    <rc><c>N </c><c>   2</c></rc>
    <rc><c>N </c><c>   2</c></rc>
    <rc><c>N </c><c>   2</c></rc>
    <rc><c>N </c><c>   2</c></rc>
    <rc><c>N </c><c>   2</c></rc>
    <rc><c>N </c><c>   2</c></rc>
    <rc><c>N </c><c>   2</c></rc>
    <rc><c>N </c><c>   2</c></rc>
    <rc><c>N </c><c>   2</c></rc>
    <rc><c>N </c><c>   2</c></rc>
    <rc><c>N </c><c>   2</c></rc>
    <rc><c>N </c><c>   2</c></rc>
    <rc><c>N </c><c>   2</c></rc>
    <rc><c>N </c><c>   2</c></rc>
    <rc><c>N </c><c>   2</c></rc>
    <rc><c>N </c><c>   2</c></rc>
    <rc><c>N </c><c>   2</c></rc>
    <rc><c>N </c><c>   2</c></rc>
    <rc><c>N </c><c>   2</c></rc>
    <rc><c>N </c><c>   2</c></rc>
    <rc><c>N </c><c>   2</c></rc>
    <rc><c>N </c><c>   2</c></rc>
    <rc><c>N </c><c>   2</c></rc>
    <rc><c>N </c><c>   2</c></rc>
    <rc><c>N </c><c>   2</c></rc>
    <rc><c>N </c><c>   2</c></rc>
    <rc><c>N </c><c>   2</c></rc>
    <rc><c>N </c><c>   2</c></rc>
    <rc><c>N </c><c>   2</c></rc>
    <rc><c>N </c><c>   2</c></rc>
    <rc><c>N </c><c>   2</c></rc>
    <rc><c>N </c><c>   2</c></rc>
    <rc><c>N </c><c>   2</c></rc>
    <rc><c>N </c><c>   2</c></rc>
    <rc><c>N </c><c>   2</c></rc>
    <rc><c>N </c><c>   2</c></rc>
    <rc><c>N </c><c>   2</c></rc>
    <rc><c>N </c><c>   2</c></rc>
    <rc><c>N </c><c>   2</c></rc>
    <rc><c>N </c><c>   2</c></rc>
    <rc><c>N </c><c>   2</c></rc>
    <rc><c>N </c><c>   2</c></rc>
    <rc><c>N </c><c>   2</c></rc>
    <rc><c>N </c><c>   2</c></rc>
    <rc><c>N </c><c>   2</c></rc>
    <rc><c>N </c><c>   2</c></rc>
    <rc><c>N </c><c>   2</c></rc>
    <rc><c>N </c><c>   2</c></rc>
    <rc><c>N </c><c>   2</c></rc>
    <rc><c>N </c><c>   2</c></rc>
    <rc><c>N </c><c>   2</c></rc>
    <rc><c>N </c><c>   2</c></rc>
    <rc><c>N </c><c>   2</c></rc>
    <rc><c>N </c><c>   2</c></rc>
    <rc><c>N </c><c>   2</c></rc>
    <rc><c>N </c><c>   2</c></rc>
    <rc><c>N </c><c>   2</c></rc>
    <rc><c>N </c><c>   2</c></rc>
    <rc><c>N </c><c>   2</c></rc>
    <rc><c>N </c><c>   2</c></rc>
    <rc><c>N </c><c>   2</c></rc>
    <rc><c>N </c><c>   2</c></rc>
    <rc><c>N </c><c>   2</c></rc>
    <rc><c>N </c><c>   2</c></rc>
    <rc><c>N </c><c>   2</c></rc>
    <rc><c>N </c><c>   2</c></rc>
    <rc><c>N </c><c>   2</c></rc>
    <rc><c>N </c><c>   2</c></rc>
    <rc><c>N </c><c>   2</c></rc>
    <rc><c>N </c><c>   2</c></rc>
    <rc><c>N </c><c>   2</c></rc>
    <rc><c>N </c><c>   2</c></rc>
    <rc><c>N </c><c>   2</c></rc>
    <rc><c>N </c><c>   2</c></rc>
    <rc><c>N </c><c>   2</c></rc>
    <rc><c>N </c><c>   2</c></rc>
    <rc><c>N </c><c>   2</c></rc>
    <rc><c>N </c><c>   2</c></rc>
    <rc><c>N </c><c>   2</c></rc>
    <rc><c>N </c><c>   2</c></rc>
    <rc><c>N </c><c>   2</c></rc>
    <rc><c>N </c><c>   2</c></rc>
    <rc><c>N </c><c>   2</c></rc>
    <rc><c>N </c><c>   2</c></rc>
    <rc><c>N </c><c>   2</c></rc>
    <rc><c>N </c><c>   2</c></rc>
    <rc><c>N </c><c>   2</c></rc>
    <rc><c>N </c><c>   2</c></rc>
    <rc><c>N </c><c>   2</c></rc>
    <rc><c>B </c><c>   3</c></rc>
    <rc><c>B </c><c>   3</c></rc>
    <rc><c>B </c><c>   3</c></rc>
    <rc><c>B </c><c>   3</c></rc>
    <rc><c>B </c><c>   3</c></rc>
    <rc><c>B </c><c>   3</c></rc>
    <rc><c>B </c><c>   3</c></rc>
    <rc><c>B </c><c>   3</c></rc>
    <rc><c>B </c><c>   3</c></rc>
    <rc><c>B </c><c>   3</c></rc>
    <rc><c>B </c><c>   3</c></rc>
    <rc><c>B </c><c>   3</c></rc>
    <rc><c>B </c><c>   3</c></rc>
    <rc><c>B </c><c>   3</c></rc>
    <rc><c>B </c><c>   3</c></rc>
    <rc><c>B </c><c>   3</c></rc>
    <rc><c>B </c><c>   3</c></rc>
    <rc><c>B </c><c>   3</c></rc>
    <rc><c>B </c><c>   3</c></rc>
    <rc><c>B </c><c>   3</c></rc>
    <rc><c>B </c><c>   3</c></rc>
    <rc><c>B </c><c>   3</c></rc>
    <rc><c>B </c><c>   3</c></rc>
    <rc><c>B </c><c>   3</c></rc>
    <rc><c>B </c><c>   3</c></rc>
    <rc><c>B </c><c>   3</c></rc>
    <rc><c>B </c><c>   3</c></rc>
    <rc><c>B </c><c>   3</c></rc>
    <rc><c>B </c><c>   3</c></rc>
    <rc><c>B </c><c>   3</c></rc>
    <rc><c>B </c><c>   3</c></rc>
    <rc><c>B </c><c>   3</c></rc>
    <rc><c>B </c><c>   3</c></rc>
    <rc><c>B </c><c>   3</c></rc>
    <rc><c>B </c><c>   3</c></rc>
    <rc><c>B </c><c>   3</c></rc>
    <rc><c>B </c><c>   3</c></rc>
    <rc><c>B </c><c>   3</c></rc>
    <rc><c>B </c><c>   3</c></rc>
    <rc><c>B </c><c>   3</c></rc>
    <rc><c>B </c><c>   3</c></rc>
    <rc><c>B </c><c>   3</c></rc>
    <rc><c>B </c><c>   3</c></rc>
    <rc><c>B </c><c>   3</c></rc>
    <rc><c>B </c><c>   3</c></rc>
    <rc><c>B </c><c>   3</c></rc>
    <rc><c>B </c><c>   3</c></rc>
    <rc><c>B </c><c>   3</c></rc>
    <rc><c>B </c><c>   3</c></rc>
    <rc><c>B </c><c>   3</c></rc>
    <rc><c>B </c><c>   3</c></rc>
    <rc><c>B </c><c>   3</c></rc>
    <rc><c>B </c><c>   3</c></rc>
    <rc><c>B </c><c>   3</c></rc>
    <rc><c>B </c><c>   3</c></rc>
    <rc><c>B </c><c>   3</c></rc>
    <rc><c>B </c><c>   3</c></rc>
    <rc><c>B </c><c>   3</c></rc>
    <rc><c>B </c><c>   3</c></rc>
    <rc><c>B </c><c>   3</c></rc>
    <rc><c>B </c><c>   3</c></rc>
    <rc><c>B </c><c>   3</c></rc>
    <rc><c>B </c><c>   3</c></rc>
    <rc><c>B </c><c>   3</c></rc>
    <rc><c>B </c><c>   3</c></rc>
    <rc><c>B </c><c>   3</c></rc>
    <rc><c>B </c><c>   3</c></rc>
    <rc><c>B </c><c>   3</c></rc>
    <rc><c>B </c><c>   3</c></rc>
    <rc><c>B </c><c>   3</c></rc>
    <rc><c>B </c><c>   3</c></rc>
    <rc><c>B </c><c>   3</c></rc>
    <rc><c>B </c><c>   3</c></rc>
    <rc><c>B </c><c>   3</c></rc>
    <rc><c>B </c><c>   3</c></rc>
    <rc><c>B </c><c>   3</c></rc>
    <rc><c>B </c><c>   3</c></rc>
    <rc><c>B </c><c>   3</c></rc>
    <rc><c>B </c><c>   3</c></rc>
    <rc><c>B </c><c>   3</c></rc>
    <rc><c>B </c><c>   3</c></rc>
    <rc><c>B </c><c>   3</c></rc>
    <rc><c>B </c><c>   3</c></rc>
    <rc><c>B </c><c>   3</c></rc>
    <rc><c>B </c><c>   3</c></rc>
    <rc><c>B </c><c>   3</c></rc>
    <rc><c>B </c><c>   3</c></rc>
    <rc><c>B </c><c>   3</c></rc>
    <rc><c>B </c><c>   3</c></rc>
    <rc><c>B </c><c>   3</c></rc>
    <rc><c>B </c><c>   3</c></rc>
    <rc><c>B </c><c>   3</c></rc>
    <rc><c>B </c><c>   3</c></rc>
    <rc><c>B </c><c>   3</c></rc>
    <rc><c>B </c><c>   3</c></rc>
    <rc><c>B </c><c>   3</c></rc>
    <rc><c>B </c><c>   3</c></rc>
    <rc><c>B </c><c>   3</c></rc>
    <rc><c>B </c><c>   3</c></rc>
    <rc><c>B </c><c>   3</c></rc>
    <rc><c>B </c><c>   3</c></rc>
    <rc><c>B </c><c>   3</c></rc>
    <rc><c>B </c><c>   3</c></rc>
    <rc><c>B </c><c>   3</c></rc>
    <rc><c>B </c><c>   3</c></rc>
    <rc><c>B </c><c>   3</c></rc>
    <rc><c>B </c><c>   3</c></rc>
    <rc><c>B </c><c>   3</c></rc>
    <rc><c>B </c><c>   3</c></rc>
    <rc><c>B </c><c>   3</c></rc>
    <rc><c>B </c><c>   3</c></rc>
    <rc><c>B </c><c>   3</c></rc>
    <rc><c>B </c><c>   3</c></rc>
    <rc><c>B </c><c>   3</c></rc>
    <rc><c>B </c><c>   3</c></rc>
    <rc><c>B </c><c>   3</c></rc>
    <rc><c>B </c><c>   3</c></rc>
    <rc><c>B </c><c>   3</c></rc>
    <rc><c>B </c><c>   3</c></rc>
    <rc><c>B </c><c>   3</c></rc>
    <rc><c>B </c><c>   3</c></rc>
    <rc><c>B </c><c>   3</c></rc>
    <rc><c>B </c><c>   3</c></rc>
    <rc><c>B </c><c>   3</c></rc>
    <rc><c>B </c><c>   3</c></rc>
    <rc><c>B </c><c>   3</c></rc>
    <rc><c>B </c><c>   3</c></rc>
    <rc><c>B </c><c>   3</c></rc>
    <rc><c>B </c><c>   3</c></rc>
    <rc><c>B </c><c>   3</c></rc>
    <rc><c>B </c><c>   3</c></rc>
    <rc><c>B </c><c>   3</c></rc>
    <rc><c>B </c><c>   3</c></rc>
    <rc><c>B </c><c>   3</c></rc>
    <rc><c>B </c><c>   3</c></rc>
    <rc><c>B </c><c>   3</c></rc>
    <rc><c>B </c><c>   3</c></rc>
    <rc><c>B </c><c>   3</c></rc>
    <rc><c>B </c><c>   3</c></rc>
    <rc><c>B </c><c>   3</c></rc>
    <rc><c>B </c><c>   3</c></rc>
    <rc><c>B </c><c>   3</c></rc>
    <rc><c>B </c><c>   3</c></rc>
   </set>
  </array>
  <array name="atomtypes" >
   <dimension dim="1">type</dimension>
   <field type="int">atomspertype</field>
   <field type="string">element</field>
   <field>mass</field>
   <field>valence</field>
   <field type="string">pseudopotential</field>
   <set>
    <rc><c>   1</c><c>P </c><c>     30.97400000</c><c>      5.00000000</c><c>  PAW_PBE P 06Sep2000                   </c></rc>
    <rc><c> 144</c><c>N </c><c>     14.00100000</c><c>      5.00000000</c><c>  PAW_PBE N 08Apr2002                   </c></rc>
    <rc><c> 143</c><c>B </c><c>     10.81100000</c><c>      3.00000000</c><c>  PAW_PBE B 06Sep2000                   </c></rc>
   </set>
  </array>
 </atominfo>
 <structure name="initialpos" >
  <crystal>
   <varray name="basis" >
    <v>      14.93631415       0.00000000       0.00000000 </v>
    <v>      -7.46815707      12.93522749      -0.00000000 </v>
    <v>       0.00000000       0.00000000      13.34127628 </v>
   </varray>
   <i name="volume">   2577.59623255 </i>
   <varray name="rec_basis" >
    <v>       0.06695092       0.03865413      -0.00000000 </v>
    <v>       0.00000000       0.07730827      -0.00000000 </v>
    <v>       0.00000000       0.00000000       0.07495535 </v>
   </varray>
  </crystal>
  <varray name="positions" >
   <v>       0.44444444       0.38888889       0.37500000 </v>
   <v>       0.11110578       0.05553988       0.12514209 </v>
   <v>       0.61111893       0.55556454       0.12533815 </v>
   <v>       0.44443410       0.05553988       0.12514209 </v>
   <v>       0.94445577       0.55556472       0.12511237 </v>
   <v>       0.77777778       0.05555556       0.12508750 </v>
   <v>       0.11111111       0.72222222       0.62490204 </v>
   <v>       0.44443410       0.72222755       0.62485791 </v>
   <v>       0.27776879       0.22221440       0.62466185 </v>
   <v>       0.77779345       0.72222755       0.62485791 </v>
   <v>       0.61111409       0.22221925       0.62484996 </v>
   <v>       0.94444599       0.22222938       0.62490241 </v>
   <v>       0.27776861       0.72222439       0.12511237 </v>
   <v>       0.11110516       0.22221925       0.12515004 </v>
   <v>       0.44444561       0.22221440       0.12533815 </v>
   <v>       0.61111409       0.72222817       0.12515004 </v>
   <v>       0.94445577       0.72222439       0.12511237 </v>
   <v>       0.77778339       0.22222938       0.12509759 </v>
   <v>       0.11110895       0.88887756       0.62488763 </v>
   <v>       0.44443273       0.88888303       0.62489877 </v>
   <v>       0.27776879       0.38888773       0.62466185 </v>
   <v>       0.61111893       0.38888773       0.62466185 </v>
   <v>       0.77778339       0.88888734       0.62490241 </v>
   <v>       0.94445030       0.38890061       0.62489877 </v>
   <v>       0.11110578       0.38889924       0.12514209 </v>
   <v>       0.27776861       0.88887756       0.12511237 </v>
   <v>       0.61110395       0.88888734       0.12509759 </v>
   <v>       0.44444444       0.38888889       0.12572567 </v>
   <v>       0.94445030       0.88888303       0.12510123 </v>
   <v>       0.77779345       0.38889924       0.12514209 </v>
   <v>       0.27776995       0.55556338       0.62481384 </v>
   <v>       0.11110578       0.05553988       0.62485791 </v>
   <v>       0.61111893       0.55556454       0.62466185 </v>
   <v>       0.44443410       0.05553988       0.62485791 </v>
   <v>       0.94445577       0.55556472       0.62488763 </v>
   <v>       0.11110895       0.55556472       0.12511237 </v>
   <v>       0.77777778       0.05555556       0.62491250 </v>
   <v>       0.27776995       0.05553990       0.12518616 </v>
   <v>       0.44444561       0.55556454       0.12533815 </v>
   <v>       0.77779343       0.55556338       0.12518616 </v>
   <v>       0.61110395       0.05554994       0.12509759 </v>
   <v>       0.44444561       0.55556454       0.62466185 </v>
   <v>       0.94444599       0.05554994       0.12509759 </v>
   <v>       0.27776861       0.72222439       0.62488763 </v>
   <v>       0.11110516       0.22221925       0.62484996 </v>
   <v>       0.44444561       0.22221440       0.62466185 </v>
   <v>       0.61111409       0.72222817       0.62484996 </v>
   <v>       0.94445577       0.72222439       0.62488763 </v>
   <v>       0.77778339       0.22222938       0.62490241 </v>
   <v>       0.11111111       0.72222222       0.12509796 </v>
   <v>       0.44443410       0.72222755       0.12514209 </v>
   <v>       0.27776879       0.22221440       0.12533815 </v>
   <v>       0.77779345       0.72222755       0.12514209 </v>
   <v>       0.61111409       0.22221925       0.12515004 </v>
   <v>       0.94444599       0.22222938       0.12509759 </v>
   <v>       0.11110578       0.38889924       0.62485791 </v>
   <v>       0.27776861       0.88887756       0.62488763 </v>
   <v>       0.61110395       0.88888734       0.62490241 </v>
   <v>       0.44444444       0.38888889       0.62427433 </v>
   <v>       0.94445030       0.88888303       0.62489877 </v>
   <v>       0.11110895       0.88887756       0.12511237 </v>
   <v>       0.77779345       0.38889924       0.62485791 </v>
   <v>       0.44443273       0.88888303       0.12510123 </v>
   <v>       0.27776879       0.38888773       0.12533815 </v>
   <v>       0.27776995       0.55556338       0.12518616 </v>
   <v>       0.61111893       0.38888773       0.12533815 </v>
   <v>       0.77778339       0.88888734       0.12509759 </v>
   <v>       0.94445030       0.38890061       0.12510123 </v>
   <v>       0.11110895       0.55556472       0.62488763 </v>
   <v>       0.27776995       0.05553990       0.62481384 </v>
   <v>       0.77779343       0.55556338       0.62481384 </v>
   <v>       0.61110395       0.05554994       0.62490241 </v>
   <v>       0.94444599       0.05554994       0.62490241 </v>
   <v>       0.05492459       0.11067225       0.37500000 </v>
   <v>       0.55597948       0.61195895       0.37500000 </v>
   <v>       0.38821178       0.10798614       0.37500000 </v>
   <v>       0.88997050       0.61165191       0.37500000 </v>
   <v>       0.72233166       0.11100168       0.37500000 </v>
   <v>       0.05555347       0.77777986       0.87500000 </v>
   <v>       0.38889499       0.77778040       0.87500000 </v>
   <v>       0.22222211       0.27777772       0.87500000 </v>
   <v>       0.72222208       0.77778036       0.87500000 </v>
   <v>       0.55555561       0.27777772       0.87500000 </v>
   <v>       0.88888780       0.27777560       0.87500000 </v>
   <v>       0.22203010       0.77768172       0.37500000 </v>
   <v>       0.05492459       0.27758567       0.37500000 </v>
   <v>       0.38321436       0.26642872       0.37500000 </v>
   <v>       0.55574766       0.77840874       0.37500000 </v>
   <v>       0.88973042       0.77847773       0.37500000 </v>
   <v>       0.72266108       0.27758567       0.37500000 </v>
   <v>       0.05555294       0.94444793       0.87500000 </v>
   <v>       0.38889499       0.94444793       0.87500000 </v>
   <v>       0.22222295       0.44443974       0.87500000 </v>
   <v>       0.55555250       0.44444291       0.87500000 </v>
   <v>       0.72222259       0.94444517       0.87500000 </v>
   <v>       0.88888540       0.44443834       0.87500000 </v>
   <v>       0.05485561       0.44458602       0.37500000 </v>
   <v>       0.22168142       0.94336284       0.37500000 </v>
   <v>       0.55571596       0.94452465       0.37500000 </v>
   <v>       0.38321436       0.45011897       0.37500000 </v>
   <v>       0.88880868       0.94452465       0.37500000 </v>
   <v>       0.72534720       0.44512155       0.37500000 </v>
   <v>       0.22222502       0.61110832       0.87500000 </v>
   <v>       0.05555297       0.11111126       0.87500000 </v>
   <v>       0.55555561       0.61111123       0.87500000 </v>
   <v>       0.38889360       0.11111654       0.87500000 </v>
   <v>       0.88888330       0.61110832       0.87500000 </v>
   <v>       0.05565162       0.61130323       0.37500000 </v>
   <v>       0.72222259       0.11111075       0.87500000 </v>
   <v>       0.21977436       0.10798614       0.37500000 </v>
   <v>       0.38821178       0.61355898       0.37500000 </v>
   <v>       0.72534720       0.61355898       0.37500000 </v>
   <v>       0.55574766       0.11067225       0.37500000 </v>
   <v>       0.38889360       0.61111039       0.87500000 </v>
   <v>       0.88867002       0.11100168       0.37500000 </v>
   <v>       0.22222639       0.77777986       0.87500000 </v>
   <v>       0.05555297       0.27777505       0.87500000 </v>
   <v>       0.38889042       0.27778084       0.87500000 </v>
   <v>       0.55555829       0.77778036       0.87500000 </v>
   <v>       0.88888540       0.77778040       0.87500000 </v>
   <v>       0.72222208       0.27777505       0.87500000 </v>
   <v>       0.05565162       0.77768172       0.37500000 </v>
   <v>       0.38874731       0.77847773       0.37500000 </v>
   <v>       0.22137438       0.27735386       0.37500000 </v>
   <v>       0.72266108       0.77840874       0.37500000 </v>
   <v>       0.55597948       0.27735386       0.37500000 </v>
   <v>       0.88880868       0.27761737       0.37500000 </v>
   <v>       0.05555294       0.44443834       0.87500000 </v>
   <v>       0.22222502       0.94445003       0.87500000 </v>
   <v>       0.55555773       0.94444553       0.87500000 </v>
   <v>       0.38889042       0.44444291       0.87500000 </v>
   <v>       0.88888780       0.94444553       0.87500000 </v>
   <v>       0.05485561       0.94360291       0.37500000 </v>
   <v>       0.72221679       0.44443974       0.87500000 </v>
   <v>       0.38874731       0.94360291       0.37500000 </v>
   <v>       0.21977436       0.44512155       0.37500000 </v>
   <v>       0.22168142       0.61165191       0.37500000 </v>
   <v>       0.56690462       0.45011897       0.37500000 </v>
   <v>       0.72233166       0.94466331       0.37500000 </v>
   <v>       0.88973042       0.44458602       0.37500000 </v>
   <v>       0.05555347       0.61110694       0.87500000 </v>
   <v>       0.22222295       0.11111654       0.87500000 </v>
   <v>       0.72221679       0.61111039       0.87500000 </v>
   <v>       0.55555829       0.11111126       0.87500000 </v>
   <v>       0.88888816       0.11111075       0.87500000 </v>
   <v>       0.10888702       0.05363429       0.37500000 </v>
   <v>       0.61662821       0.56151023       0.37500000 </v>
   <v>       0.44474727       0.05363429       0.37500000 </v>
   <v>       0.94505350       0.55569452       0.37500000 </v>
   <v>       0.77777778       0.05555556       0.37500000 </v>
   <v>       0.11111111       0.72222222       0.87500000 </v>
   <v>       0.44445789       0.72225917       0.87500000 </v>
   <v>       0.27773656       0.22218886       0.87500000 </v>
   <v>       0.77780129       0.72225917       0.87500000 </v>
   <v>       0.61113701       0.22219632       0.87500000 </v>
   <v>       0.94441891       0.22220602       0.87500000 </v>
   <v>       0.27763881       0.72269232       0.37500000 </v>
   <v>       0.10939752       0.22136543       0.37500000 </v>
   <v>       0.44488202       0.21670513       0.37500000 </v>
   <v>       0.61196791       0.72393582       0.37500000 </v>
   <v>       0.94505350       0.72269232       0.37500000 </v>
   <v>       0.77798832       0.22181380       0.37500000 </v>
   <v>       0.11109976       0.88887925       0.87500000 </v>
   <v>       0.44445802       0.88889568       0.87500000 </v>
   <v>       0.27773656       0.38888103       0.87500000 </v>
   <v>       0.61114447       0.38888103       0.87500000 </v>
   <v>       0.77778711       0.88891442       0.87500000 </v>
   <v>       0.94443766       0.38887531       0.87500000 </v>
   <v>       0.10888702       0.38858606       0.37500000 </v>
   <v>       0.27763881       0.88827983       0.37500000 </v>
   <v>       0.61151953       0.88950785       0.37500000 </v>
   <v>       0.94428960       0.88904373       0.37500000 </v>
   <v>       0.77969904       0.38858606       0.37500000 </v>
   <v>       0.27776270       0.55557063       0.87500000 </v>
   <v>       0.11107416       0.05553205       0.87500000 </v>
   <v>       0.61114447       0.55559678       0.87500000 </v>
   <v>       0.44445789       0.05553205       0.87500000 </v>
   <v>       0.94445408       0.55555385       0.87500000 </v>
   <v>       0.11064101       0.55569452       0.37500000 </v>
   <v>       0.77777778       0.05555556       0.87500000 </v>
   <v>       0.27665444       0.05330889       0.37500000 </v>
   <v>       0.44488202       0.56151023       0.37500000 </v>
   <v>       0.78002445       0.55667889       0.37500000 </v>
   <v>       0.61151953       0.05534502       0.37500000 </v>
   <v>       0.44445231       0.55559678       0.87500000 </v>
   <v>       0.94382548       0.05534502       0.37500000 </v>
   <v>       0.27777949       0.72223357       0.87500000 </v>
   <v>       0.11105932       0.22219632       0.87500000 </v>
   <v>       0.44445231       0.22218886       0.87500000 </v>
   <v>       0.61113701       0.72227402       0.87500000 </v>
   <v>       0.94445408       0.72223357       0.87500000 </v>
   <v>       0.77778711       0.22220602       0.87500000 </v>
   <v>       0.11161044       0.72222222       0.37549932 </v>
   <v>       0.44474727       0.72444631       0.37500000 </v>
   <v>       0.27182310       0.21670513       0.37500000 </v>
   <v>       0.77969904       0.72444631       0.37500000 </v>
   <v>       0.61196791       0.22136543       0.37500000 </v>
   <v>       0.94382548       0.22181380       0.37500000 </v>
   <v>       0.11107416       0.38887545       0.87500000 </v>
   <v>       0.27777949       0.88887925       0.87500000 </v>
   <v>       0.61112731       0.88891442       0.87500000 </v>
   <v>       0.44444444       0.38888889       0.87500000 </v>
   <v>       0.94443766       0.88889568       0.87500000 </v>
   <v>       0.11064101       0.88827983       0.37500000 </v>
   <v>       0.77780129       0.38887545       0.87500000 </v>
   <v>       0.44475413       0.88904373       0.37500000 </v>
   <v>       0.27182310       0.38845131       0.37500000 </v>
   <v>       0.27665444       0.55667889       0.37500000 </v>
   <v>       0.61662821       0.38845131       0.37500000 </v>
   <v>       0.77798832       0.88950785       0.37500000 </v>
   <v>       0.94428960       0.38857921       0.37500000 </v>
   <v>       0.11109976       0.55555385       0.87500000 </v>
   <v>       0.27776270       0.05552540       0.87500000 </v>
   <v>       0.77780793       0.55557063       0.87500000 </v>
   <v>       0.61112731       0.05554622       0.87500000 </v>
   <v>       0.94441891       0.05554622       0.87500000 </v>
   <v>       0.05546928       0.11103632       0.12487403 </v>
   <v>       0.55563492       0.61126984       0.12476730 </v>
   <v>       0.38882801       0.11092619       0.12483104 </v>
   <v>       0.88900701       0.61117017       0.12488859 </v>
   <v>       0.72223458       0.11109875       0.12491481 </v>
   <v>       0.05557215       0.77776118       0.62509033 </v>
   <v>       0.38885004       0.77781495       0.62510653 </v>
   <v>       0.22206349       0.27769841       0.62523270 </v>
   <v>       0.72229702       0.77786405       0.62512597 </v>
   <v>       0.55563492       0.27769841       0.62523270 </v>
   <v>       0.88889259       0.27778519       0.62508998 </v>
   <v>       0.22218903       0.77776118       0.12490967 </v>
   <v>       0.05546928       0.27776630       0.12487403 </v>
   <v>       0.38878395       0.27756790       0.12459556 </v>
   <v>       0.55556704       0.77786405       0.12487403 </v>
   <v>       0.88896491       0.77781495       0.12489347 </v>
   <v>       0.72229702       0.27776630       0.12487403 </v>
   <v>       0.05551838       0.94436842       0.62510653 </v>
   <v>       0.38885004       0.94436842       0.62510653 </v>
   <v>       0.22209818       0.44450532       0.62516896 </v>
   <v>       0.55576543       0.44454938       0.62540444 </v>
   <v>       0.72223458       0.94446917       0.62508519 </v>
   <v>       0.88896491       0.44448330       0.62510653 </v>
   <v>       0.05551838       0.44448330       0.12489347 </v>
   <v>       0.22216316       0.94432633       0.12488859 </v>
   <v>       0.55554814       0.94444074       0.12491002 </v>
   <v>       0.38878395       0.44454938       0.12459556 </v>
   <v>       0.88889259       0.94444074       0.12491002 </v>
   <v>       0.72240714       0.44450532       0.12483104 </v>
   <v>       0.22216316       0.61117017       0.62511141 </v>
   <v>       0.05546928       0.11103632       0.62512597 </v>
   <v>       0.55563492       0.61126984       0.62523270 </v>
   <v>       0.38882801       0.11092619       0.62516896 </v>
   <v>       0.88900701       0.61117017       0.62511141 </v>
   <v>       0.05557215       0.61114430       0.12490967 </v>
   <v>       0.72223458       0.11109875       0.62508519 </v>
   <v>       0.22209818       0.11092619       0.12483104 </v>
   <v>       0.38882801       0.61123515       0.12483104 </v>
   <v>       0.72240714       0.61123515       0.12483104 </v>
   <v>       0.55556704       0.11103632       0.12487403 </v>
   <v>       0.38882801       0.61123515       0.62516896 </v>
   <v>       0.88886417       0.11109875       0.12491481 </v>
   <v>       0.22218903       0.77776118       0.62509033 </v>
   <v>       0.05546928       0.27776630       0.62512597 </v>
   <v>       0.38878395       0.27756790       0.62540444 </v>
   <v>       0.55556704       0.77786405       0.62512597 </v>
   <v>       0.88896491       0.77781495       0.62510653 </v>
   <v>       0.72229702       0.27776630       0.62512597 </v>
   <v>       0.05557215       0.77776118       0.12490967 </v>
   <v>       0.38885004       0.77781495       0.12489347 </v>
   <v>       0.22206349       0.27769841       0.12476730 </v>
   <v>       0.72229702       0.77786405       0.12487403 </v>
   <v>       0.55563492       0.27769841       0.12476730 </v>
   <v>       0.88889259       0.27778519       0.12491002 </v>
   <v>       0.05551838       0.44448330       0.62510653 </v>
   <v>       0.22216316       0.94432633       0.62511141 </v>
   <v>       0.55554814       0.94444074       0.62508998 </v>
   <v>       0.38878395       0.44454938       0.62540444 </v>
   <v>       0.88889259       0.94444074       0.62508998 </v>
   <v>       0.05551838       0.94436842       0.12489347 </v>
   <v>       0.72240714       0.44450532       0.62516896 </v>
   <v>       0.38885004       0.94436842       0.12489347 </v>
   <v>       0.22209818       0.44450532       0.12483104 </v>
   <v>       0.22216316       0.61117017       0.12488859 </v>
   <v>       0.55576543       0.44454938       0.12459556 </v>
   <v>       0.72223458       0.94446917       0.12491481 </v>
   <v>       0.88896491       0.44448330       0.12489347 </v>
   <v>       0.05557215       0.61114430       0.62509033 </v>
   <v>       0.22209818       0.11092619       0.62516896 </v>
   <v>       0.72240714       0.61123515       0.62516896 </v>
   <v>       0.55556704       0.11103632       0.62512597 </v>
   <v>       0.88886417       0.11109875       0.62508519 </v>
  </varray>
 </structure>
 <calculation>
  <scstep>
   <time name="dav">    8.23    8.23</time>
   <time name="total">    8.44    8.44</time>
   <energy>
    <i name="alphaZ">   2866.36594071 </i>
    <i name="ewald"> -35860.83477201 </i>
    <i name="hartreedc"> -13235.40624548 </i>
    <i name="XCdc">   3913.00026585 </i>
    <i name="pawpsdc">  35870.55371313 </i>
    <i name="pawaedc"> -35911.58316637 </i>
    <i name="eentropy">     -0.04285151 </i>
    <i name="bandstr">     62.64578126 </i>
    <i name="atom">  48446.24376545 </i>
    <i name="e_fr_energy">   6150.94243103 </i>
    <i name="e_wo_entrp">   6150.98528254 </i>
    <i name="e_0_energy">   6150.96385678 </i>
   </energy>
  </scstep>
  <scstep>
   <time name="dav">    9.72    9.72</time>
   <time name="total">    9.73    9.73</time>
   <energy>
    <i name="e_fr_energy">  -2175.98555202 </i>
    <i name="e_wo_entrp">  -2175.96926949 </i>
    <i name="e_0_energy">  -2175.97741076 </i>
   </energy>
  </scstep>
  <scstep>
   <time name="dav">    9.12    9.11</time>
   <time name="total">    9.14    9.13</time>
   <energy>
    <i name="e_fr_energy">  -2778.36113854 </i>
    <i name="e_wo_entrp">  -2778.34876009 </i>
    <i name="e_0_energy">  -2778.35494931 </i>
   </energy>
  </scstep>
  <scstep>
   <time name="dav">    9.19    9.18</time>
   <time name="total">    9.19    9.19</time>
   <energy>
    <i name="e_fr_energy">  -2792.06955337 </i>
    <i name="e_wo_entrp">  -2792.05904052 </i>
    <i name="e_0_energy">  -2792.06429694 </i>
   </energy>
  </scstep>
  <scstep>
   <time name="dav">    9.18    9.18</time>
   <time name="total">    9.43    9.42</time>
   <energy>
    <i name="e_fr_energy">  -2792.43943906 </i>
    <i name="e_wo_entrp">  -2792.42900359 </i>
    <i name="e_0_energy">  -2792.43422132 </i>
   </energy>
  </scstep>
  <scstep>
   <time name="diag">    0.67    0.67</time>
   <time name="diis">    5.03    5.02</time>
   <time name="orth">    0.27    0.27</time>
   <time name="total">    6.46    6.45</time>
   <energy>
    <i name="e_fr_energy">  -2547.78496367 </i>
    <i name="e_wo_entrp">  -2547.78496367 </i>
    <i name="e_0_energy">  -2547.78496367 </i>
   </energy>
  </scstep>
  <scstep>
   <time name="diag">    0.63    0.63</time>
   <time name="diis">    5.20    5.19</time>
   <time name="orth">    0.27    0.27</time>
   <time name="total">    6.55    6.55</time>
   <energy>
    <i name="e_fr_energy">  -2533.08198682 </i>
    <i name="e_wo_entrp">  -2533.08198682 </i>
    <i name="e_0_energy">  -2533.08198682 </i>
   </energy>
  </scstep>
  <scstep>
   <time name="diag">    0.63    0.63</time>
   <time name="diis">    5.22    5.21</time>
   <time name="orth">    0.28    0.28</time>
   <time name="total">    6.57    6.57</time>
   <energy>
    <i name="e_fr_energy">  -2530.02319553 </i>
    <i name="e_wo_entrp">  -2530.02319553 </i>
    <i name="e_0_energy">  -2530.02319553 </i>
   </energy>
  </scstep>
  <scstep>
   <time name="diag">    0.65    0.65</time>
   <time name="diis">    5.36    5.36</time>
   <time name="orth">    0.28    0.28</time>
   <time name="total">    6.76    6.75</time>
   <energy>
    <i name="e_fr_energy">  -2526.12992058 </i>
    <i name="e_wo_entrp">  -2526.12992058 </i>
    <i name="e_0_energy">  -2526.12992058 </i>
   </energy>
  </scstep>
  <scstep>
   <time name="diag">    0.64    0.64</time>
   <time name="diis">    5.59    5.59</time>
   <time name="orth">    0.27    0.27</time>
   <time name="total">    6.96    6.95</time>
   <energy>
    <i name="e_fr_energy">  -2526.20280461 </i>
    <i name="e_wo_entrp">  -2526.20280461 </i>
    <i name="e_0_energy">  -2526.20280461 </i>
   </energy>
  </scstep>
  <scstep>
   <time name="diag">    0.65    0.64</time>
   <time name="diis">    5.56    5.56</time>
   <time name="orth">    0.29    0.29</time>
   <time name="total">    6.94    6.94</time>
   <energy>
    <i name="e_fr_energy">  -2526.22443608 </i>
    <i name="e_wo_entrp">  -2526.22443608 </i>
    <i name="e_0_energy">  -2526.22443608 </i>
   </energy>
  </scstep>
  <scstep>
   <time name="diag">    0.63    0.63</time>
   <time name="diis">    5.58    5.58</time>
   <time name="orth">    0.27    0.27</time>
   <time name="total">    6.93    6.92</time>
   <energy>
    <i name="e_fr_energy">  -2526.19705899 </i>
    <i name="e_wo_entrp">  -2526.19705899 </i>
    <i name="e_0_energy">  -2526.19705899 </i>
   </energy>
  </scstep>
  <scstep>
   <time name="diag">    0.63    0.63</time>
   <time name="diis">    5.72    5.72</time>
   <time name="orth">    0.27    0.27</time>
   <time name="total">    7.07    7.06</time>
   <energy>
    <i name="e_fr_energy">  -2526.19597127 </i>
    <i name="e_wo_entrp">  -2526.19597127 </i>
    <i name="e_0_energy">  -2526.19597127 </i>
   </energy>
  </scstep>
  <scstep>
   <time name="diag">    0.63    0.63</time>
   <time name="diis">    5.88    5.88</time>
   <time name="orth">    0.29    0.29</time>
   <time name="total">    7.25    7.24</time>
   <energy>
    <i name="e_fr_energy">  -2526.19625073 </i>
    <i name="e_wo_entrp">  -2526.19625073 </i>
    <i name="e_0_energy">  -2526.19625073 </i>
   </energy>
  </scstep>
  <scstep>
   <time name="diag">    0.63    0.63</time>
   <time name="diis">    5.95    5.94</time>
   <time name="orth">    0.28    0.28</time>
   <time name="total">    7.34    7.33</time>
   <energy>
    <i name="e_fr_energy">  -2526.19633645 </i>
    <i name="e_wo_entrp">  -2526.19633645 </i>
    <i name="e_0_energy">  -2526.19633645 </i>
   </energy>
  </scstep>
  <scstep>
   <time name="diag">    0.65    0.65</time>
   <time name="diis">    5.85    5.84</time>
   <time name="orth">    0.27    0.27</time>
   <time name="total">    7.20    7.20</time>
   <energy>
    <i name="e_fr_energy">  -2526.19630567 </i>
    <i name="e_wo_entrp">  -2526.19630567 </i>
    <i name="e_0_energy">  -2526.19630567 </i>
   </energy>
  </scstep>
  <scstep>
   <time name="diag">    0.63    0.63</time>
   <time name="diis">    5.81    5.80</time>
   <time name="orth">    0.27    0.27</time>
   <time name="total">    7.18    7.17</time>
   <energy>
    <i name="e_fr_energy">  -2526.19629763 </i>
    <i name="e_wo_entrp">  -2526.19629763 </i>
    <i name="e_0_energy">  -2526.19629763 </i>
   </energy>
  </scstep>
  <scstep>
   <time name="diag">    0.64    0.64</time>
   <time name="diis">    5.56    5.55</time>
   <time name="orth">    0.27    0.27</time>
   <time name="total">    6.91    6.91</time>
   <energy>
    <i name="e_fr_energy">  -2526.19629795 </i>
    <i name="e_wo_entrp">  -2526.19629795 </i>
    <i name="e_0_energy">  -2526.19629795 </i>
   </energy>
  </scstep>
  <scstep>
   <time name="diag">    0.64    0.64</time>
   <time name="diis">    4.48    4.48</time>
   <time name="orth">    0.27    0.27</time>
   <time name="total">    5.61    5.61</time>
   <energy>
    <i name="alphaZ">   2866.36594071 </i>
    <i name="ewald"> -35860.83477201 </i>
    <i name="hartreedc"> -16414.53957846 </i>
    <i name="XCdc">   4103.41349517 </i>
    <i name="pawpsdc"> 140224.89171470 </i>
    <i name="pawaedc">-140325.47020284 </i>
    <i name="eentropy">     -0.00000000 </i>
    <i name="bandstr">  -5566.26666032 </i>
    <i name="atom">  48446.24376545 </i>
    <i name="e_fr_energy">  -2526.19629760 </i>
    <i name="e_wo_entrp">  -2526.19629760 </i>
    <i name="e_0_energy">  -2526.19629760 </i>
   </energy>
  </scstep>
  <structure>
   <crystal>
    <varray name="basis" >
     <v>      14.93631415       0.00000000       0.00000000 </v>
     <v>      -7.46815707      12.93522749      -0.00000000 </v>
     <v>       0.00000000       0.00000000      13.34127628 </v>
    </varray>
    <i name="volume">   2577.59623255 </i>
    <varray name="rec_basis" >
     <v>       0.06695092       0.03865413      -0.00000000 </v>
     <v>       0.00000000       0.07730827      -0.00000000 </v>
     <v>       0.00000000       0.00000000       0.07495535 </v>
    </varray>
   </crystal>
   <varray name="positions" >
    <v>       0.44444444       0.38888889       0.37500000 </v>
    <v>       0.11110578       0.05553988       0.12514209 </v>
    <v>       0.61111893       0.55556454       0.12533815 </v>
    <v>       0.44443410       0.05553988       0.12514209 </v>
    <v>       0.94445577       0.55556472       0.12511237 </v>
    <v>       0.77777778       0.05555556       0.12508750 </v>
    <v>       0.11111111       0.72222222       0.62490204 </v>
    <v>       0.44443410       0.72222755       0.62485791 </v>
    <v>       0.27776879       0.22221440       0.62466185 </v>
    <v>       0.77779345       0.72222755       0.62485791 </v>
    <v>       0.61111409       0.22221925       0.62484996 </v>
    <v>       0.94444599       0.22222938       0.62490241 </v>
    <v>       0.27776861       0.72222439       0.12511237 </v>
    <v>       0.11110516       0.22221925       0.12515004 </v>
    <v>       0.44444561       0.22221440       0.12533815 </v>
    <v>       0.61111409       0.72222817       0.12515004 </v>
    <v>       0.94445577       0.72222439       0.12511237 </v>
    <v>       0.77778339       0.22222938       0.12509759 </v>
    <v>       0.11110895       0.88887756       0.62488763 </v>
    <v>       0.44443273       0.88888303       0.62489877 </v>
    <v>       0.27776879       0.38888773       0.62466185 </v>
    <v>       0.61111893       0.38888773       0.62466185 </v>
    <v>       0.77778339       0.88888734       0.62490241 </v>
    <v>       0.94445030       0.38890061       0.62489877 </v>
    <v>       0.11110578       0.38889924       0.12514209 </v>
    <v>       0.27776861       0.88887756       0.12511237 </v>
    <v>       0.61110395       0.88888734       0.12509759 </v>
    <v>       0.44444444       0.38888889       0.12572567 </v>
    <v>       0.94445030       0.88888303       0.12510123 </v>
    <v>       0.77779345       0.38889924       0.12514209 </v>
    <v>       0.27776995       0.55556338       0.62481384 </v>
    <v>       0.11110578       0.05553988       0.62485791 </v>
    <v>       0.61111893       0.55556454       0.62466185 </v>
    <v>       0.44443410       0.05553988       0.62485791 </v>
    <v>       0.94445577       0.55556472       0.62488763 </v>
    <v>       0.11110895       0.55556472       0.12511237 </v>
    <v>       0.77777778       0.05555556       0.62491250 </v>
    <v>       0.27776995       0.05553990       0.12518616 </v>
    <v>       0.44444561       0.55556454       0.12533815 </v>
    <v>       0.77779343       0.55556338       0.12518616 </v>
    <v>       0.61110395       0.05554994       0.12509759 </v>
    <v>       0.44444561       0.55556454       0.62466185 </v>
    <v>       0.94444599       0.05554994       0.12509759 </v>
    <v>       0.27776861       0.72222439       0.62488763 </v>
    <v>       0.11110516       0.22221925       0.62484996 </v>
    <v>       0.44444561       0.22221440       0.62466185 </v>
    <v>       0.61111409       0.72222817       0.62484996 </v>
    <v>       0.94445577       0.72222439       0.62488763 </v>
    <v>       0.77778339       0.22222938       0.62490241 </v>
    <v>       0.11111111       0.72222222       0.12509796 </v>
    <v>       0.44443410       0.72222755       0.12514209 </v>
    <v>       0.27776879       0.22221440       0.12533815 </v>
    <v>       0.77779345       0.72222755       0.12514209 </v>
    <v>       0.61111409       0.22221925       0.12515004 </v>
    <v>       0.94444599       0.22222938       0.12509759 </v>
    <v>       0.11110578       0.38889924       0.62485791 </v>
    <v>       0.27776861       0.88887756       0.62488763 </v>
    <v>       0.61110395       0.88888734       0.62490241 </v>
    <v>       0.44444444       0.38888889       0.62427433 </v>
    <v>       0.94445030       0.88888303       0.62489877 </v>
    <v>       0.11110895       0.88887756       0.12511237 </v>
    <v>       0.77779345       0.38889924       0.62485791 </v>
    <v>       0.44443273       0.88888303       0.12510123 </v>
    <v>       0.27776879       0.38888773       0.12533815 </v>
    <v>       0.27776995       0.55556338       0.12518616 </v>
    <v>       0.61111893       0.38888773       0.12533815 </v>
    <v>       0.77778339       0.88888734       0.12509759 </v>
    <v>       0.94445030       0.38890061       0.12510123 </v>
    <v>       0.11110895       0.55556472       0.62488763 </v>
    <v>       0.27776995       0.05553990       0.62481384 </v>
    <v>       0.77779343       0.55556338       0.62481384 </v>
    <v>       0.61110395       0.05554994       0.62490241 </v>
    <v>       0.94444599       0.05554994       0.62490241 </v>
    <v>       0.05492459       0.11067225       0.37500000 </v>
    <v>       0.55597948       0.61195895       0.37500000 </v>
    <v>       0.38821178       0.10798614       0.37500000 </v>
    <v>       0.88997050       0.61165191       0.37500000 </v>
    <v>       0.72233166       0.11100168       0.37500000 </v>
    <v>       0.05555347       0.77777986       0.87500000 </v>
    <v>       0.38889499       0.77778040       0.87500000 </v>
    <v>       0.22222211       0.27777772       0.87500000 </v>
    <v>       0.72222208       0.77778036       0.87500000 </v>
    <v>       0.55555561       0.27777772       0.87500000 </v>
    <v>       0.88888780       0.27777560       0.87500000 </v>
    <v>       0.22203010       0.77768172       0.37500000 </v>
    <v>       0.05492459       0.27758567       0.37500000 </v>
    <v>       0.38321436       0.26642872       0.37500000 </v>
    <v>       0.55574766       0.77840874       0.37500000 </v>
    <v>       0.88973042       0.77847773       0.37500000 </v>
    <v>       0.72266108       0.27758567       0.37500000 </v>
    <v>       0.05555294       0.94444793       0.87500000 </v>
    <v>       0.38889499       0.94444793       0.87500000 </v>
    <v>       0.22222295       0.44443974       0.87500000 </v>
    <v>       0.55555250       0.44444291       0.87500000 </v>
    <v>       0.72222259       0.94444517       0.87500000 </v>
    <v>       0.88888540       0.44443834       0.87500000 </v>
    <v>       0.05485561       0.44458602       0.37500000 </v>
    <v>       0.22168142       0.94336284       0.37500000 </v>
    <v>       0.55571596       0.94452465       0.37500000 </v>
    <v>       0.38321436       0.45011897       0.37500000 </v>
    <v>       0.88880868       0.94452465       0.37500000 </v>
    <v>       0.72534720       0.44512155       0.37500000 </v>
    <v>       0.22222502       0.61110832       0.87500000 </v>
    <v>       0.05555297       0.11111126       0.87500000 </v>
    <v>       0.55555561       0.61111123       0.87500000 </v>
    <v>       0.38889360       0.11111654       0.87500000 </v>
    <v>       0.88888330       0.61110832       0.87500000 </v>
    <v>       0.05565162       0.61130323       0.37500000 </v>
    <v>       0.72222259       0.11111075       0.87500000 </v>
    <v>       0.21977436       0.10798614       0.37500000 </v>
    <v>       0.38821178       0.61355898       0.37500000 </v>
    <v>       0.72534720       0.61355898       0.37500000 </v>
    <v>       0.55574766       0.11067225       0.37500000 </v>
    <v>       0.38889360       0.61111039       0.87500000 </v>
    <v>       0.88867002       0.11100168       0.37500000 </v>
    <v>       0.22222639       0.77777986       0.87500000 </v>
    <v>       0.05555297       0.27777505       0.87500000 </v>
    <v>       0.38889042       0.27778084       0.87500000 </v>
    <v>       0.55555829       0.77778036       0.87500000 </v>
    <v>       0.88888540       0.77778040       0.87500000 </v>
    <v>       0.72222208       0.27777505       0.87500000 </v>
    <v>       0.05565162       0.77768172       0.37500000 </v>
    <v>       0.38874731       0.77847773       0.37500000 </v>
    <v>       0.22137438       0.27735386       0.37500000 </v>
    <v>       0.72266108       0.77840874       0.37500000 </v>
    <v>       0.55597948       0.27735386       0.37500000 </v>
    <v>       0.88880868       0.27761737       0.37500000 </v>
    <v>       0.05555294       0.44443834       0.87500000 </v>
    <v>       0.22222502       0.94445003       0.87500000 </v>
    <v>       0.55555773       0.94444553       0.87500000 </v>
    <v>       0.38889042       0.44444291       0.87500000 </v>
    <v>       0.88888780       0.94444553       0.87500000 </v>
    <v>       0.05485561       0.94360291       0.37500000 </v>
    <v>       0.72221679       0.44443974       0.87500000 </v>
    <v>       0.38874731       0.94360291       0.37500000 </v>
    <v>       0.21977436       0.44512155       0.37500000 </v>
    <v>       0.22168142       0.61165191       0.37500000 </v>
    <v>       0.56690462       0.45011897       0.37500000 </v>
    <v>       0.72233166       0.94466331       0.37500000 </v>
    <v>       0.88973042       0.44458602       0.37500000 </v>
    <v>       0.05555347       0.61110694       0.87500000 </v>
    <v>       0.22222295       0.11111654       0.87500000 </v>
    <v>       0.72221679       0.61111039       0.87500000 </v>
    <v>       0.55555829       0.11111126       0.87500000 </v>
    <v>       0.88888816       0.11111075       0.87500000 </v>
    <v>       0.10888702       0.05363429       0.37500000 </v>
    <v>       0.61662821       0.56151023       0.37500000 </v>
    <v>       0.44474727       0.05363429       0.37500000 </v>
    <v>       0.94505350       0.55569452       0.37500000 </v>
    <v>       0.77777778       0.05555556       0.37500000 </v>
    <v>       0.11111111       0.72222222       0.87500000 </v>
    <v>       0.44445789       0.72225917       0.87500000 </v>
    <v>       0.27773656       0.22218886       0.87500000 </v>
    <v>       0.77780129       0.72225917       0.87500000 </v>
    <v>       0.61113701       0.22219632       0.87500000 </v>
    <v>       0.94441891       0.22220602       0.87500000 </v>
    <v>       0.27763881       0.72269232       0.37500000 </v>
    <v>       0.10939752       0.22136543       0.37500000 </v>
    <v>       0.44488202       0.21670513       0.37500000 </v>
    <v>       0.61196791       0.72393582       0.37500000 </v>
    <v>       0.94505350       0.72269232       0.37500000 </v>
    <v>       0.77798832       0.22181380       0.37500000 </v>
    <v>       0.11109976       0.88887925       0.87500000 </v>
    <v>       0.44445802       0.88889568       0.87500000 </v>
    <v>       0.27773656       0.38888103       0.87500000 </v>
    <v>       0.61114447       0.38888103       0.87500000 </v>
    <v>       0.77778711       0.88891442       0.87500000 </v>
    <v>       0.94443766       0.38887531       0.87500000 </v>
    <v>       0.10888702       0.38858606       0.37500000 </v>
    <v>       0.27763881       0.88827983       0.37500000 </v>
    <v>       0.61151953       0.88950785       0.37500000 </v>
    <v>       0.94428960       0.88904373       0.37500000 </v>
    <v>       0.77969904       0.38858606       0.37500000 </v>
    <v>       0.27776270       0.55557063       0.87500000 </v>
    <v>       0.11107416       0.05553205       0.87500000 </v>
    <v>       0.61114447       0.55559678       0.87500000 </v>
    <v>       0.44445789       0.05553205       0.87500000 </v>
    <v>       0.94445408       0.55555385       0.87500000 </v>
    <v>       0.11064101       0.55569452       0.37500000 </v>
    <v>       0.77777778       0.05555556       0.87500000 </v>
    <v>       0.27665444       0.05330889       0.37500000 </v>
    <v>       0.44488202       0.56151023       0.37500000 </v>
    <v>       0.78002445       0.55667889       0.37500000 </v>
    <v>       0.61151953       0.05534502       0.37500000 </v>
    <v>       0.44445231       0.55559678       0.87500000 </v>
    <v>       0.94382548       0.05534502       0.37500000 </v>
    <v>       0.27777949       0.72223357       0.87500000 </v>
    <v>       0.11105932       0.22219632       0.87500000 </v>
    <v>       0.44445231       0.22218886       0.87500000 </v>
    <v>       0.61113701       0.72227402       0.87500000 </v>
    <v>       0.94445408       0.72223357       0.87500000 </v>
    <v>       0.77778711       0.22220602       0.87500000 </v>
    <v>       0.11161044       0.72222222       0.37549932 </v>
    <v>       0.44474727       0.72444631       0.37500000 </v>
    <v>       0.27182310       0.21670513       0.37500000 </v>
    <v>       0.77969904       0.72444631       0.37500000 </v>
    <v>       0.61196791       0.22136543       0.37500000 </v>
    <v>       0.94382548       0.22181380       0.37500000 </v>
    <v>       0.11107416       0.38887545       0.87500000 </v>
    <v>       0.27777949       0.88887925       0.87500000 </v>
    <v>       0.61112731       0.88891442       0.87500000 </v>
    <v>       0.44444444       0.38888889       0.87500000 </v>
    <v>       0.94443766       0.88889568       0.87500000 </v>
    <v>       0.11064101       0.88827983       0.37500000 </v>
    <v>       0.77780129       0.38887545       0.87500000 </v>
    <v>       0.44475413       0.88904373       0.37500000 </v>
    <v>       0.27182310       0.38845131       0.37500000 </v>
    <v>       0.27665444       0.55667889       0.37500000 </v>
    <v>       0.61662821       0.38845131       0.37500000 </v>
    <v>       0.77798832       0.88950785       0.37500000 </v>
    <v>       0.94428960       0.38857921       0.37500000 </v>
    <v>       0.11109976       0.55555385       0.87500000 </v>
    <v>       0.27776270       0.05552540       0.87500000 </v>
    <v>       0.77780793       0.55557063       0.87500000 </v>
    <v>       0.61112731       0.05554622       0.87500000 </v>
    <v>       0.94441891       0.05554622       0.87500000 </v>
    <v>       0.05546928       0.11103632       0.12487403 </v>
    <v>       0.55563492       0.61126984       0.12476730 </v>
    <v>       0.38882801       0.11092619       0.12483104 </v>
    <v>       0.88900701       0.61117017       0.12488859 </v>
    <v>       0.72223458       0.11109875       0.12491481 </v>
    <v>       0.05557215       0.77776118       0.62509033 </v>
    <v>       0.38885004       0.77781495       0.62510653 </v>
    <v>       0.22206349       0.27769841       0.62523270 </v>
    <v>       0.72229702       0.77786405       0.62512597 </v>
    <v>       0.55563492       0.27769841       0.62523270 </v>
    <v>       0.88889259       0.27778519       0.62508998 </v>
    <v>       0.22218903       0.77776118       0.12490967 </v>
    <v>       0.05546928       0.27776630       0.12487403 </v>
    <v>       0.38878395       0.27756790       0.12459556 </v>
    <v>       0.55556704       0.77786405       0.12487403 </v>
    <v>       0.88896491       0.77781495       0.12489347 </v>
    <v>       0.72229702       0.27776630       0.12487403 </v>
    <v>       0.05551838       0.94436842       0.62510653 </v>
    <v>       0.38885004       0.94436842       0.62510653 </v>
    <v>       0.22209818       0.44450532       0.62516896 </v>
    <v>       0.55576543       0.44454938       0.62540444 </v>
    <v>       0.72223458       0.94446917       0.62508519 </v>
    <v>       0.88896491       0.44448330       0.62510653 </v>
    <v>       0.05551838       0.44448330       0.12489347 </v>
    <v>       0.22216316       0.94432633       0.12488859 </v>
    <v>       0.55554814       0.94444074       0.12491002 </v>
    <v>       0.38878395       0.44454938       0.12459556 </v>
    <v>       0.88889259       0.94444074       0.12491002 </v>
    <v>       0.72240714       0.44450532       0.12483104 </v>
    <v>       0.22216316       0.61117017       0.62511141 </v>
    <v>       0.05546928       0.11103632       0.62512597 </v>
    <v>       0.55563492       0.61126984       0.62523270 </v>
    <v>       0.38882801       0.11092619       0.62516896 </v>
    <v>       0.88900701       0.61117017       0.62511141 </v>
    <v>       0.05557215       0.61114430       0.12490967 </v>
    <v>       0.72223458       0.11109875       0.62508519 </v>
    <v>       0.22209818       0.11092619       0.12483104 </v>
    <v>       0.38882801       0.61123515       0.12483104 </v>
    <v>       0.72240714       0.61123515       0.12483104 </v>
    <v>       0.55556704       0.11103632       0.12487403 </v>
    <v>       0.38882801       0.61123515       0.62516896 </v>
    <v>       0.88886417       0.11109875       0.12491481 </v>
    <v>       0.22218903       0.77776118       0.62509033 </v>
    <v>       0.05546928       0.27776630       0.62512597 </v>
    <v>       0.38878395       0.27756790       0.62540444 </v>
    <v>       0.55556704       0.77786405       0.62512597 </v>
    <v>       0.88896491       0.77781495       0.62510653 </v>
    <v>       0.72229702       0.27776630       0.62512597 </v>
    <v>       0.05557215       0.77776118       0.12490967 </v>
    <v>       0.38885004       0.77781495       0.12489347 </v>
    <v>       0.22206349       0.27769841       0.12476730 </v>
    <v>       0.72229702       0.77786405       0.12487403 </v>
    <v>       0.55563492       0.27769841       0.12476730 </v>
    <v>       0.88889259       0.27778519       0.12491002 </v>
    <v>       0.05551838       0.44448330       0.62510653 </v>
    <v>       0.22216316       0.94432633       0.62511141 </v>
    <v>       0.55554814       0.94444074       0.62508998 </v>
    <v>       0.38878395       0.44454938       0.62540444 </v>
    <v>       0.88889259       0.94444074       0.62508998 </v>
    <v>       0.05551838       0.94436842       0.12489347 </v>
    <v>       0.72240714       0.44450532       0.62516896 </v>
    <v>       0.38885004       0.94436842       0.12489347 </v>
    <v>       0.22209818       0.44450532       0.12483104 </v>
    <v>       0.22216316       0.61117017       0.12488859 </v>
    <v>       0.55576543       0.44454938       0.12459556 </v>
    <v>       0.72223458       0.94446917       0.12491481 </v>
    <v>       0.88896491       0.44448330       0.12489347 </v>
    <v>       0.05557215       0.61114430       0.62509033 </v>
    <v>       0.22209818       0.11092619       0.62516896 </v>
    <v>       0.72240714       0.61123515       0.62516896 </v>
    <v>       0.55556704       0.11103632       0.62512597 </v>
    <v>       0.88886417       0.11109875       0.62508519 </v>
   </varray>
  </structure>
  <varray name="forces" >
   <v>       0.00055436       0.00000259       0.00009005 </v>
   <v>      -0.00181534      -0.00371249      -0.00041160 </v>
   <v>       0.00329081       0.00712373      -0.00333495 </v>
   <v>       0.00212020      -0.00483505       0.00003467 </v>
   <v>       0.00216800       0.00110211       0.00031171 </v>
   <v>      -0.00045025       0.00002047      -0.00003233 </v>
   <v>       0.00206568       0.00002199      -0.00323649 </v>
   <v>      -0.00403422       0.00404520      -0.00006831 </v>
   <v>      -0.00428319      -0.00691217       0.00330118 </v>
   <v>       0.00257177       0.00372313       0.00044184 </v>
   <v>       0.00778358      -0.00491509       0.00251442 </v>
   <v>      -0.00224453      -0.00187757       0.00056429 </v>
   <v>      -0.00200211       0.00085739       0.00191529 </v>
   <v>      -0.00792854      -0.00411894      -0.00260220 </v>
   <v>       0.00450406      -0.00718539      -0.00323143 </v>
   <v>      -0.00076043       0.00909371      -0.00255968 </v>
   <v>       0.00203005       0.00017044      -0.00076629 </v>
   <v>       0.00197535      -0.00242807      -0.00052904 </v>
   <v>       0.00246129      -0.00302803       0.00031148 </v>
   <v>      -0.00130009      -0.00088618      -0.00063047 </v>
   <v>      -0.00857882       0.00014890       0.00323334 </v>
   <v>       0.00822775      -0.00053968       0.00330083 </v>
   <v>      -0.00144636       0.00299056       0.00064962 </v>
   <v>       0.00026960       0.00104414      -0.00015310 </v>
   <v>      -0.00464030       0.00086392      -0.00015881 </v>
   <v>       0.00045399      -0.00255878       0.00165643 </v>
   <v>       0.00020787       0.00288066      -0.00044029 </v>
   <v>      -0.00020195       0.00001901       0.00706985 </v>
   <v>      -0.00015923       0.00026603      -0.00030184 </v>
   <v>       0.00475748       0.00006189      -0.00022325 </v>
   <v>      -0.00652703       0.00414978      -0.00040879 </v>
   <v>      -0.00154153      -0.00421094       0.00041049 </v>
   <v>       0.00347540       0.00721657       0.00333661 </v>
   <v>       0.00184545      -0.00533702      -0.00003636 </v>
   <v>       0.00317046       0.00264838      -0.00050547 </v>
   <v>      -0.00069905       0.00194247       0.00082997 </v>
   <v>      -0.00045010       0.00001984       0.00003134 </v>
   <v>       0.00062439      -0.00639243       0.00012321 </v>
   <v>      -0.00437116       0.00750226      -0.00319688 </v>
   <v>       0.00525934       0.00269856      -0.00014029 </v>
   <v>       0.00267426      -0.00102829      -0.00042189 </v>
   <v>      -0.00455760       0.00759556       0.00319577 </v>
   <v>      -0.00335377      -0.00030746      -0.00066955 </v>
   <v>      -0.00384540       0.00094750      -0.00211869 </v>
   <v>      -0.00792834      -0.00411877       0.00260247 </v>
   <v>       0.00449081      -0.00739166       0.00322979 </v>
   <v>      -0.00076262       0.00909345       0.00255692 </v>
   <v>       0.00387113       0.00026287       0.00057354 </v>
   <v>       0.00199038      -0.00224276       0.00052790 </v>
   <v>       0.00204857       0.00002300      -0.00067605 </v>
   <v>      -0.00346048       0.00403204       0.00006643 </v>
   <v>      -0.00429580      -0.00670718      -0.00330377 </v>
   <v>       0.00200489       0.00370945      -0.00044491 </v>
   <v>       0.00778334      -0.00491421      -0.00251543 </v>
   <v>      -0.00222913      -0.00206472      -0.00056550 </v>
   <v>      -0.00493635       0.00135201       0.00015614 </v>
   <v>      -0.00038679      -0.00420201      -0.00185736 </v>
   <v>       0.00003733       0.00279906       0.00043906 </v>
   <v>      -0.00020211       0.00002120      -0.00704463 </v>
   <v>       0.00047543      -0.00009939       0.00031837 </v>
   <v>       0.00161746      -0.00138839      -0.00050792 </v>
   <v>       0.00505347       0.00054691       0.00021918 </v>
   <v>      -0.00066227      -0.00051764       0.00064689 </v>
   <v>      -0.00840674       0.00003483      -0.00323345 </v>
   <v>      -0.00584015       0.00375378       0.00038337 </v>
   <v>       0.00805536      -0.00065301      -0.00330038 </v>
   <v>      -0.00161502       0.00307012      -0.00065147 </v>
   <v>       0.00026798       0.00031083       0.00016989 </v>
   <v>      -0.00169566       0.00349379      -0.00103027 </v>
   <v>       0.00062494      -0.00718257      -0.00014899 </v>
   <v>       0.00594289       0.00309221       0.00011318 </v>
   <v>       0.00251966      -0.00113621       0.00042093 </v>
   <v>      -0.00320011      -0.00041401       0.00066942 </v>
   <v>      -0.00204070      -0.00994218       0.00016232 </v>
   <v>      -0.00191884       0.02526147       0.00004821 </v>
   <v>      -0.04028792      -0.04883385       0.00006303 </v>
   <v>       0.01446164      -0.00035410       0.00148649 </v>
   <v>       0.00035877      -0.00142486       0.00002625 </v>
   <v>       0.00189280      -0.00093525      -0.00030802 </v>
   <v>      -0.00204420      -0.00017218      -0.00011532 </v>
   <v>      -0.00271403      -0.00147983      -0.00005101 </v>
   <v>       0.00027025       0.00200350      -0.00005870 </v>
   <v>       0.00278232      -0.00173162      -0.00005110 </v>
   <v>       0.00002732      -0.00062829      -0.00006273 </v>
   <v>       0.15083590       0.05331720       0.03098313 </v>
   <v>      -0.01100169       0.00558125       0.00016149 </v>
   <v>       0.00053786      -0.31778392      -0.00001544 </v>
   <v>      -0.01253763       0.00722598       0.00016288 </v>
   <v>       0.01555041      -0.00485896      -0.00189481 </v>
   <v>       0.01115300       0.00402912       0.00016211 </v>
   <v>       0.00129332      -0.00160676      -0.00011507 </v>
   <v>      -0.00100871      -0.00179269      -0.00011595 </v>
   <v>      -0.00346118       0.00169419      -0.00007409 </v>
   <v>       0.00195555       0.00107756      -0.00004986 </v>
   <v>      -0.00019844       0.00130586      -0.00004906 </v>
   <v>       0.00102235       0.00173025      -0.00011530 </v>
   <v>      -0.00180403       0.02229457      -0.00188288 </v>
   <v>       0.01512930      -0.01949307       0.00148882 </v>
   <v>      -0.00789530      -0.00442808       0.00020120 </v>
   <v>      -0.27546830       0.15938991      -0.00001700 </v>
   <v>       0.00198070      -0.00126387       0.00020266 </v>
   <v>       0.01934951       0.05753573       0.00006159 </v>
   <v>      -0.00234405       0.00153250      -0.00016041 </v>
   <v>      -0.00149345      -0.00131021      -0.00005753 </v>
   <v>      -0.00018346       0.00315550      -0.00005197 </v>
   <v>       0.00055544      -0.00388911      -0.00007424 </v>
   <v>       0.00262582       0.00130017      -0.00016006 </v>
   <v>       0.05901014       0.00225783       0.03160381 </v>
   <v>       0.00106115      -0.00074719      -0.00004897 </v>
   <v>       0.04360721      -0.04562730       0.00005256 </v>
   <v>      -0.06436941      -0.01110854       0.00006063 </v>
   <v>       0.05883942      -0.01422353       0.00006992 </v>
   <v>       0.00065186      -0.01416085       0.00016253 </v>
   <v>      -0.00319618       0.00230535      -0.00007289 </v>
   <v>      -0.00249367      -0.00026908       0.00002569 </v>
   <v>      -0.00124429      -0.00091264      -0.00030860 </v>
   <v>      -0.00197097      -0.00048543      -0.00005716 </v>
   <v>       0.00005623      -0.00235099      -0.00004943 </v>
   <v>      -0.00069388       0.00200499      -0.00005738 </v>
   <v>       0.00201791      -0.00017729      -0.00011445 </v>
   <v>       0.00201394      -0.00074130      -0.00005764 </v>
   <v>       0.14836347      -0.05131799       0.03218463 </v>
   <v>      -0.03042315      -0.00897307      -0.00187471 </v>
   <v>      -0.02185303      -0.01153377       0.00004459 </v>
   <v>       0.00692376       0.00722708       0.00016407 </v>
   <v>       0.02180535      -0.01372121       0.00004515 </v>
   <v>      -0.00021659       0.00565209       0.00020274 </v>
   <v>      -0.00073800       0.00190490      -0.00011566 </v>
   <v>       0.00034372      -0.00288797      -0.00015974 </v>
   <v>       0.00041138       0.00020267      -0.00006389 </v>
   <v>      -0.00208419       0.00121717      -0.00004847 </v>
   <v>      -0.00064161       0.00036760      -0.00006309 </v>
   <v>       0.01297956      -0.00736040      -0.00189800 </v>
   <v>       0.00349897       0.00139037      -0.00007325 </v>
   <v>      -0.02208777      -0.02567821      -0.00187639 </v>
   <v>      -0.02037508       0.06203908       0.00006447 </v>
   <v>      -0.01896773       0.01971681       0.00149780 </v>
   <v>       0.27464752       0.15829664      -0.00001823 </v>
   <v>      -0.00206706       0.00166202       0.00002606 </v>
   <v>       0.00923958       0.02439958      -0.00188834 </v>
   <v>       0.00030515       0.00179242      -0.00030860 </v>
   <v>      -0.00022019      -0.00373842      -0.00007366 </v>
   <v>       0.00298835       0.00212464      -0.00007465 </v>
   <v>       0.00152785      -0.00158776      -0.00005738 </v>
   <v>      -0.00123361      -0.00061679      -0.00004940 </v>
   <v>      -0.01549911       0.02394087      -0.00044076 </v>
   <v>      -0.06607146      -0.00233139      -0.00006261 </v>
   <v>       0.01265850       0.03424761      -0.00043730 </v>
   <v>      -0.01550174       0.01247356       0.00000988 </v>
   <v>       0.00089018       0.00003687      -0.00005010 </v>
   <v>      -0.00050334       0.00002803       0.00043151 </v>
   <v>       0.00153817      -0.00285363       0.00007804 </v>
   <v>       0.00077026       0.00230946       0.00005274 </v>
   <v>      -0.00119232      -0.00279453       0.00007732 </v>
   <v>      -0.00329302       0.00208254       0.00005221 </v>
   <v>       0.00182548       0.00028440       0.00005434 </v>
   <v>       0.04307976      -0.01121863      -0.00016368 </v>
   <v>       0.03037710       0.01618808      -0.00000834 </v>
   <v>       0.03105625       0.06191247      -0.00006316 </v>
   <v>       0.00237862      -0.03525801      -0.00000906 </v>
   <v>       0.02620386       0.00269999       0.00002963 </v>
   <v>      -0.00696870       0.00249171      -0.00005293 </v>
   <v>      -0.00014950       0.00193591       0.00018349 </v>
   <v>       0.00015013       0.00024674       0.00009260 </v>
   <v>       0.00250705      -0.00057898       0.00005301 </v>
   <v>      -0.00243977      -0.00031059       0.00005267 </v>
   <v>      -0.00045690      -0.00181062       0.00005375 </v>
   <v>      -0.00022629      -0.00014068       0.00009289 </v>
   <v>       0.01679074      -0.02796506      -0.00043764 </v>
   <v>      -0.00727007       0.04080524      -0.00008756 </v>
   <v>       0.00391086      -0.00690840      -0.00005293 </v>
   <v>      -0.00836556       0.00474291       0.00004867 </v>
   <v>      -0.01948989      -0.02538714      -0.00044153 </v>
   <v>       0.00299680      -0.00183381       0.00009244 </v>
   <v>       0.00167412       0.00244294       0.00007761 </v>
   <v>      -0.00145666      -0.00181615       0.00005197 </v>
   <v>      -0.00190233       0.00283206       0.00007741 </v>
   <v>      -0.00216978      -0.00073166       0.00018302 </v>
   <v>       0.00004805      -0.02247682      -0.00014209 </v>
   <v>       0.00008701       0.00002926       0.00004707 </v>
   <v>      -0.00009564       0.02817204       0.00004539 </v>
   <v>       0.07050247      -0.00428315      -0.00006338 </v>
   <v>      -0.02023000      -0.01159156       0.00004508 </v>
   <v>      -0.00444064       0.00665312      -0.00005259 </v>
   <v>       0.00183734      -0.00193554       0.00005325 </v>
   <v>       0.00601992       0.00351309      -0.00005294 </v>
   <v>       0.00143324      -0.00115105       0.00018371 </v>
   <v>       0.00321236       0.00173174       0.00005264 </v>
   <v>      -0.00088200       0.00250652       0.00005262 </v>
   <v>       0.00026322      -0.00372662       0.00005197 </v>
   <v>      -0.00183523      -0.00112773       0.00018311 </v>
   <v>      -0.00193391       0.00044835       0.00005438 </v>
   <v>      -0.40270355      -0.00435809      -0.08847420 </v>
   <v>       0.03637183      -0.00432612      -0.00043606 </v>
   <v>      -0.03131069       0.05960464      -0.00006346 </v>
   <v>      -0.02798129      -0.00033922      -0.00044269 </v>
   <v>      -0.03077611       0.01916477      -0.00000868 </v>
   <v>       0.00700475       0.00159054      -0.00005284 </v>
   <v>       0.00303942       0.00013682       0.00007754 </v>
   <v>      -0.00053759       0.00212001       0.00018382 </v>
   <v>       0.00083915      -0.00172416       0.00005435 </v>
   <v>       0.00008637       0.00002864       0.00004355 </v>
   <v>      -0.00014416      -0.00001816       0.00009287 </v>
   <v>      -0.00813647      -0.02206101      -0.00004576 </v>
   <v>      -0.00326633       0.00041022       0.00007753 </v>
   <v>       0.01629477       0.00957744       0.00004559 </v>
   <v>       0.03791673      -0.05837073      -0.00006367 </v>
   <v>       0.02852932      -0.01649253       0.00004724 </v>
   <v>      -0.03613602      -0.05644232      -0.00006336 </v>
   <v>       0.00039630      -0.00712512      -0.00005268 </v>
   <v>      -0.00022215      -0.01420986       0.00004755 </v>
   <v>       0.00148628      -0.00087428       0.00018394 </v>
   <v>      -0.00022892       0.00348669       0.00009182 </v>
   <v>      -0.00299184      -0.00156626       0.00009114 </v>
   <v>      -0.00119657       0.00163893       0.00005421 </v>
   <v>       0.00126682       0.00133871       0.00005436 </v>
   <v>       0.00305278       0.00620391      -0.00027910 </v>
   <v>       0.00058217      -0.00996094       0.00686768 </v>
   <v>      -0.00282620       0.01256703       0.00132779 </v>
   <v>      -0.00618824      -0.00231320      -0.00030772 </v>
   <v>      -0.00075975       0.00087923      -0.00151119 </v>
   <v>      -0.00599358       0.00274892       0.00091509 </v>
   <v>       0.00652513      -0.00173638       0.00219235 </v>
   <v>       0.00855834       0.00457619      -0.00687584 </v>
   <v>      -0.00370031      -0.00568736       0.00030514 </v>
   <v>      -0.00859127       0.00526856      -0.00684552 </v>
   <v>       0.00020537      -0.00195030       0.00169224 </v>
   <v>      -0.00156029      -0.00025195      -0.00328422 </v>
   <v>       0.00731854      -0.00124846      -0.00039539 </v>
   <v>      -0.00018839      -0.00545539       0.01340613 </v>
   <v>       0.00517218      -0.00578079      -0.00052795 </v>
   <v>      -0.00358892      -0.00256571      -0.00114888 </v>
   <v>      -0.00702726      -0.00050927      -0.00042663 </v>
   <v>      -0.00116783       0.00509730       0.00107623 </v>
   <v>       0.00127424       0.00634053       0.00219522 </v>
   <v>       0.01207855      -0.00519354      -0.00130537 </v>
   <v>       0.00481823       0.00286358      -0.01340931 </v>
   <v>       0.00080944      -0.00139546       0.00147038 </v>
   <v>      -0.00450204      -0.00344730       0.00163627 </v>
   <v>       0.00422933      -0.00323086      -0.00170090 </v>
   <v>      -0.00223798       0.00699969      -0.00090882 </v>
   <v>       0.00209005       0.00106091      -0.00187831 </v>
   <v>      -0.00449740       0.00246057       0.01339067 </v>
   <v>      -0.00050342       0.00038143      -0.00149083 </v>
   <v>      -0.01172934      -0.00360573       0.00151207 </v>
   <v>       0.00713627      -0.00544745       0.00184762 </v>
   <v>       0.00280323       0.00631822       0.00028987 </v>
   <v>       0.00058286      -0.00992771      -0.00686072 </v>
   <v>      -0.00265721       0.01290405      -0.00132160 </v>
   <v>      -0.00733883      -0.00297490       0.00064169 </v>
   <v>      -0.00117330      -0.00011116      -0.00105172 </v>
   <v>      -0.00067875       0.00083284       0.00151265 </v>
   <v>       0.00167739       0.01203025       0.00149384 </v>
   <v>       0.01008101      -0.00851780       0.00122824 </v>
   <v>      -0.00901828      -0.00776623       0.00159483 </v>
   <v>      -0.00264350       0.00701781      -0.00054326 </v>
   <v>       0.01045881      -0.00853899      -0.00122174 </v>
   <v>       0.00177145       0.00052945      -0.00142577 </v>
   <v>       0.00272652       0.00223006       0.00540204 </v>
   <v>       0.00729339      -0.00152292       0.00040535 </v>
   <v>      -0.00018841      -0.00536024      -0.01339329 </v>
   <v>       0.00539853      -0.00562109       0.00053755 </v>
   <v>      -0.00465022      -0.00195245       0.00107860 </v>
   <v>      -0.00700232      -0.00078251       0.00043618 </v>
   <v>      -0.00169427       0.00027234       0.00116811 </v>
   <v>       0.00545333      -0.00235359      -0.00226207 </v>
   <v>       0.00858574       0.00459280       0.00688319 </v>
   <v>      -0.00347711      -0.00584575      -0.00029592 </v>
   <v>      -0.00861904       0.00528446       0.00685197 </v>
   <v>       0.00020520      -0.00152188      -0.00168420 </v>
   <v>       0.00422929      -0.00446532       0.00163073 </v>
   <v>      -0.00224256       0.00833126       0.00124570 </v>
   <v>       0.00246181       0.00127507       0.00188614 </v>
   <v>      -0.00441415       0.00241231      -0.01337692 </v>
   <v>      -0.00087269       0.00059532       0.00149927 </v>
   <v>      -0.00010230       0.00448358      -0.00114659 </v>
   <v>      -0.01193596      -0.00391972      -0.00150593 </v>
   <v>       0.00020719       0.00572265      -0.00226464 </v>
   <v>       0.01187235      -0.00487704       0.00131099 </v>
   <v>       0.00598032      -0.00477752      -0.00150702 </v>
   <v>       0.00490056       0.00291096       0.01342285 </v>
   <v>       0.00080879      -0.00148819      -0.00146894 </v>
   <v>      -0.00450086      -0.00221986      -0.00170597 </v>
   <v>      -0.00118393      -0.00506808       0.00315314 </v>
   <v>       0.00150656       0.01236596      -0.00148808 </v>
   <v>      -0.00939341      -0.00778634      -0.00158853 </v>
   <v>      -0.00239363       0.00713321       0.00055377 </v>
   <v>       0.00169169       0.00048195       0.00142733 </v>
  </varray>
  <varray name="stress" >
   <v>      96.93399675       0.00949118      -0.00165044 </v>
   <v>       0.00949116      96.86685806      -0.00001595 </v>
   <v>      -0.00165045      -0.00001597      -3.47036360 </v>
  </varray>
  <energy>
   <i name="e_fr_energy">  -2554.40109568 </i>
   <i name="e_wo_entrp">  -2554.40109568 </i>
   <i name="e_0_energy">  -2554.40109568 </i>
  </energy>
  <time name="totalsc">  171.77  171.68</time>
  <eigenvalues>
   <array>
    <dimension dim="1">band</dimension>
    <dimension dim="2">kpoint</dimension>
    <dimension dim="3">spin</dimension>
    <field>eigene</field>
    <field>occ</field>
    <set>
     <set comment="spin 1">
      <set comment="kpoint 1">
       <r>  -17.2938    1.0000 </r>
       <r>  -15.7205    1.0000 </r>
       <r>  -15.7196    1.0000 </r>
       <r>  -15.5764    1.0000 </r>
       <r>  -15.3639    1.0000 </r>
       <r>  -15.3445    1.0000 </r>
       <r>  -15.1608    1.0000 </r>
       <r>  -15.1578    1.0000 </r>
       <r>  -15.1528    1.0000 </r>
       <r>  -15.0729    1.0000 </r>
       <r>  -14.8869    1.0000 </r>
       <r>  -14.8762    1.0000 </r>
       <r>  -14.8757    1.0000 </r>
       <r>  -14.8463    1.0000 </r>
       <r>  -14.8194    1.0000 </r>
       <r>  -14.8189    1.0000 </r>
       <r>  -14.8179    1.0000 </r>
       <r>  -14.8173    1.0000 </r>
       <r>  -14.8008    1.0000 </r>
       <r>  -14.7878    1.0000 </r>
       <r>  -14.7872    1.0000 </r>
       <r>  -14.7747    1.0000 </r>
       <r>  -14.7410    1.0000 </r>
       <r>  -14.7402    1.0000 </r>
       <r>  -14.6482    1.0000 </r>
       <r>  -14.6265    1.0000 </r>
       <r>  -14.6262    1.0000 </r>
       <r>  -14.6142    1.0000 </r>
       <r>  -14.6138    1.0000 </r>
       <r>  -14.6064    1.0000 </r>
       <r>  -14.5582    1.0000 </r>
       <r>  -14.2542    1.0000 </r>
       <r>  -14.2535    1.0000 </r>
       <r>  -14.2428    1.0000 </r>
       <r>  -13.9226    1.0000 </r>
       <r>  -13.9185    1.0000 </r>
       <r>  -13.8667    1.0000 </r>
       <r>  -13.8306    1.0000 </r>
       <r>  -13.8299    1.0000 </r>
       <r>  -13.8291    1.0000 </r>
       <r>  -13.8239    1.0000 </r>
       <r>  -13.8134    1.0000 </r>
       <r>  -13.8128    1.0000 </r>
       <r>  -13.8116    1.0000 </r>
       <r>  -13.8065    1.0000 </r>
       <r>  -13.8065    1.0000 </r>
       <r>  -13.8014    1.0000 </r>
       <r>  -13.8013    1.0000 </r>
       <r>  -13.7995    1.0000 </r>
       <r>  -13.7638    1.0000 </r>
       <r>  -13.7574    1.0000 </r>
       <r>  -13.7543    1.0000 </r>
       <r>  -13.6370    1.0000 </r>
       <r>  -13.6351    1.0000 </r>
       <r>  -13.6350    1.0000 </r>
       <r>  -13.6335    1.0000 </r>
       <r>  -13.6335    1.0000 </r>
       <r>  -13.6330    1.0000 </r>
       <r>  -13.3986    1.0000 </r>
       <r>  -13.3986    1.0000 </r>
       <r>  -13.3884    1.0000 </r>
       <r>  -13.3824    1.0000 </r>
       <r>  -13.3824    1.0000 </r>
       <r>  -13.3823    1.0000 </r>
       <r>  -13.3682    1.0000 </r>
       <r>  -13.3634    1.0000 </r>
       <r>  -13.3633    1.0000 </r>
       <r>  -13.3629    1.0000 </r>
       <r>  -13.3628    1.0000 </r>
       <r>  -13.3606    1.0000 </r>
       <r>  -13.2780    1.0000 </r>
       <r>  -13.2769    1.0000 </r>
       <r>  -13.2038    1.0000 </r>
       <r>  -13.2020    1.0000 </r>
       <r>  -13.2020    1.0000 </r>
       <r>  -13.2017    1.0000 </r>
       <r>  -13.1998    1.0000 </r>
       <r>  -13.1998    1.0000 </r>
       <r>  -12.8945    1.0000 </r>
       <r>  -12.8583    1.0000 </r>
       <r>  -12.8583    1.0000 </r>
       <r>  -12.7736    1.0000 </r>
       <r>  -12.6766    1.0000 </r>
       <r>  -12.5909    1.0000 </r>
       <r>  -12.5897    1.0000 </r>
       <r>  -12.5879    1.0000 </r>
       <r>  -12.5427    1.0000 </r>
       <r>  -12.5240    1.0000 </r>
       <r>  -12.4981    1.0000 </r>
       <r>  -12.4951    1.0000 </r>
       <r>  -12.4679    1.0000 </r>
       <r>  -12.3459    1.0000 </r>
       <r>  -12.3413    1.0000 </r>
       <r>  -12.3268    1.0000 </r>
       <r>  -12.3203    1.0000 </r>
       <r>  -12.3161    1.0000 </r>
       <r>  -12.3156    1.0000 </r>
       <r>  -12.3091    1.0000 </r>
       <r>  -12.3087    1.0000 </r>
       <r>  -12.3078    1.0000 </r>
       <r>  -12.3074    1.0000 </r>
       <r>  -12.2997    1.0000 </r>
       <r>  -12.2992    1.0000 </r>
       <r>  -12.2850    1.0000 </r>
       <r>  -12.2846    1.0000 </r>
       <r>  -12.2819    1.0000 </r>
       <r>  -12.2817    1.0000 </r>
       <r>  -12.2752    1.0000 </r>
       <r>  -12.2748    1.0000 </r>
       <r>  -12.2731    1.0000 </r>
       <r>  -12.2726    1.0000 </r>
       <r>  -12.2724    1.0000 </r>
       <r>  -12.2715    1.0000 </r>
       <r>  -12.2622    1.0000 </r>
       <r>  -12.2610    1.0000 </r>
       <r>  -12.1916    1.0000 </r>
       <r>  -12.1905    1.0000 </r>
       <r>  -12.1903    1.0000 </r>
       <r>  -12.1862    1.0000 </r>
       <r>  -12.1851    1.0000 </r>
       <r>  -12.1850    1.0000 </r>
       <r>  -12.1581    1.0000 </r>
       <r>  -12.1580    1.0000 </r>
       <r>  -12.1539    1.0000 </r>
       <r>  -12.1535    1.0000 </r>
       <r>  -12.1514    1.0000 </r>
       <r>  -12.1514    1.0000 </r>
       <r>  -12.1436    1.0000 </r>
       <r>  -12.1436    1.0000 </r>
       <r>  -12.1424    1.0000 </r>
       <r>  -12.1414    1.0000 </r>
       <r>  -12.1391    1.0000 </r>
       <r>  -12.1390    1.0000 </r>
       <r>  -12.0617    1.0000 </r>
       <r>  -12.0617    1.0000 </r>
       <r>  -12.0616    1.0000 </r>
       <r>  -11.9640    1.0000 </r>
       <r>  -11.9586    1.0000 </r>
       <r>  -11.5949    1.0000 </r>
       <r>  -11.5943    1.0000 </r>
       <r>  -11.5938    1.0000 </r>
       <r>  -11.5934    1.0000 </r>
       <r>  -11.4687    1.0000 </r>
       <r>  -11.4687    1.0000 </r>
       <r>   -8.3732    1.0000 </r>
       <r>   -7.3292    1.0000 </r>
       <r>   -7.3287    1.0000 </r>
       <r>   -6.6094    1.0000 </r>
       <r>   -6.6081    1.0000 </r>
       <r>   -6.5430    1.0000 </r>
       <r>   -6.5254    1.0000 </r>
       <r>   -6.5254    1.0000 </r>
       <r>   -6.5238    1.0000 </r>
       <r>   -6.5215    1.0000 </r>
       <r>   -6.5215    1.0000 </r>
       <r>   -6.5106    1.0000 </r>
       <r>   -6.4868    1.0000 </r>
       <r>   -6.3898    1.0000 </r>
       <r>   -6.3898    1.0000 </r>
       <r>   -6.3897    1.0000 </r>
       <r>   -6.3190    1.0000 </r>
       <r>   -6.3136    1.0000 </r>
       <r>   -6.0969    1.0000 </r>
       <r>   -6.0957    1.0000 </r>
       <r>   -6.0304    1.0000 </r>
       <r>   -6.0293    1.0000 </r>
       <r>   -6.0052    1.0000 </r>
       <r>   -5.9874    1.0000 </r>
       <r>   -5.9070    1.0000 </r>
       <r>   -5.9066    1.0000 </r>
       <r>   -5.7149    1.0000 </r>
       <r>   -5.7148    1.0000 </r>
       <r>   -5.7130    1.0000 </r>
       <r>   -5.7129    1.0000 </r>
       <r>   -5.7060    1.0000 </r>
       <r>   -5.7059    1.0000 </r>
       <r>   -5.7041    1.0000 </r>
       <r>   -5.7041    1.0000 </r>
       <r>   -5.6912    1.0000 </r>
       <r>   -5.6902    1.0000 </r>
       <r>   -5.6867    1.0000 </r>
       <r>   -5.6857    1.0000 </r>
       <r>   -5.6823    1.0000 </r>
       <r>   -5.6808    1.0000 </r>
       <r>   -5.6807    1.0000 </r>
       <r>   -5.6793    1.0000 </r>
       <r>   -5.6694    1.0000 </r>
       <r>   -5.6693    1.0000 </r>
       <r>   -5.6679    1.0000 </r>
       <r>   -5.6679    1.0000 </r>
       <r>   -5.6672    1.0000 </r>
       <r>   -5.6671    1.0000 </r>
       <r>   -5.6662    1.0000 </r>
       <r>   -5.6661    1.0000 </r>
       <r>   -5.5748    1.0000 </r>
       <r>   -5.5748    1.0000 </r>
       <r>   -5.5618    1.0000 </r>
       <r>   -5.5618    1.0000 </r>
       <r>   -5.5588    1.0000 </r>
       <r>   -5.5582    1.0000 </r>
       <r>   -5.5582    1.0000 </r>
       <r>   -5.5576    1.0000 </r>
       <r>   -5.5538    1.0000 </r>
       <r>   -5.5538    1.0000 </r>
       <r>   -5.5504    1.0000 </r>
       <r>   -5.5504    1.0000 </r>
       <r>   -5.5470    1.0000 </r>
       <r>   -5.5469    1.0000 </r>
       <r>   -5.5469    1.0000 </r>
       <r>   -5.5467    1.0000 </r>
       <r>   -5.4177    1.0000 </r>
       <r>   -5.4177    1.0000 </r>
       <r>   -5.3696    1.0000 </r>
       <r>   -5.2477    1.0000 </r>
       <r>   -5.1479    1.0000 </r>
       <r>   -5.1461    1.0000 </r>
       <r>   -4.9933    1.0000 </r>
       <r>   -4.9235    1.0000 </r>
       <r>   -4.9230    1.0000 </r>
       <r>   -4.8738    1.0000 </r>
       <r>   -4.7492    1.0000 </r>
       <r>   -4.7492    1.0000 </r>
       <r>   -4.7426    1.0000 </r>
       <r>   -4.7426    1.0000 </r>
       <r>   -4.6191    1.0000 </r>
       <r>   -4.6191    1.0000 </r>
       <r>   -4.4776    1.0000 </r>
       <r>   -4.4769    1.0000 </r>
       <r>   -4.4769    1.0000 </r>
       <r>   -4.4745    1.0000 </r>
       <r>   -4.4745    1.0000 </r>
       <r>   -4.4737    1.0000 </r>
       <r>   -4.4734    1.0000 </r>
       <r>   -4.4734    1.0000 </r>
       <r>   -4.4731    1.0000 </r>
       <r>   -4.4715    1.0000 </r>
       <r>   -4.4715    1.0000 </r>
       <r>   -4.4713    1.0000 </r>
       <r>   -4.3391    1.0000 </r>
       <r>   -4.3388    1.0000 </r>
       <r>   -4.3388    1.0000 </r>
       <r>   -4.3388    1.0000 </r>
       <r>   -4.3388    1.0000 </r>
       <r>   -4.3384    1.0000 </r>
       <r>   -4.3370    1.0000 </r>
       <r>   -4.0490    1.0000 </r>
       <r>   -3.9419    1.0000 </r>
       <r>   -3.9418    1.0000 </r>
       <r>   -3.6910    1.0000 </r>
       <r>   -3.6313    1.0000 </r>
       <r>   -3.6282    1.0000 </r>
       <r>   -3.6141    1.0000 </r>
       <r>   -3.5983    1.0000 </r>
       <r>   -3.5233    1.0000 </r>
       <r>   -3.5145    1.0000 </r>
       <r>   -3.3591    1.0000 </r>
       <r>   -3.3417    1.0000 </r>
       <r>   -3.3407    1.0000 </r>
       <r>   -3.3214    1.0000 </r>
       <r>   -3.3188    1.0000 </r>
       <r>   -3.3070    1.0000 </r>
       <r>   -3.3044    1.0000 </r>
       <r>   -3.2205    1.0000 </r>
       <r>   -3.1832    1.0000 </r>
       <r>   -3.1742    1.0000 </r>
       <r>   -3.1720    1.0000 </r>
       <r>   -3.1718    1.0000 </r>
       <r>   -3.1704    1.0000 </r>
       <r>   -3.1333    1.0000 </r>
       <r>   -3.1024    1.0000 </r>
       <r>   -3.1024    1.0000 </r>
       <r>   -3.1013    1.0000 </r>
       <r>   -3.1012    1.0000 </r>
       <r>   -3.1010    1.0000 </r>
       <r>   -3.1010    1.0000 </r>
       <r>   -3.0924    1.0000 </r>
       <r>   -3.0924    1.0000 </r>
       <r>   -3.0913    1.0000 </r>
       <r>   -3.0912    1.0000 </r>
       <r>   -3.0911    1.0000 </r>
       <r>   -3.0910    1.0000 </r>
       <r>   -3.0524    1.0000 </r>
       <r>   -2.9688    1.0000 </r>
       <r>   -2.9686    1.0000 </r>
       <r>   -2.9686    1.0000 </r>
       <r>   -2.9685    1.0000 </r>
       <r>   -2.9685    1.0000 </r>
       <r>   -2.9684    1.0000 </r>
       <r>   -2.9630    1.0000 </r>
       <r>   -2.9246    1.0000 </r>
       <r>   -2.9245    1.0000 </r>
       <r>   -2.9238    1.0000 </r>
       <r>   -2.9237    1.0000 </r>
       <r>   -2.9168    1.0000 </r>
       <r>   -2.9167    1.0000 </r>
       <r>   -2.9158    1.0000 </r>
       <r>   -2.9157    1.0000 </r>
       <r>   -2.9068    1.0000 </r>
       <r>   -2.9056    1.0000 </r>
       <r>   -2.9001    1.0000 </r>
       <r>   -2.8993    1.0000 </r>
       <r>   -2.8913    1.0000 </r>
       <r>   -2.8904    1.0000 </r>
       <r>   -2.8897    1.0000 </r>
       <r>   -2.8889    1.0000 </r>
       <r>   -2.8798    1.0000 </r>
       <r>   -2.8798    1.0000 </r>
       <r>   -2.8783    1.0000 </r>
       <r>   -2.8783    1.0000 </r>
       <r>   -2.8773    1.0000 </r>
       <r>   -2.8773    1.0000 </r>
       <r>   -2.8762    1.0000 </r>
       <r>   -2.8762    1.0000 </r>
       <r>   -2.7720    1.0000 </r>
       <r>   -2.7720    1.0000 </r>
       <r>   -2.7718    1.0000 </r>
       <r>   -2.7707    1.0000 </r>
       <r>   -2.7675    1.0000 </r>
       <r>   -2.7675    1.0000 </r>
       <r>   -2.7624    1.0000 </r>
       <r>   -2.7624    1.0000 </r>
       <r>   -2.7596    1.0000 </r>
       <r>   -2.7592    1.0000 </r>
       <r>   -2.7585    1.0000 </r>
       <r>   -2.7585    1.0000 </r>
       <r>   -2.6294    1.0000 </r>
       <r>   -2.4844    1.0000 </r>
       <r>   -2.4839    1.0000 </r>
       <r>   -2.3151    1.0000 </r>
       <r>   -2.3101    1.0000 </r>
       <r>   -2.3088    1.0000 </r>
       <r>   -2.2830    1.0000 </r>
       <r>   -2.2821    1.0000 </r>
       <r>   -2.2680    1.0000 </r>
       <r>   -2.2342    1.0000 </r>
       <r>   -2.2314    1.0000 </r>
       <r>   -2.2229    1.0000 </r>
       <r>   -2.2219    1.0000 </r>
       <r>   -2.2170    1.0000 </r>
       <r>   -2.2108    1.0000 </r>
       <r>   -2.0979    1.0000 </r>
       <r>   -2.0903    1.0000 </r>
       <r>   -2.0902    1.0000 </r>
       <r>   -1.9563    1.0000 </r>
       <r>   -1.9495    1.0000 </r>
       <r>   -1.9478    1.0000 </r>
       <r>   -1.9430    1.0000 </r>
       <r>   -1.9426    1.0000 </r>
       <r>   -1.8992    1.0000 </r>
       <r>   -1.8466    1.0000 </r>
       <r>   -1.7844    1.0000 </r>
       <r>   -1.7843    1.0000 </r>
       <r>   -1.7826    1.0000 </r>
       <r>   -1.7135    1.0000 </r>
       <r>   -1.7135    1.0000 </r>
       <r>   -1.7134    1.0000 </r>
       <r>   -1.7112    1.0000 </r>
       <r>   -1.7111    1.0000 </r>
       <r>   -1.7110    1.0000 </r>
       <r>   -1.5807    1.0000 </r>
       <r>   -1.5807    1.0000 </r>
       <r>   -1.5807    1.0000 </r>
       <r>   -1.5527    1.0000 </r>
       <r>   -1.5480    1.0000 </r>
       <r>   -1.5419    1.0000 </r>
       <r>   -1.5253    1.0000 </r>
       <r>   -1.5174    1.0000 </r>
       <r>   -1.5016    1.0000 </r>
       <r>   -1.5016    1.0000 </r>
       <r>   -1.5007    1.0000 </r>
       <r>   -1.4997    1.0000 </r>
       <r>   -1.4997    1.0000 </r>
       <r>   -1.4985    1.0000 </r>
       <r>   -1.4967    1.0000 </r>
       <r>   -1.4966    1.0000 </r>
       <r>   -1.4965    1.0000 </r>
       <r>   -1.4923    1.0000 </r>
       <r>   -1.4921    1.0000 </r>
       <r>   -1.4917    1.0000 </r>
       <r>   -1.4863    1.0000 </r>
       <r>   -1.4862    1.0000 </r>
       <r>   -1.4776    1.0000 </r>
       <r>   -1.3674    1.0000 </r>
       <r>   -1.3674    1.0000 </r>
       <r>   -1.3674    1.0000 </r>
       <r>   -1.3673    1.0000 </r>
       <r>   -1.3672    1.0000 </r>
       <r>   -1.3672    1.0000 </r>
       <r>   -1.3571    1.0000 </r>
       <r>   -1.3564    1.0000 </r>
       <r>   -1.3561    1.0000 </r>
       <r>   -1.2581    1.0000 </r>
       <r>   -1.2449    1.0000 </r>
       <r>   -1.2367    1.0000 </r>
       <r>   -1.1921    1.0000 </r>
       <r>   -1.1831    1.0000 </r>
       <r>   -1.1827    1.0000 </r>
       <r>   -1.1534    1.0000 </r>
       <r>   -1.1533    1.0000 </r>
       <r>   -1.1513    1.0000 </r>
       <r>   -1.1507    1.0000 </r>
       <r>   -1.1507    1.0000 </r>
       <r>   -1.1496    1.0000 </r>
       <r>   -1.1496    1.0000 </r>
       <r>   -1.1492    1.0000 </r>
       <r>   -1.1486    1.0000 </r>
       <r>   -1.1484    1.0000 </r>
       <r>   -1.1484    1.0000 </r>
       <r>   -1.1472    1.0000 </r>
       <r>   -1.1472    1.0000 </r>
       <r>   -1.1463    1.0000 </r>
       <r>   -1.1364    1.0000 </r>
       <r>   -1.1291    1.0000 </r>
       <r>   -1.1189    1.0000 </r>
       <r>   -1.1176    1.0000 </r>
       <r>   -1.1051    1.0000 </r>
       <r>   -1.0195    1.0000 </r>
       <r>   -1.0195    1.0000 </r>
       <r>   -1.0193    1.0000 </r>
       <r>   -1.0191    1.0000 </r>
       <r>   -1.0190    1.0000 </r>
       <r>   -1.0190    1.0000 </r>
       <r>   -0.9671    1.0000 </r>
       <r>   -0.9653    1.0000 </r>
       <r>   -0.9605    1.0000 </r>
       <r>   -0.9499    1.0000 </r>
       <r>   -0.9356    1.0000 </r>
       <r>   -0.9353    1.0000 </r>
       <r>   -0.8728    1.0000 </r>
       <r>   -0.8689    1.0000 </r>
       <r>   -0.8688    1.0000 </r>
       <r>   -0.8636    1.0000 </r>
       <r>   -0.8521    1.0000 </r>
       <r>   -0.8519    1.0000 </r>
       <r>   -0.8504    1.0000 </r>
       <r>   -0.8504    1.0000 </r>
       <r>   -0.8499    1.0000 </r>
       <r>   -0.8497    1.0000 </r>
       <r>   -0.8482    1.0000 </r>
       <r>   -0.8439    1.0000 </r>
       <r>   -0.8438    1.0000 </r>
       <r>   -0.8423    1.0000 </r>
       <r>   -0.8419    1.0000 </r>
       <r>   -0.8334    1.0000 </r>
       <r>   -0.8332    1.0000 </r>
       <r>   -0.8252    1.0000 </r>
       <r>   -0.7249    1.0000 </r>
       <r>   -0.7238    1.0000 </r>
       <r>   -0.7237    1.0000 </r>
       <r>   -0.7191    1.0000 </r>
       <r>   -0.7190    1.0000 </r>
       <r>   -0.7166    1.0000 </r>
       <r>   -0.4759    1.0000 </r>
       <r>   -0.4752    1.0000 </r>
       <r>   -0.4153    1.0000 </r>
       <r>   -0.3482    1.0000 </r>
       <r>   -0.3472    1.0000 </r>
       <r>   -0.3388    1.0000 </r>
       <r>   -0.3349    1.0000 </r>
       <r>   -0.2610    1.0000 </r>
       <r>   -0.2599    1.0000 </r>
       <r>   -0.2593    1.0000 </r>
       <r>   -0.2472    1.0000 </r>
       <r>   -0.2471    1.0000 </r>
       <r>   -0.2441    1.0000 </r>
       <r>   -0.2440    1.0000 </r>
       <r>   -0.2416    1.0000 </r>
       <r>   -0.0939    1.0000 </r>
       <r>   -0.0835    1.0000 </r>
       <r>   -0.0390    1.0000 </r>
       <r>    0.0120    1.0000 </r>
       <r>    0.0121    1.0000 </r>
       <r>    0.0541    1.0000 </r>
       <r>    0.0835    1.0000 </r>
       <r>    0.0870    1.0000 </r>
       <r>    0.0871    1.0000 </r>
       <r>    0.1957    1.0000 </r>
       <r>    0.1960    1.0000 </r>
       <r>    0.2139    1.0000 </r>
       <r>    0.2154    1.0000 </r>
       <r>    0.2174    1.0000 </r>
       <r>    0.2177    1.0000 </r>
       <r>    0.2191    1.0000 </r>
       <r>    0.2194    1.0000 </r>
       <r>    0.2368    1.0000 </r>
       <r>    0.2370    1.0000 </r>
       <r>    0.2383    1.0000 </r>
       <r>    0.2386    1.0000 </r>
       <r>    0.2454    1.0000 </r>
       <r>    0.2469    1.0000 </r>
       <r>    0.3536    1.0000 </r>
       <r>    0.3552    1.0000 </r>
       <r>    0.3552    1.0000 </r>
       <r>    0.3604    1.0000 </r>
       <r>    0.3604    1.0000 </r>
       <r>    0.3629    1.0000 </r>
       <r>    0.3649    1.0000 </r>
       <r>    0.5173    1.0000 </r>
       <r>    0.5617    1.0000 </r>
       <r>    0.5620    1.0000 </r>
       <r>    0.6104    1.0000 </r>
       <r>    0.6106    1.0000 </r>
       <r>    0.6164    1.0000 </r>
       <r>    0.6193    1.0000 </r>
       <r>    0.6344    1.0000 </r>
       <r>    0.6344    1.0000 </r>
       <r>    0.6414    1.0000 </r>
       <r>    0.6417    1.0000 </r>
       <r>    0.6677    1.0000 </r>
       <r>    0.6790    1.0000 </r>
       <r>    0.6815    1.0000 </r>
       <r>    0.6847    1.0000 </r>
       <r>    0.7402    1.0000 </r>
       <r>    0.7472    1.0000 </r>
       <r>    0.8608    1.0000 </r>
       <r>    0.8630    1.0000 </r>
       <r>    0.8701    1.0000 </r>
       <r>    1.0549    1.0000 </r>
       <r>    1.0553    1.0000 </r>
       <r>    1.1336    1.0000 </r>
       <r>    1.1336    1.0000 </r>
       <r>    1.1345    1.0000 </r>
       <r>    1.1345    1.0000 </r>
       <r>    1.1354    1.0000 </r>
       <r>    1.1653    1.0000 </r>
       <r>    1.1937    1.0000 </r>
       <r>    1.1939    1.0000 </r>
       <r>    1.2304    1.0000 </r>
       <r>    1.2440    1.0000 </r>
       <r>    1.2445    1.0000 </r>
       <r>    1.2591    1.0000 </r>
       <r>    1.2614    1.0000 </r>
       <r>    1.2615    1.0000 </r>
       <r>    1.2753    1.0000 </r>
       <r>    1.2759    1.0000 </r>
       <r>    1.2824    1.0000 </r>
       <r>    1.2833    1.0000 </r>
       <r>    1.2836    1.0000 </r>
       <r>    1.2856    1.0000 </r>
       <r>    1.3021    1.0000 </r>
       <r>    1.3023    1.0000 </r>
       <r>    1.3232    1.0000 </r>
       <r>    1.3233    1.0000 </r>
       <r>    1.3340    1.0000 </r>
       <r>    1.3340    1.0000 </r>
       <r>    1.3406    1.0000 </r>
       <r>    1.3432    1.0000 </r>
       <r>    1.4050    1.0000 </r>
       <r>    1.4073    1.0000 </r>
       <r>    1.4094    1.0000 </r>
       <r>    1.4840    1.0000 </r>
       <r>    1.4864    1.0000 </r>
       <r>    1.4866    1.0000 </r>
       <r>    1.8119    1.0000 </r>
       <r>    1.8120    1.0000 </r>
       <r>    1.8419    1.0000 </r>
       <r>    1.8718    1.0000 </r>
       <r>    1.8978    1.0000 </r>
       <r>    1.8979    1.0000 </r>
       <r>    1.9052    1.0000 </r>
       <r>    1.9054    1.0000 </r>
       <r>    1.9279    1.0000 </r>
       <r>    1.9330    1.0000 </r>
       <r>    1.9338    1.0000 </r>
       <r>    1.9366    1.0000 </r>
       <r>    1.9633    1.0000 </r>
       <r>    1.9638    1.0000 </r>
       <r>    1.9645    1.0000 </r>
       <r>    2.0544    1.0000 </r>
       <r>    2.0568    1.0000 </r>
       <r>    2.3304    1.0000 </r>
       <r>    2.3383    1.0000 </r>
       <r>    2.4110    1.0000 </r>
       <r>    2.4143    1.0000 </r>
       <r>    2.5037    1.0000 </r>
       <r>    2.5037    1.0000 </r>
       <r>    4.6652    1.0000 </r>
       <r>    5.8783    0.0000 </r>
       <r>    6.4866    0.0000 </r>
       <r>    6.4876    0.0000 </r>
       <r>    6.6764    0.0000 </r>
       <r>    6.7120    0.0000 </r>
       <r>    7.0086    0.0000 </r>
       <r>    7.0349    0.0000 </r>
       <r>    7.0350    0.0000 </r>
       <r>    7.0860    0.0000 </r>
       <r>    7.0861    0.0000 </r>
       <r>    7.1683    0.0000 </r>
       <r>    7.1684    0.0000 </r>
       <r>    7.1752    0.0000 </r>
       <r>    7.2456    0.0000 </r>
       <r>    7.2849    0.0000 </r>
       <r>    7.2850    0.0000 </r>
       <r>    7.3027    0.0000 </r>
       <r>    7.3524    0.0000 </r>
       <r>    7.3568    0.0000 </r>
       <r>    7.3584    0.0000 </r>
       <r>    7.3941    0.0000 </r>
       <r>    7.4331    0.0000 </r>
       <r>    7.4348    0.0000 </r>
       <r>    7.5401    0.0000 </r>
       <r>    7.5405    0.0000 </r>
       <r>    7.5877    0.0000 </r>
       <r>    7.5910    0.0000 </r>
       <r>    7.5924    0.0000 </r>
       <r>    7.6063    0.0000 </r>
       <r>    7.6838    0.0000 </r>
       <r>    7.7750    0.0000 </r>
       <r>    7.8101    0.0000 </r>
       <r>    7.8104    0.0000 </r>
       <r>    7.8286    0.0000 </r>
       <r>    7.8471    0.0000 </r>
       <r>    7.8474    0.0000 </r>
       <r>    7.8547    0.0000 </r>
       <r>    7.8550    0.0000 </r>
       <r>    7.8724    0.0000 </r>
       <r>    7.8834    0.0000 </r>
       <r>    7.8846    0.0000 </r>
       <r>    7.8849    0.0000 </r>
       <r>    7.8882    0.0000 </r>
       <r>    7.8882    0.0000 </r>
       <r>    7.9053    0.0000 </r>
       <r>    7.9065    0.0000 </r>
       <r>    7.9073    0.0000 </r>
       <r>    7.9144    0.0000 </r>
       <r>    7.9144    0.0000 </r>
       <r>    7.9155    0.0000 </r>
       <r>    7.9224    0.0000 </r>
       <r>    7.9268    0.0000 </r>
       <r>    7.9329    0.0000 </r>
       <r>    7.9332    0.0000 </r>
       <r>    8.0379    0.0000 </r>
       <r>    8.0416    0.0000 </r>
       <r>    8.0420    0.0000 </r>
       <r>    8.3779    0.0000 </r>
       <r>    8.4271    0.0000 </r>
       <r>    8.4274    0.0000 </r>
       <r>    8.4310    0.0000 </r>
       <r>    8.4318    0.0000 </r>
       <r>    8.4334    0.0000 </r>
       <r>    8.4623    0.0000 </r>
       <r>    8.4625    0.0000 </r>
       <r>    8.4800    0.0000 </r>
       <r>    8.4800    0.0000 </r>
       <r>    8.4984    0.0000 </r>
       <r>    8.5016    0.0000 </r>
       <r>    8.5021    0.0000 </r>
       <r>    8.5053    0.0000 </r>
       <r>    8.5363    0.0000 </r>
       <r>    8.5375    0.0000 </r>
       <r>    8.5666    0.0000 </r>
       <r>    8.6763    0.0000 </r>
       <r>    8.8638    0.0000 </r>
       <r>    9.1426    0.0000 </r>
       <r>    9.1443    0.0000 </r>
       <r>    9.1882    0.0000 </r>
       <r>    9.1901    0.0000 </r>
       <r>    9.2207    0.0000 </r>
       <r>    9.2355    0.0000 </r>
       <r>    9.2363    0.0000 </r>
       <r>    9.5081    0.0000 </r>
       <r>    9.5253    0.0000 </r>
       <r>    9.5255    0.0000 </r>
       <r>    9.5274    0.0000 </r>
       <r>    9.5303    0.0000 </r>
       <r>    9.5304    0.0000 </r>
       <r>    9.5328    0.0000 </r>
       <r>    9.5373    0.0000 </r>
       <r>    9.5375    0.0000 </r>
       <r>    9.5399    0.0000 </r>
       <r>    9.5981    0.0000 </r>
       <r>    9.5993    0.0000 </r>
       <r>    9.8696    0.0000 </r>
       <r>    9.9628    0.0000 </r>
       <r>   10.0320    0.0000 </r>
       <r>   10.1171    0.0000 </r>
       <r>   10.1205    0.0000 </r>
       <r>   10.1275    0.0000 </r>
       <r>   10.1279    0.0000 </r>
       <r>   10.1384    0.0000 </r>
       <r>   10.1424    0.0000 </r>
       <r>   10.1543    0.0000 </r>
       <r>   10.1567    0.0000 </r>
       <r>   10.1569    0.0000 </r>
       <r>   10.1683    0.0000 </r>
       <r>   10.2270    0.0000 </r>
       <r>   10.2423    0.0000 </r>
       <r>   10.2872    0.0000 </r>
       <r>   10.2892    0.0000 </r>
       <r>   10.3205    0.0000 </r>
       <r>   10.3217    0.0000 </r>
       <r>   10.3622    0.0000 </r>
       <r>   10.4404    0.0000 </r>
       <r>   10.4420    0.0000 </r>
       <r>   10.4430    0.0000 </r>
       <r>   10.4624    0.0000 </r>
       <r>   10.4627    0.0000 </r>
       <r>   10.4675    0.0000 </r>
       <r>   10.4829    0.0000 </r>
       <r>   10.5082    0.0000 </r>
       <r>   10.5176    0.0000 </r>
       <r>   10.5186    0.0000 </r>
       <r>   10.5213    0.0000 </r>
       <r>   10.5242    0.0000 </r>
       <r>   10.5723    0.0000 </r>
       <r>   10.5736    0.0000 </r>
       <r>   10.5745    0.0000 </r>
       <r>   10.5766    0.0000 </r>
       <r>   10.5775    0.0000 </r>
       <r>   10.5906    0.0000 </r>
       <r>   10.6022    0.0000 </r>
       <r>   10.6039    0.0000 </r>
       <r>   10.6500    0.0000 </r>
       <r>   10.7361    0.0000 </r>
       <r>   10.8301    0.0000 </r>
       <r>   10.8524    0.0000 </r>
       <r>   10.8734    0.0000 </r>
       <r>   10.8785    0.0000 </r>
       <r>   10.8834    0.0000 </r>
       <r>   10.8862    0.0000 </r>
       <r>   10.9029    0.0000 </r>
       <r>   10.9256    0.0000 </r>
       <r>   10.9431    0.0000 </r>
       <r>   10.9534    0.0000 </r>
       <r>   10.9568    0.0000 </r>
       <r>   10.9640    0.0000 </r>
       <r>   12.1265    0.0000 </r>
       <r>   12.3936    0.0000 </r>
      </set>
      <set comment="kpoint 2">
       <r>  -17.2936    1.0000 </r>
       <r>  -15.7747    1.0000 </r>
       <r>  -15.7306    1.0000 </r>
       <r>  -15.4231    1.0000 </r>
       <r>  -15.3131    1.0000 </r>
       <r>  -15.2500    1.0000 </r>
       <r>  -15.2287    1.0000 </r>
       <r>  -15.1960    1.0000 </r>
       <r>  -15.1882    1.0000 </r>
       <r>  -15.0998    1.0000 </r>
       <r>  -15.0666    1.0000 </r>
       <r>  -15.0259    1.0000 </r>
       <r>  -15.0075    1.0000 </r>
       <r>  -14.9555    1.0000 </r>
       <r>  -14.9465    1.0000 </r>
       <r>  -14.9378    1.0000 </r>
       <r>  -14.9358    1.0000 </r>
       <r>  -14.8560    1.0000 </r>
       <r>  -14.7536    1.0000 </r>
       <r>  -14.7520    1.0000 </r>
       <r>  -14.6225    1.0000 </r>
       <r>  -14.5703    1.0000 </r>
       <r>  -14.5568    1.0000 </r>
       <r>  -14.4591    1.0000 </r>
       <r>  -14.4458    1.0000 </r>
       <r>  -14.4430    1.0000 </r>
       <r>  -14.4294    1.0000 </r>
       <r>  -14.4248    1.0000 </r>
       <r>  -14.4203    1.0000 </r>
       <r>  -14.4160    1.0000 </r>
       <r>  -14.4146    1.0000 </r>
       <r>  -14.3566    1.0000 </r>
       <r>  -14.2468    1.0000 </r>
       <r>  -14.2421    1.0000 </r>
       <r>  -14.2395    1.0000 </r>
       <r>  -14.2391    1.0000 </r>
       <r>  -14.2020    1.0000 </r>
       <r>  -14.1918    1.0000 </r>
       <r>  -14.1676    1.0000 </r>
       <r>  -14.1665    1.0000 </r>
       <r>  -14.1215    1.0000 </r>
       <r>  -14.0343    1.0000 </r>
       <r>  -13.9968    1.0000 </r>
       <r>  -13.9946    1.0000 </r>
       <r>  -13.9459    1.0000 </r>
       <r>  -13.7932    1.0000 </r>
       <r>  -13.7363    1.0000 </r>
       <r>  -13.7122    1.0000 </r>
       <r>  -13.7094    1.0000 </r>
       <r>  -13.7070    1.0000 </r>
       <r>  -13.6967    1.0000 </r>
       <r>  -13.6941    1.0000 </r>
       <r>  -13.6738    1.0000 </r>
       <r>  -13.6734    1.0000 </r>
       <r>  -13.6076    1.0000 </r>
       <r>  -13.5310    1.0000 </r>
       <r>  -13.5307    1.0000 </r>
       <r>  -13.5156    1.0000 </r>
       <r>  -13.5153    1.0000 </r>
       <r>  -13.5040    1.0000 </r>
       <r>  -13.3593    1.0000 </r>
       <r>  -13.3394    1.0000 </r>
       <r>  -13.2561    1.0000 </r>
       <r>  -13.2236    1.0000 </r>
       <r>  -13.1156    1.0000 </r>
       <r>  -13.0598    1.0000 </r>
       <r>  -13.0533    1.0000 </r>
       <r>  -13.0509    1.0000 </r>
       <r>  -13.0430    1.0000 </r>
       <r>  -13.0403    1.0000 </r>
       <r>  -13.0375    1.0000 </r>
       <r>  -13.0346    1.0000 </r>
       <r>  -13.0331    1.0000 </r>
       <r>  -12.9782    1.0000 </r>
       <r>  -12.9325    1.0000 </r>
       <r>  -12.8887    1.0000 </r>
       <r>  -12.8840    1.0000 </r>
       <r>  -12.8818    1.0000 </r>
       <r>  -12.8801    1.0000 </r>
       <r>  -12.8767    1.0000 </r>
       <r>  -12.8738    1.0000 </r>
       <r>  -12.8734    1.0000 </r>
       <r>  -12.8712    1.0000 </r>
       <r>  -12.8694    1.0000 </r>
       <r>  -12.8672    1.0000 </r>
       <r>  -12.8633    1.0000 </r>
       <r>  -12.8629    1.0000 </r>
       <r>  -12.8593    1.0000 </r>
       <r>  -12.7165    1.0000 </r>
       <r>  -12.7141    1.0000 </r>
       <r>  -12.7139    1.0000 </r>
       <r>  -12.7135    1.0000 </r>
       <r>  -12.6893    1.0000 </r>
       <r>  -12.6088    1.0000 </r>
       <r>  -12.5917    1.0000 </r>
       <r>  -12.5843    1.0000 </r>
       <r>  -12.5691    1.0000 </r>
       <r>  -12.5547    1.0000 </r>
       <r>  -12.5267    1.0000 </r>
       <r>  -12.4965    1.0000 </r>
       <r>  -12.4372    1.0000 </r>
       <r>  -12.4315    1.0000 </r>
       <r>  -12.4242    1.0000 </r>
       <r>  -12.4198    1.0000 </r>
       <r>  -12.3361    1.0000 </r>
       <r>  -12.3324    1.0000 </r>
       <r>  -12.3284    1.0000 </r>
       <r>  -12.3235    1.0000 </r>
       <r>  -12.2442    1.0000 </r>
       <r>  -12.2420    1.0000 </r>
       <r>  -12.2395    1.0000 </r>
       <r>  -12.2363    1.0000 </r>
       <r>  -12.2166    1.0000 </r>
       <r>  -12.2150    1.0000 </r>
       <r>  -12.2100    1.0000 </r>
       <r>  -12.2077    1.0000 </r>
       <r>  -12.1801    1.0000 </r>
       <r>  -12.1767    1.0000 </r>
       <r>  -12.1746    1.0000 </r>
       <r>  -12.1691    1.0000 </r>
       <r>  -12.0958    1.0000 </r>
       <r>  -12.0957    1.0000 </r>
       <r>  -12.0892    1.0000 </r>
       <r>  -12.0871    1.0000 </r>
       <r>  -12.0864    1.0000 </r>
       <r>  -12.0811    1.0000 </r>
       <r>  -11.9502    1.0000 </r>
       <r>  -11.9479    1.0000 </r>
       <r>  -11.9467    1.0000 </r>
       <r>  -11.9444    1.0000 </r>
       <r>  -11.8159    1.0000 </r>
       <r>  -11.8151    1.0000 </r>
       <r>  -11.8073    1.0000 </r>
       <r>  -11.8064    1.0000 </r>
       <r>  -11.8063    1.0000 </r>
       <r>  -11.8053    1.0000 </r>
       <r>  -11.7839    1.0000 </r>
       <r>  -11.7837    1.0000 </r>
       <r>  -11.7802    1.0000 </r>
       <r>  -11.7799    1.0000 </r>
       <r>  -11.6685    1.0000 </r>
       <r>  -11.6685    1.0000 </r>
       <r>  -11.6612    1.0000 </r>
       <r>  -11.6612    1.0000 </r>
       <r>   -8.3631    1.0000 </r>
       <r>   -7.2842    1.0000 </r>
       <r>   -7.2708    1.0000 </r>
       <r>   -6.7930    1.0000 </r>
       <r>   -6.7021    1.0000 </r>
       <r>   -6.6837    1.0000 </r>
       <r>   -6.4393    1.0000 </r>
       <r>   -6.4051    1.0000 </r>
       <r>   -6.3234    1.0000 </r>
       <r>   -6.3078    1.0000 </r>
       <r>   -6.3056    1.0000 </r>
       <r>   -6.3049    1.0000 </r>
       <r>   -6.3008    1.0000 </r>
       <r>   -6.2902    1.0000 </r>
       <r>   -6.2731    1.0000 </r>
       <r>   -6.2723    1.0000 </r>
       <r>   -6.2709    1.0000 </r>
       <r>   -6.2705    1.0000 </r>
       <r>   -6.2176    1.0000 </r>
       <r>   -6.2141    1.0000 </r>
       <r>   -6.2130    1.0000 </r>
       <r>   -6.2044    1.0000 </r>
       <r>   -6.1989    1.0000 </r>
       <r>   -6.1952    1.0000 </r>
       <r>   -6.1588    1.0000 </r>
       <r>   -6.1586    1.0000 </r>
       <r>   -6.1490    1.0000 </r>
       <r>   -6.1488    1.0000 </r>
       <r>   -6.0724    1.0000 </r>
       <r>   -6.0710    1.0000 </r>
       <r>   -5.9331    1.0000 </r>
       <r>   -5.9309    1.0000 </r>
       <r>   -5.9075    1.0000 </r>
       <r>   -5.9065    1.0000 </r>
       <r>   -5.8420    1.0000 </r>
       <r>   -5.7894    1.0000 </r>
       <r>   -5.7818    1.0000 </r>
       <r>   -5.7715    1.0000 </r>
       <r>   -5.7679    1.0000 </r>
       <r>   -5.7654    1.0000 </r>
       <r>   -5.7636    1.0000 </r>
       <r>   -5.7629    1.0000 </r>
       <r>   -5.7624    1.0000 </r>
       <r>   -5.7571    1.0000 </r>
       <r>   -5.7523    1.0000 </r>
       <r>   -5.7518    1.0000 </r>
       <r>   -5.7401    1.0000 </r>
       <r>   -5.6864    1.0000 </r>
       <r>   -5.6546    1.0000 </r>
       <r>   -5.6426    1.0000 </r>
       <r>   -5.6229    1.0000 </r>
       <r>   -5.6229    1.0000 </r>
       <r>   -5.6196    1.0000 </r>
       <r>   -5.6196    1.0000 </r>
       <r>   -5.2274    1.0000 </r>
       <r>   -5.2256    1.0000 </r>
       <r>   -5.2243    1.0000 </r>
       <r>   -5.2231    1.0000 </r>
       <r>   -5.2217    1.0000 </r>
       <r>   -5.2212    1.0000 </r>
       <r>   -5.2209    1.0000 </r>
       <r>   -5.2204    1.0000 </r>
       <r>   -5.2192    1.0000 </r>
       <r>   -5.2187    1.0000 </r>
       <r>   -5.2178    1.0000 </r>
       <r>   -5.2176    1.0000 </r>
       <r>   -5.1181    1.0000 </r>
       <r>   -5.1089    1.0000 </r>
       <r>   -5.0907    1.0000 </r>
       <r>   -5.0906    1.0000 </r>
       <r>   -5.0878    1.0000 </r>
       <r>   -5.0877    1.0000 </r>
       <r>   -5.0874    1.0000 </r>
       <r>   -5.0871    1.0000 </r>
       <r>   -5.0253    1.0000 </r>
       <r>   -4.9213    1.0000 </r>
       <r>   -4.8323    1.0000 </r>
       <r>   -4.6135    1.0000 </r>
       <r>   -4.5525    1.0000 </r>
       <r>   -4.5400    1.0000 </r>
       <r>   -4.4758    1.0000 </r>
       <r>   -4.4734    1.0000 </r>
       <r>   -4.4719    1.0000 </r>
       <r>   -4.4712    1.0000 </r>
       <r>   -4.4707    1.0000 </r>
       <r>   -4.4694    1.0000 </r>
       <r>   -4.4679    1.0000 </r>
       <r>   -4.4676    1.0000 </r>
       <r>   -4.3413    1.0000 </r>
       <r>   -4.3411    1.0000 </r>
       <r>   -4.3408    1.0000 </r>
       <r>   -4.3407    1.0000 </r>
       <r>   -4.3194    1.0000 </r>
       <r>   -4.3174    1.0000 </r>
       <r>   -4.2033    1.0000 </r>
       <r>   -4.0967    1.0000 </r>
       <r>   -4.0876    1.0000 </r>
       <r>   -4.0874    1.0000 </r>
       <r>   -4.0849    1.0000 </r>
       <r>   -4.0840    1.0000 </r>
       <r>   -4.0741    1.0000 </r>
       <r>   -4.0739    1.0000 </r>
       <r>   -4.0719    1.0000 </r>
       <r>   -4.0708    1.0000 </r>
       <r>   -4.0275    1.0000 </r>
       <r>   -3.9502    1.0000 </r>
       <r>   -3.9501    1.0000 </r>
       <r>   -3.9466    1.0000 </r>
       <r>   -3.9465    1.0000 </r>
       <r>   -3.9079    1.0000 </r>
       <r>   -3.8666    1.0000 </r>
       <r>   -3.7858    1.0000 </r>
       <r>   -3.7504    1.0000 </r>
       <r>   -3.6235    1.0000 </r>
       <r>   -3.6216    1.0000 </r>
       <r>   -3.6155    1.0000 </r>
       <r>   -3.6141    1.0000 </r>
       <r>   -3.6036    1.0000 </r>
       <r>   -3.6029    1.0000 </r>
       <r>   -3.5984    1.0000 </r>
       <r>   -3.5978    1.0000 </r>
       <r>   -3.5168    1.0000 </r>
       <r>   -3.4799    1.0000 </r>
       <r>   -3.4794    1.0000 </r>
       <r>   -3.4783    1.0000 </r>
       <r>   -3.4739    1.0000 </r>
       <r>   -3.4739    1.0000 </r>
       <r>   -3.4689    1.0000 </r>
       <r>   -3.4683    1.0000 </r>
       <r>   -3.4654    1.0000 </r>
       <r>   -3.4646    1.0000 </r>
       <r>   -3.4505    1.0000 </r>
       <r>   -3.3493    1.0000 </r>
       <r>   -3.3383    1.0000 </r>
       <r>   -3.3382    1.0000 </r>
       <r>   -3.1556    1.0000 </r>
       <r>   -3.1306    1.0000 </r>
       <r>   -3.0974    1.0000 </r>
       <r>   -3.0762    1.0000 </r>
       <r>   -3.0741    1.0000 </r>
       <r>   -3.0700    1.0000 </r>
       <r>   -3.0690    1.0000 </r>
       <r>   -2.9895    1.0000 </r>
       <r>   -2.9383    1.0000 </r>
       <r>   -2.9376    1.0000 </r>
       <r>   -2.9322    1.0000 </r>
       <r>   -2.8566    1.0000 </r>
       <r>   -2.8105    1.0000 </r>
       <r>   -2.7786    1.0000 </r>
       <r>   -2.7714    1.0000 </r>
       <r>   -2.7696    1.0000 </r>
       <r>   -2.7558    1.0000 </r>
       <r>   -2.7532    1.0000 </r>
       <r>   -2.7354    1.0000 </r>
       <r>   -2.7265    1.0000 </r>
       <r>   -2.6832    1.0000 </r>
       <r>   -2.6797    1.0000 </r>
       <r>   -2.6688    1.0000 </r>
       <r>   -2.6674    1.0000 </r>
       <r>   -2.6673    1.0000 </r>
       <r>   -2.5441    1.0000 </r>
       <r>   -2.5438    1.0000 </r>
       <r>   -2.5230    1.0000 </r>
       <r>   -2.5219    1.0000 </r>
       <r>   -2.5136    1.0000 </r>
       <r>   -2.4605    1.0000 </r>
       <r>   -2.4253    1.0000 </r>
       <r>   -2.4156    1.0000 </r>
       <r>   -2.3839    1.0000 </r>
       <r>   -2.3762    1.0000 </r>
       <r>   -2.3742    1.0000 </r>
       <r>   -2.3741    1.0000 </r>
       <r>   -2.3733    1.0000 </r>
       <r>   -2.3720    1.0000 </r>
       <r>   -2.3708    1.0000 </r>
       <r>   -2.3697    1.0000 </r>
       <r>   -2.3689    1.0000 </r>
       <r>   -2.3590    1.0000 </r>
       <r>   -2.3579    1.0000 </r>
       <r>   -2.3541    1.0000 </r>
       <r>   -2.3293    1.0000 </r>
       <r>   -2.2685    1.0000 </r>
       <r>   -2.2409    1.0000 </r>
       <r>   -2.2405    1.0000 </r>
       <r>   -2.2403    1.0000 </r>
       <r>   -2.2400    1.0000 </r>
       <r>   -2.2107    1.0000 </r>
       <r>   -2.1754    1.0000 </r>
       <r>   -2.1471    1.0000 </r>
       <r>   -2.1364    1.0000 </r>
       <r>   -2.0895    1.0000 </r>
       <r>   -2.0889    1.0000 </r>
       <r>   -2.0885    1.0000 </r>
       <r>   -2.0879    1.0000 </r>
       <r>   -2.0549    1.0000 </r>
       <r>   -2.0547    1.0000 </r>
       <r>   -2.0539    1.0000 </r>
       <r>   -2.0533    1.0000 </r>
       <r>   -2.0413    1.0000 </r>
       <r>   -2.0313    1.0000 </r>
       <r>   -2.0136    1.0000 </r>
       <r>   -2.0101    1.0000 </r>
       <r>   -1.9826    1.0000 </r>
       <r>   -1.9430    1.0000 </r>
       <r>   -1.9430    1.0000 </r>
       <r>   -1.9330    1.0000 </r>
       <r>   -1.9329    1.0000 </r>
       <r>   -1.8934    1.0000 </r>
       <r>   -1.8696    1.0000 </r>
       <r>   -1.8678    1.0000 </r>
       <r>   -1.8669    1.0000 </r>
       <r>   -1.8656    1.0000 </r>
       <r>   -1.8579    1.0000 </r>
       <r>   -1.8558    1.0000 </r>
       <r>   -1.8236    1.0000 </r>
       <r>   -1.8205    1.0000 </r>
       <r>   -1.8168    1.0000 </r>
       <r>   -1.8147    1.0000 </r>
       <r>   -1.7856    1.0000 </r>
       <r>   -1.7775    1.0000 </r>
       <r>   -1.7772    1.0000 </r>
       <r>   -1.7760    1.0000 </r>
       <r>   -1.7759    1.0000 </r>
       <r>   -1.7755    1.0000 </r>
       <r>   -1.7754    1.0000 </r>
       <r>   -1.7743    1.0000 </r>
       <r>   -1.7739    1.0000 </r>
       <r>   -1.7187    1.0000 </r>
       <r>   -1.7085    1.0000 </r>
       <r>   -1.7080    1.0000 </r>
       <r>   -1.6961    1.0000 </r>
       <r>   -1.6606    1.0000 </r>
       <r>   -1.6514    1.0000 </r>
       <r>   -1.6452    1.0000 </r>
       <r>   -1.6452    1.0000 </r>
       <r>   -1.6449    1.0000 </r>
       <r>   -1.6448    1.0000 </r>
       <r>   -1.6346    1.0000 </r>
       <r>   -1.6155    1.0000 </r>
       <r>   -1.6128    1.0000 </r>
       <r>   -1.6056    1.0000 </r>
       <r>   -1.6037    1.0000 </r>
       <r>   -1.5832    1.0000 </r>
       <r>   -1.5809    1.0000 </r>
       <r>   -1.5790    1.0000 </r>
       <r>   -1.5673    1.0000 </r>
       <r>   -1.5652    1.0000 </r>
       <r>   -1.5583    1.0000 </r>
       <r>   -1.5535    1.0000 </r>
       <r>   -1.5509    1.0000 </r>
       <r>   -1.4908    1.0000 </r>
       <r>   -1.4563    1.0000 </r>
       <r>   -1.4411    1.0000 </r>
       <r>   -1.4315    1.0000 </r>
       <r>   -1.3508    1.0000 </r>
       <r>   -1.3479    1.0000 </r>
       <r>   -1.3393    1.0000 </r>
       <r>   -1.3379    1.0000 </r>
       <r>   -1.2297    1.0000 </r>
       <r>   -1.2295    1.0000 </r>
       <r>   -1.2261    1.0000 </r>
       <r>   -1.2260    1.0000 </r>
       <r>   -1.2118    1.0000 </r>
       <r>   -1.2116    1.0000 </r>
       <r>   -1.2097    1.0000 </r>
       <r>   -1.2080    1.0000 </r>
       <r>   -1.1874    1.0000 </r>
       <r>   -1.0914    1.0000 </r>
       <r>   -1.0914    1.0000 </r>
       <r>   -1.0860    1.0000 </r>
       <r>   -1.0860    1.0000 </r>
       <r>   -1.0521    1.0000 </r>
       <r>   -1.0271    1.0000 </r>
       <r>   -1.0149    1.0000 </r>
       <r>   -0.9782    1.0000 </r>
       <r>   -0.9335    1.0000 </r>
       <r>   -0.8713    1.0000 </r>
       <r>   -0.8463    1.0000 </r>
       <r>   -0.7807    1.0000 </r>
       <r>   -0.7801    1.0000 </r>
       <r>   -0.7575    1.0000 </r>
       <r>   -0.7247    1.0000 </r>
       <r>   -0.7171    1.0000 </r>
       <r>   -0.7134    1.0000 </r>
       <r>   -0.7120    1.0000 </r>
       <r>   -0.7041    1.0000 </r>
       <r>   -0.6783    1.0000 </r>
       <r>   -0.6772    1.0000 </r>
       <r>   -0.6746    1.0000 </r>
       <r>   -0.6740    1.0000 </r>
       <r>   -0.6616    1.0000 </r>
       <r>   -0.6574    1.0000 </r>
       <r>   -0.6558    1.0000 </r>
       <r>   -0.6256    1.0000 </r>
       <r>   -0.5179    1.0000 </r>
       <r>   -0.5168    1.0000 </r>
       <r>   -0.5159    1.0000 </r>
       <r>   -0.5147    1.0000 </r>
       <r>   -0.4621    1.0000 </r>
       <r>   -0.4586    1.0000 </r>
       <r>   -0.4578    1.0000 </r>
       <r>   -0.4572    1.0000 </r>
       <r>   -0.4544    1.0000 </r>
       <r>   -0.4538    1.0000 </r>
       <r>   -0.4530    1.0000 </r>
       <r>   -0.4499    1.0000 </r>
       <r>   -0.4391    1.0000 </r>
       <r>   -0.4146    1.0000 </r>
       <r>   -0.3840    1.0000 </r>
       <r>   -0.3835    1.0000 </r>
       <r>   -0.3834    1.0000 </r>
       <r>   -0.3710    1.0000 </r>
       <r>   -0.3570    1.0000 </r>
       <r>   -0.3547    1.0000 </r>
       <r>   -0.3538    1.0000 </r>
       <r>   -0.3465    1.0000 </r>
       <r>   -0.3432    1.0000 </r>
       <r>   -0.3425    1.0000 </r>
       <r>   -0.3269    1.0000 </r>
       <r>   -0.3263    1.0000 </r>
       <r>   -0.3262    1.0000 </r>
       <r>   -0.3258    1.0000 </r>
       <r>   -0.2797    1.0000 </r>
       <r>   -0.2255    1.0000 </r>
       <r>   -0.2250    1.0000 </r>
       <r>   -0.1254    1.0000 </r>
       <r>   -0.0459    1.0000 </r>
       <r>    0.0032    1.0000 </r>
       <r>    0.0425    1.0000 </r>
       <r>    0.1176    1.0000 </r>
       <r>    0.1520    1.0000 </r>
       <r>    0.1536    1.0000 </r>
       <r>    0.1668    1.0000 </r>
       <r>    0.1798    1.0000 </r>
       <r>    0.1999    1.0000 </r>
       <r>    0.2124    1.0000 </r>
       <r>    0.2139    1.0000 </r>
       <r>    0.2183    1.0000 </r>
       <r>    0.2203    1.0000 </r>
       <r>    0.2383    1.0000 </r>
       <r>    0.2409    1.0000 </r>
       <r>    0.2868    1.0000 </r>
       <r>    0.3088    1.0000 </r>
       <r>    0.3143    1.0000 </r>
       <r>    0.3435    1.0000 </r>
       <r>    0.3448    1.0000 </r>
       <r>    0.3490    1.0000 </r>
       <r>    0.3504    1.0000 </r>
       <r>    0.3659    1.0000 </r>
       <r>    0.3760    1.0000 </r>
       <r>    0.3943    1.0000 </r>
       <r>    0.4526    1.0000 </r>
       <r>    0.4569    1.0000 </r>
       <r>    0.4598    1.0000 </r>
       <r>    0.4625    1.0000 </r>
       <r>    0.4645    1.0000 </r>
       <r>    0.4650    1.0000 </r>
       <r>    0.4765    1.0000 </r>
       <r>    0.4773    1.0000 </r>
       <r>    0.5550    1.0000 </r>
       <r>    0.5594    1.0000 </r>
       <r>    0.5705    1.0000 </r>
       <r>    0.5855    1.0000 </r>
       <r>    0.5901    1.0000 </r>
       <r>    0.6827    1.0000 </r>
       <r>    0.6936    1.0000 </r>
       <r>    0.7014    1.0000 </r>
       <r>    0.7030    1.0000 </r>
       <r>    0.7223    1.0000 </r>
       <r>    0.8068    1.0000 </r>
       <r>    0.8108    1.0000 </r>
       <r>    0.8403    1.0000 </r>
       <r>    0.8551    1.0000 </r>
       <r>    0.8562    1.0000 </r>
       <r>    0.8800    1.0000 </r>
       <r>    0.8841    1.0000 </r>
       <r>    0.8855    1.0000 </r>
       <r>    0.9160    1.0000 </r>
       <r>    0.9912    1.0000 </r>
       <r>    0.9918    1.0000 </r>
       <r>    0.9936    1.0000 </r>
       <r>    1.0028    1.0000 </r>
       <r>    1.0202    1.0000 </r>
       <r>    1.0325    1.0000 </r>
       <r>    1.0824    1.0000 </r>
       <r>    1.0978    1.0000 </r>
       <r>    1.2067    1.0000 </r>
       <r>    1.2072    1.0000 </r>
       <r>    1.2161    1.0000 </r>
       <r>    1.2331    1.0000 </r>
       <r>    1.2452    1.0000 </r>
       <r>    1.2457    1.0000 </r>
       <r>    1.2542    1.0000 </r>
       <r>    1.2598    1.0000 </r>
       <r>    1.3131    1.0000 </r>
       <r>    1.3158    1.0000 </r>
       <r>    1.3663    1.0000 </r>
       <r>    1.3680    1.0000 </r>
       <r>    1.4008    1.0000 </r>
       <r>    1.4046    1.0000 </r>
       <r>    1.4406    1.0000 </r>
       <r>    1.4413    1.0000 </r>
       <r>    1.4953    1.0000 </r>
       <r>    1.5004    1.0000 </r>
       <r>    1.5370    1.0000 </r>
       <r>    1.5784    1.0000 </r>
       <r>    1.5888    1.0000 </r>
       <r>    1.5907    1.0000 </r>
       <r>    1.7632    1.0000 </r>
       <r>    1.7689    1.0000 </r>
       <r>    1.8460    1.0000 </r>
       <r>    1.8559    1.0000 </r>
       <r>    1.8598    1.0000 </r>
       <r>    1.8605    1.0000 </r>
       <r>    1.9187    1.0000 </r>
       <r>    1.9245    1.0000 </r>
       <r>    1.9540    1.0000 </r>
       <r>    1.9598    1.0000 </r>
       <r>    1.9785    1.0000 </r>
       <r>    1.9790    1.0000 </r>
       <r>    2.0240    1.0000 </r>
       <r>    2.0255    1.0000 </r>
       <r>    2.0626    1.0000 </r>
       <r>    2.0683    1.0000 </r>
       <r>    2.0968    1.0000 </r>
       <r>    2.0972    1.0000 </r>
       <r>    2.2231    1.0000 </r>
       <r>    2.2308    1.0000 </r>
       <r>    2.3988    1.0000 </r>
       <r>    2.4001    1.0000 </r>
       <r>    2.4037    1.0000 </r>
       <r>    2.4058    1.0000 </r>
       <r>    4.6619    1.0000 </r>
       <r>    5.8855    0.0000 </r>
       <r>    6.6168    0.0000 </r>
       <r>    6.6369    0.0000 </r>
       <r>    6.6376    0.0000 </r>
       <r>    6.8800    0.0000 </r>
       <r>    6.9278    0.0000 </r>
       <r>    6.9905    0.0000 </r>
       <r>    7.0026    0.0000 </r>
       <r>    7.0797    0.0000 </r>
       <r>    7.0882    0.0000 </r>
       <r>    7.1515    0.0000 </r>
       <r>    7.2118    0.0000 </r>
       <r>    7.2121    0.0000 </r>
       <r>    7.2285    0.0000 </r>
       <r>    7.2434    0.0000 </r>
       <r>    7.2816    0.0000 </r>
       <r>    7.2966    0.0000 </r>
       <r>    7.3056    0.0000 </r>
       <r>    7.3279    0.0000 </r>
       <r>    7.3334    0.0000 </r>
       <r>    7.3374    0.0000 </r>
       <r>    7.3427    0.0000 </r>
       <r>    7.3432    0.0000 </r>
       <r>    7.3609    0.0000 </r>
       <r>    7.3617    0.0000 </r>
       <r>    7.3837    0.0000 </r>
       <r>    7.3841    0.0000 </r>
       <r>    7.3915    0.0000 </r>
       <r>    7.3957    0.0000 </r>
       <r>    7.4296    0.0000 </r>
       <r>    7.4313    0.0000 </r>
       <r>    7.4586    0.0000 </r>
       <r>    7.6870    0.0000 </r>
       <r>    7.7389    0.0000 </r>
       <r>    7.7419    0.0000 </r>
       <r>    7.7458    0.0000 </r>
       <r>    7.7917    0.0000 </r>
       <r>    7.8219    0.0000 </r>
       <r>    7.8452    0.0000 </r>
       <r>    7.8749    0.0000 </r>
       <r>    7.8888    0.0000 </r>
       <r>    7.9060    0.0000 </r>
       <r>    7.9138    0.0000 </r>
       <r>    7.9190    0.0000 </r>
       <r>    7.9423    0.0000 </r>
       <r>    7.9659    0.0000 </r>
       <r>    8.0632    0.0000 </r>
       <r>    8.1120    0.0000 </r>
       <r>    8.1667    0.0000 </r>
       <r>    8.1703    0.0000 </r>
       <r>    8.1708    0.0000 </r>
       <r>    8.1854    0.0000 </r>
       <r>    8.2088    0.0000 </r>
       <r>    8.2215    0.0000 </r>
       <r>    8.2228    0.0000 </r>
       <r>    8.2325    0.0000 </r>
       <r>    8.2413    0.0000 </r>
       <r>    8.2554    0.0000 </r>
       <r>    8.2829    0.0000 </r>
       <r>    8.3930    0.0000 </r>
       <r>    8.5605    0.0000 </r>
       <r>    8.5806    0.0000 </r>
       <r>    8.5918    0.0000 </r>
       <r>    8.6331    0.0000 </r>
       <r>    8.6343    0.0000 </r>
       <r>    8.6447    0.0000 </r>
       <r>    8.6610    0.0000 </r>
       <r>    8.6694    0.0000 </r>
       <r>    8.6794    0.0000 </r>
       <r>    8.6878    0.0000 </r>
       <r>    8.6879    0.0000 </r>
       <r>    8.7308    0.0000 </r>
       <r>    8.8819    0.0000 </r>
       <r>    8.9517    0.0000 </r>
       <r>    8.9905    0.0000 </r>
       <r>    8.9979    0.0000 </r>
       <r>    9.0090    0.0000 </r>
       <r>    9.0563    0.0000 </r>
       <r>    9.1244    0.0000 </r>
       <r>    9.2093    0.0000 </r>
       <r>    9.2408    0.0000 </r>
       <r>    9.2645    0.0000 </r>
       <r>    9.2672    0.0000 </r>
       <r>    9.2678    0.0000 </r>
       <r>    9.2802    0.0000 </r>
       <r>    9.2952    0.0000 </r>
       <r>    9.2987    0.0000 </r>
       <r>    9.3035    0.0000 </r>
       <r>    9.3194    0.0000 </r>
       <r>    9.3251    0.0000 </r>
       <r>    9.3274    0.0000 </r>
       <r>    9.3289    0.0000 </r>
       <r>    9.3556    0.0000 </r>
       <r>    9.3984    0.0000 </r>
       <r>    9.4731    0.0000 </r>
       <r>    9.6114    0.0000 </r>
       <r>    9.6279    0.0000 </r>
       <r>    9.6809    0.0000 </r>
       <r>    9.6889    0.0000 </r>
       <r>    9.6909    0.0000 </r>
       <r>    9.7183    0.0000 </r>
       <r>    9.8761    0.0000 </r>
       <r>   10.0649    0.0000 </r>
       <r>   10.0903    0.0000 </r>
       <r>   10.0916    0.0000 </r>
       <r>   10.1015    0.0000 </r>
       <r>   10.1418    0.0000 </r>
       <r>   10.1712    0.0000 </r>
       <r>   10.1747    0.0000 </r>
       <r>   10.1895    0.0000 </r>
       <r>   10.1977    0.0000 </r>
       <r>   10.2271    0.0000 </r>
       <r>   10.2355    0.0000 </r>
       <r>   10.2823    0.0000 </r>
       <r>   10.3014    0.0000 </r>
       <r>   10.3037    0.0000 </r>
       <r>   10.3759    0.0000 </r>
       <r>   10.3801    0.0000 </r>
       <r>   10.3897    0.0000 </r>
       <r>   10.3937    0.0000 </r>
       <r>   10.4115    0.0000 </r>
       <r>   10.4363    0.0000 </r>
       <r>   10.4419    0.0000 </r>
       <r>   10.4656    0.0000 </r>
       <r>   10.5085    0.0000 </r>
       <r>   10.5274    0.0000 </r>
       <r>   10.6255    0.0000 </r>
       <r>   10.6686    0.0000 </r>
       <r>   10.7193    0.0000 </r>
       <r>   10.7208    0.0000 </r>
       <r>   10.7228    0.0000 </r>
       <r>   10.7299    0.0000 </r>
       <r>   10.7516    0.0000 </r>
       <r>   10.7573    0.0000 </r>
       <r>   10.7633    0.0000 </r>
       <r>   10.7824    0.0000 </r>
       <r>   10.7877    0.0000 </r>
       <r>   10.7922    0.0000 </r>
       <r>   10.8140    0.0000 </r>
       <r>   10.8151    0.0000 </r>
       <r>   11.2346    0.0000 </r>
       <r>   11.2595    0.0000 </r>
       <r>   11.5018    0.0000 </r>
       <r>   11.5832    0.0000 </r>
       <r>   11.6199    0.0000 </r>
       <r>   11.6654    0.0000 </r>
       <r>   11.7244    0.0000 </r>
       <r>   11.7420    0.0000 </r>
       <r>   11.7756    0.0000 </r>
       <r>   11.7984    0.0000 </r>
       <r>   11.8467    0.0000 </r>
      </set>
      <set comment="kpoint 3">
       <r>  -17.2936    1.0000 </r>
       <r>  -15.7755    1.0000 </r>
       <r>  -15.7302    1.0000 </r>
       <r>  -15.4203    1.0000 </r>
       <r>  -15.3139    1.0000 </r>
       <r>  -15.2494    1.0000 </r>
       <r>  -15.2285    1.0000 </r>
       <r>  -15.1966    1.0000 </r>
       <r>  -15.1884    1.0000 </r>
       <r>  -15.1019    1.0000 </r>
       <r>  -15.0675    1.0000 </r>
       <r>  -15.0259    1.0000 </r>
       <r>  -15.0076    1.0000 </r>
       <r>  -14.9557    1.0000 </r>
       <r>  -14.9468    1.0000 </r>
       <r>  -14.9376    1.0000 </r>
       <r>  -14.9358    1.0000 </r>
       <r>  -14.8566    1.0000 </r>
       <r>  -14.7536    1.0000 </r>
       <r>  -14.7521    1.0000 </r>
       <r>  -14.6207    1.0000 </r>
       <r>  -14.5701    1.0000 </r>
       <r>  -14.5556    1.0000 </r>
       <r>  -14.4588    1.0000 </r>
       <r>  -14.4455    1.0000 </r>
       <r>  -14.4430    1.0000 </r>
       <r>  -14.4293    1.0000 </r>
       <r>  -14.4248    1.0000 </r>
       <r>  -14.4202    1.0000 </r>
       <r>  -14.4160    1.0000 </r>
       <r>  -14.4146    1.0000 </r>
       <r>  -14.3552    1.0000 </r>
       <r>  -14.2468    1.0000 </r>
       <r>  -14.2421    1.0000 </r>
       <r>  -14.2395    1.0000 </r>
       <r>  -14.2392    1.0000 </r>
       <r>  -14.2015    1.0000 </r>
       <r>  -14.1918    1.0000 </r>
       <r>  -14.1676    1.0000 </r>
       <r>  -14.1664    1.0000 </r>
       <r>  -14.1219    1.0000 </r>
       <r>  -14.0360    1.0000 </r>
       <r>  -13.9969    1.0000 </r>
       <r>  -13.9946    1.0000 </r>
       <r>  -13.9468    1.0000 </r>
       <r>  -13.7939    1.0000 </r>
       <r>  -13.7360    1.0000 </r>
       <r>  -13.7122    1.0000 </r>
       <r>  -13.7091    1.0000 </r>
       <r>  -13.7067    1.0000 </r>
       <r>  -13.6970    1.0000 </r>
       <r>  -13.6945    1.0000 </r>
       <r>  -13.6741    1.0000 </r>
       <r>  -13.6737    1.0000 </r>
       <r>  -13.6080    1.0000 </r>
       <r>  -13.5309    1.0000 </r>
       <r>  -13.5305    1.0000 </r>
       <r>  -13.5157    1.0000 </r>
       <r>  -13.5154    1.0000 </r>
       <r>  -13.5055    1.0000 </r>
       <r>  -13.3602    1.0000 </r>
       <r>  -13.3377    1.0000 </r>
       <r>  -13.2556    1.0000 </r>
       <r>  -13.2235    1.0000 </r>
       <r>  -13.1146    1.0000 </r>
       <r>  -13.0598    1.0000 </r>
       <r>  -13.0534    1.0000 </r>
       <r>  -13.0510    1.0000 </r>
       <r>  -13.0431    1.0000 </r>
       <r>  -13.0400    1.0000 </r>
       <r>  -13.0375    1.0000 </r>
       <r>  -13.0347    1.0000 </r>
       <r>  -13.0332    1.0000 </r>
       <r>  -12.9771    1.0000 </r>
       <r>  -12.9315    1.0000 </r>
       <r>  -12.8888    1.0000 </r>
       <r>  -12.8841    1.0000 </r>
       <r>  -12.8818    1.0000 </r>
       <r>  -12.8801    1.0000 </r>
       <r>  -12.8768    1.0000 </r>
       <r>  -12.8736    1.0000 </r>
       <r>  -12.8734    1.0000 </r>
       <r>  -12.8712    1.0000 </r>
       <r>  -12.8693    1.0000 </r>
       <r>  -12.8672    1.0000 </r>
       <r>  -12.8634    1.0000 </r>
       <r>  -12.8629    1.0000 </r>
       <r>  -12.8610    1.0000 </r>
       <r>  -12.7161    1.0000 </r>
       <r>  -12.7141    1.0000 </r>
       <r>  -12.7138    1.0000 </r>
       <r>  -12.7135    1.0000 </r>
       <r>  -12.6824    1.0000 </r>
       <r>  -12.6099    1.0000 </r>
       <r>  -12.5916    1.0000 </r>
       <r>  -12.5841    1.0000 </r>
       <r>  -12.5693    1.0000 </r>
       <r>  -12.5549    1.0000 </r>
       <r>  -12.5335    1.0000 </r>
       <r>  -12.4987    1.0000 </r>
       <r>  -12.4379    1.0000 </r>
       <r>  -12.4316    1.0000 </r>
       <r>  -12.4244    1.0000 </r>
       <r>  -12.4200    1.0000 </r>
       <r>  -12.3360    1.0000 </r>
       <r>  -12.3323    1.0000 </r>
       <r>  -12.3282    1.0000 </r>
       <r>  -12.3234    1.0000 </r>
       <r>  -12.2439    1.0000 </r>
       <r>  -12.2419    1.0000 </r>
       <r>  -12.2392    1.0000 </r>
       <r>  -12.2363    1.0000 </r>
       <r>  -12.2169    1.0000 </r>
       <r>  -12.2155    1.0000 </r>
       <r>  -12.2102    1.0000 </r>
       <r>  -12.2081    1.0000 </r>
       <r>  -12.1775    1.0000 </r>
       <r>  -12.1764    1.0000 </r>
       <r>  -12.1728    1.0000 </r>
       <r>  -12.1664    1.0000 </r>
       <r>  -12.0958    1.0000 </r>
       <r>  -12.0956    1.0000 </r>
       <r>  -12.0903    1.0000 </r>
       <r>  -12.0872    1.0000 </r>
       <r>  -12.0867    1.0000 </r>
       <r>  -12.0833    1.0000 </r>
       <r>  -11.9503    1.0000 </r>
       <r>  -11.9479    1.0000 </r>
       <r>  -11.9468    1.0000 </r>
       <r>  -11.9445    1.0000 </r>
       <r>  -11.8159    1.0000 </r>
       <r>  -11.8151    1.0000 </r>
       <r>  -11.8070    1.0000 </r>
       <r>  -11.8061    1.0000 </r>
       <r>  -11.8060    1.0000 </r>
       <r>  -11.8049    1.0000 </r>
       <r>  -11.7842    1.0000 </r>
       <r>  -11.7839    1.0000 </r>
       <r>  -11.7805    1.0000 </r>
       <r>  -11.7802    1.0000 </r>
       <r>  -11.6684    1.0000 </r>
       <r>  -11.6684    1.0000 </r>
       <r>  -11.6613    1.0000 </r>
       <r>  -11.6613    1.0000 </r>
       <r>   -8.3631    1.0000 </r>
       <r>   -7.2840    1.0000 </r>
       <r>   -7.2707    1.0000 </r>
       <r>   -6.7936    1.0000 </r>
       <r>   -6.7046    1.0000 </r>
       <r>   -6.6829    1.0000 </r>
       <r>   -6.4385    1.0000 </r>
       <r>   -6.4058    1.0000 </r>
       <r>   -6.3220    1.0000 </r>
       <r>   -6.3076    1.0000 </r>
       <r>   -6.3054    1.0000 </r>
       <r>   -6.3047    1.0000 </r>
       <r>   -6.3005    1.0000 </r>
       <r>   -6.2874    1.0000 </r>
       <r>   -6.2734    1.0000 </r>
       <r>   -6.2725    1.0000 </r>
       <r>   -6.2711    1.0000 </r>
       <r>   -6.2707    1.0000 </r>
       <r>   -6.2162    1.0000 </r>
       <r>   -6.2142    1.0000 </r>
       <r>   -6.2131    1.0000 </r>
       <r>   -6.2044    1.0000 </r>
       <r>   -6.1983    1.0000 </r>
       <r>   -6.1959    1.0000 </r>
       <r>   -6.1587    1.0000 </r>
       <r>   -6.1585    1.0000 </r>
       <r>   -6.1490    1.0000 </r>
       <r>   -6.1489    1.0000 </r>
       <r>   -6.0724    1.0000 </r>
       <r>   -6.0710    1.0000 </r>
       <r>   -5.9328    1.0000 </r>
       <r>   -5.9307    1.0000 </r>
       <r>   -5.9077    1.0000 </r>
       <r>   -5.9068    1.0000 </r>
       <r>   -5.8440    1.0000 </r>
       <r>   -5.7893    1.0000 </r>
       <r>   -5.7819    1.0000 </r>
       <r>   -5.7741    1.0000 </r>
       <r>   -5.7677    1.0000 </r>
       <r>   -5.7647    1.0000 </r>
       <r>   -5.7635    1.0000 </r>
       <r>   -5.7632    1.0000 </r>
       <r>   -5.7625    1.0000 </r>
       <r>   -5.7571    1.0000 </r>
       <r>   -5.7524    1.0000 </r>
       <r>   -5.7519    1.0000 </r>
       <r>   -5.7433    1.0000 </r>
       <r>   -5.6846    1.0000 </r>
       <r>   -5.6546    1.0000 </r>
       <r>   -5.6420    1.0000 </r>
       <r>   -5.6229    1.0000 </r>
       <r>   -5.6228    1.0000 </r>
       <r>   -5.6196    1.0000 </r>
       <r>   -5.6196    1.0000 </r>
       <r>   -5.2274    1.0000 </r>
       <r>   -5.2257    1.0000 </r>
       <r>   -5.2242    1.0000 </r>
       <r>   -5.2230    1.0000 </r>
       <r>   -5.2218    1.0000 </r>
       <r>   -5.2213    1.0000 </r>
       <r>   -5.2210    1.0000 </r>
       <r>   -5.2204    1.0000 </r>
       <r>   -5.2193    1.0000 </r>
       <r>   -5.2187    1.0000 </r>
       <r>   -5.2178    1.0000 </r>
       <r>   -5.2176    1.0000 </r>
       <r>   -5.1151    1.0000 </r>
       <r>   -5.1104    1.0000 </r>
       <r>   -5.0907    1.0000 </r>
       <r>   -5.0906    1.0000 </r>
       <r>   -5.0878    1.0000 </r>
       <r>   -5.0877    1.0000 </r>
       <r>   -5.0874    1.0000 </r>
       <r>   -5.0871    1.0000 </r>
       <r>   -5.0260    1.0000 </r>
       <r>   -4.9210    1.0000 </r>
       <r>   -4.8318    1.0000 </r>
       <r>   -4.6116    1.0000 </r>
       <r>   -4.5543    1.0000 </r>
       <r>   -4.5412    1.0000 </r>
       <r>   -4.4758    1.0000 </r>
       <r>   -4.4734    1.0000 </r>
       <r>   -4.4719    1.0000 </r>
       <r>   -4.4712    1.0000 </r>
       <r>   -4.4708    1.0000 </r>
       <r>   -4.4694    1.0000 </r>
       <r>   -4.4679    1.0000 </r>
       <r>   -4.4676    1.0000 </r>
       <r>   -4.3413    1.0000 </r>
       <r>   -4.3411    1.0000 </r>
       <r>   -4.3408    1.0000 </r>
       <r>   -4.3407    1.0000 </r>
       <r>   -4.3174    1.0000 </r>
       <r>   -4.3164    1.0000 </r>
       <r>   -4.2018    1.0000 </r>
       <r>   -4.0978    1.0000 </r>
       <r>   -4.0875    1.0000 </r>
       <r>   -4.0873    1.0000 </r>
       <r>   -4.0848    1.0000 </r>
       <r>   -4.0840    1.0000 </r>
       <r>   -4.0742    1.0000 </r>
       <r>   -4.0740    1.0000 </r>
       <r>   -4.0720    1.0000 </r>
       <r>   -4.0709    1.0000 </r>
       <r>   -4.0287    1.0000 </r>
       <r>   -3.9501    1.0000 </r>
       <r>   -3.9500    1.0000 </r>
       <r>   -3.9466    1.0000 </r>
       <r>   -3.9465    1.0000 </r>
       <r>   -3.9093    1.0000 </r>
       <r>   -3.8654    1.0000 </r>
       <r>   -3.7856    1.0000 </r>
       <r>   -3.7511    1.0000 </r>
       <r>   -3.6234    1.0000 </r>
       <r>   -3.6214    1.0000 </r>
       <r>   -3.6154    1.0000 </r>
       <r>   -3.6139    1.0000 </r>
       <r>   -3.6037    1.0000 </r>
       <r>   -3.6031    1.0000 </r>
       <r>   -3.5985    1.0000 </r>
       <r>   -3.5980    1.0000 </r>
       <r>   -3.5155    1.0000 </r>
       <r>   -3.4797    1.0000 </r>
       <r>   -3.4794    1.0000 </r>
       <r>   -3.4780    1.0000 </r>
       <r>   -3.4740    1.0000 </r>
       <r>   -3.4739    1.0000 </r>
       <r>   -3.4689    1.0000 </r>
       <r>   -3.4683    1.0000 </r>
       <r>   -3.4654    1.0000 </r>
       <r>   -3.4646    1.0000 </r>
       <r>   -3.4504    1.0000 </r>
       <r>   -3.3495    1.0000 </r>
       <r>   -3.3383    1.0000 </r>
       <r>   -3.3382    1.0000 </r>
       <r>   -3.1560    1.0000 </r>
       <r>   -3.1309    1.0000 </r>
       <r>   -3.0973    1.0000 </r>
       <r>   -3.0762    1.0000 </r>
       <r>   -3.0741    1.0000 </r>
       <r>   -3.0700    1.0000 </r>
       <r>   -3.0690    1.0000 </r>
       <r>   -2.9930    1.0000 </r>
       <r>   -2.9383    1.0000 </r>
       <r>   -2.9376    1.0000 </r>
       <r>   -2.9325    1.0000 </r>
       <r>   -2.8558    1.0000 </r>
       <r>   -2.8103    1.0000 </r>
       <r>   -2.7787    1.0000 </r>
       <r>   -2.7706    1.0000 </r>
       <r>   -2.7698    1.0000 </r>
       <r>   -2.7565    1.0000 </r>
       <r>   -2.7537    1.0000 </r>
       <r>   -2.7361    1.0000 </r>
       <r>   -2.7262    1.0000 </r>
       <r>   -2.6832    1.0000 </r>
       <r>   -2.6794    1.0000 </r>
       <r>   -2.6688    1.0000 </r>
       <r>   -2.6674    1.0000 </r>
       <r>   -2.6674    1.0000 </r>
       <r>   -2.5441    1.0000 </r>
       <r>   -2.5438    1.0000 </r>
       <r>   -2.5239    1.0000 </r>
       <r>   -2.5219    1.0000 </r>
       <r>   -2.5123    1.0000 </r>
       <r>   -2.4608    1.0000 </r>
       <r>   -2.4251    1.0000 </r>
       <r>   -2.4158    1.0000 </r>
       <r>   -2.3856    1.0000 </r>
       <r>   -2.3763    1.0000 </r>
       <r>   -2.3745    1.0000 </r>
       <r>   -2.3743    1.0000 </r>
       <r>   -2.3735    1.0000 </r>
       <r>   -2.3722    1.0000 </r>
       <r>   -2.3708    1.0000 </r>
       <r>   -2.3697    1.0000 </r>
       <r>   -2.3688    1.0000 </r>
       <r>   -2.3623    1.0000 </r>
       <r>   -2.3584    1.0000 </r>
       <r>   -2.3525    1.0000 </r>
       <r>   -2.3289    1.0000 </r>
       <r>   -2.2676    1.0000 </r>
       <r>   -2.2409    1.0000 </r>
       <r>   -2.2405    1.0000 </r>
       <r>   -2.2403    1.0000 </r>
       <r>   -2.2400    1.0000 </r>
       <r>   -2.2118    1.0000 </r>
       <r>   -2.1748    1.0000 </r>
       <r>   -2.1454    1.0000 </r>
       <r>   -2.1293    1.0000 </r>
       <r>   -2.0892    1.0000 </r>
       <r>   -2.0887    1.0000 </r>
       <r>   -2.0883    1.0000 </r>
       <r>   -2.0877    1.0000 </r>
       <r>   -2.0552    1.0000 </r>
       <r>   -2.0549    1.0000 </r>
       <r>   -2.0541    1.0000 </r>
       <r>   -2.0536    1.0000 </r>
       <r>   -2.0417    1.0000 </r>
       <r>   -2.0315    1.0000 </r>
       <r>   -2.0105    1.0000 </r>
       <r>   -2.0096    1.0000 </r>
       <r>   -1.9827    1.0000 </r>
       <r>   -1.9430    1.0000 </r>
       <r>   -1.9429    1.0000 </r>
       <r>   -1.9330    1.0000 </r>
       <r>   -1.9330    1.0000 </r>
       <r>   -1.8965    1.0000 </r>
       <r>   -1.8696    1.0000 </r>
       <r>   -1.8678    1.0000 </r>
       <r>   -1.8669    1.0000 </r>
       <r>   -1.8656    1.0000 </r>
       <r>   -1.8575    1.0000 </r>
       <r>   -1.8553    1.0000 </r>
       <r>   -1.8233    1.0000 </r>
       <r>   -1.8205    1.0000 </r>
       <r>   -1.8169    1.0000 </r>
       <r>   -1.8147    1.0000 </r>
       <r>   -1.7856    1.0000 </r>
       <r>   -1.7774    1.0000 </r>
       <r>   -1.7771    1.0000 </r>
       <r>   -1.7760    1.0000 </r>
       <r>   -1.7759    1.0000 </r>
       <r>   -1.7754    1.0000 </r>
       <r>   -1.7754    1.0000 </r>
       <r>   -1.7743    1.0000 </r>
       <r>   -1.7739    1.0000 </r>
       <r>   -1.7167    1.0000 </r>
       <r>   -1.7085    1.0000 </r>
       <r>   -1.7082    1.0000 </r>
       <r>   -1.6962    1.0000 </r>
       <r>   -1.6603    1.0000 </r>
       <r>   -1.6507    1.0000 </r>
       <r>   -1.6452    1.0000 </r>
       <r>   -1.6451    1.0000 </r>
       <r>   -1.6449    1.0000 </r>
       <r>   -1.6448    1.0000 </r>
       <r>   -1.6350    1.0000 </r>
       <r>   -1.6160    1.0000 </r>
       <r>   -1.6130    1.0000 </r>
       <r>   -1.6056    1.0000 </r>
       <r>   -1.6038    1.0000 </r>
       <r>   -1.5830    1.0000 </r>
       <r>   -1.5807    1.0000 </r>
       <r>   -1.5805    1.0000 </r>
       <r>   -1.5679    1.0000 </r>
       <r>   -1.5652    1.0000 </r>
       <r>   -1.5583    1.0000 </r>
       <r>   -1.5538    1.0000 </r>
       <r>   -1.5512    1.0000 </r>
       <r>   -1.4912    1.0000 </r>
       <r>   -1.4558    1.0000 </r>
       <r>   -1.4410    1.0000 </r>
       <r>   -1.4316    1.0000 </r>
       <r>   -1.3508    1.0000 </r>
       <r>   -1.3478    1.0000 </r>
       <r>   -1.3393    1.0000 </r>
       <r>   -1.3379    1.0000 </r>
       <r>   -1.2296    1.0000 </r>
       <r>   -1.2294    1.0000 </r>
       <r>   -1.2260    1.0000 </r>
       <r>   -1.2259    1.0000 </r>
       <r>   -1.2120    1.0000 </r>
       <r>   -1.2118    1.0000 </r>
       <r>   -1.2100    1.0000 </r>
       <r>   -1.2082    1.0000 </r>
       <r>   -1.1910    1.0000 </r>
       <r>   -1.0914    1.0000 </r>
       <r>   -1.0913    1.0000 </r>
       <r>   -1.0861    1.0000 </r>
       <r>   -1.0860    1.0000 </r>
       <r>   -1.0521    1.0000 </r>
       <r>   -1.0269    1.0000 </r>
       <r>   -1.0139    1.0000 </r>
       <r>   -0.9785    1.0000 </r>
       <r>   -0.9332    1.0000 </r>
       <r>   -0.8689    1.0000 </r>
       <r>   -0.8463    1.0000 </r>
       <r>   -0.7811    1.0000 </r>
       <r>   -0.7784    1.0000 </r>
       <r>   -0.7577    1.0000 </r>
       <r>   -0.7243    1.0000 </r>
       <r>   -0.7172    1.0000 </r>
       <r>   -0.7136    1.0000 </r>
       <r>   -0.7118    1.0000 </r>
       <r>   -0.7101    1.0000 </r>
       <r>   -0.6785    1.0000 </r>
       <r>   -0.6765    1.0000 </r>
       <r>   -0.6750    1.0000 </r>
       <r>   -0.6743    1.0000 </r>
       <r>   -0.6630    1.0000 </r>
       <r>   -0.6572    1.0000 </r>
       <r>   -0.6559    1.0000 </r>
       <r>   -0.6261    1.0000 </r>
       <r>   -0.5179    1.0000 </r>
       <r>   -0.5168    1.0000 </r>
       <r>   -0.5159    1.0000 </r>
       <r>   -0.5148    1.0000 </r>
       <r>   -0.4621    1.0000 </r>
       <r>   -0.4585    1.0000 </r>
       <r>   -0.4577    1.0000 </r>
       <r>   -0.4572    1.0000 </r>
       <r>   -0.4543    1.0000 </r>
       <r>   -0.4537    1.0000 </r>
       <r>   -0.4530    1.0000 </r>
       <r>   -0.4498    1.0000 </r>
       <r>   -0.4400    1.0000 </r>
       <r>   -0.4129    1.0000 </r>
       <r>   -0.3840    1.0000 </r>
       <r>   -0.3835    1.0000 </r>
       <r>   -0.3834    1.0000 </r>
       <r>   -0.3709    1.0000 </r>
       <r>   -0.3571    1.0000 </r>
       <r>   -0.3551    1.0000 </r>
       <r>   -0.3538    1.0000 </r>
       <r>   -0.3466    1.0000 </r>
       <r>   -0.3430    1.0000 </r>
       <r>   -0.3426    1.0000 </r>
       <r>   -0.3269    1.0000 </r>
       <r>   -0.3263    1.0000 </r>
       <r>   -0.3262    1.0000 </r>
       <r>   -0.3258    1.0000 </r>
       <r>   -0.2801    1.0000 </r>
       <r>   -0.2256    1.0000 </r>
       <r>   -0.2250    1.0000 </r>
       <r>   -0.1258    1.0000 </r>
       <r>   -0.0465    1.0000 </r>
       <r>    0.0034    1.0000 </r>
       <r>    0.0425    1.0000 </r>
       <r>    0.1174    1.0000 </r>
       <r>    0.1521    1.0000 </r>
       <r>    0.1550    1.0000 </r>
       <r>    0.1672    1.0000 </r>
       <r>    0.1864    1.0000 </r>
       <r>    0.1998    1.0000 </r>
       <r>    0.2121    1.0000 </r>
       <r>    0.2127    1.0000 </r>
       <r>    0.2182    1.0000 </r>
       <r>    0.2203    1.0000 </r>
       <r>    0.2382    1.0000 </r>
       <r>    0.2415    1.0000 </r>
       <r>    0.2863    1.0000 </r>
       <r>    0.3095    1.0000 </r>
       <r>    0.3156    1.0000 </r>
       <r>    0.3434    1.0000 </r>
       <r>    0.3448    1.0000 </r>
       <r>    0.3490    1.0000 </r>
       <r>    0.3504    1.0000 </r>
       <r>    0.3653    1.0000 </r>
       <r>    0.3761    1.0000 </r>
       <r>    0.3947    1.0000 </r>
       <r>    0.4527    1.0000 </r>
       <r>    0.4579    1.0000 </r>
       <r>    0.4598    1.0000 </r>
       <r>    0.4627    1.0000 </r>
       <r>    0.4644    1.0000 </r>
       <r>    0.4650    1.0000 </r>
       <r>    0.4765    1.0000 </r>
       <r>    0.4773    1.0000 </r>
       <r>    0.5553    1.0000 </r>
       <r>    0.5597    1.0000 </r>
       <r>    0.5657    1.0000 </r>
       <r>    0.5853    1.0000 </r>
       <r>    0.5898    1.0000 </r>
       <r>    0.6846    1.0000 </r>
       <r>    0.6937    1.0000 </r>
       <r>    0.7009    1.0000 </r>
       <r>    0.7029    1.0000 </r>
       <r>    0.7236    1.0000 </r>
       <r>    0.8069    1.0000 </r>
       <r>    0.8091    1.0000 </r>
       <r>    0.8391    1.0000 </r>
       <r>    0.8553    1.0000 </r>
       <r>    0.8564    1.0000 </r>
       <r>    0.8802    1.0000 </r>
       <r>    0.8839    1.0000 </r>
       <r>    0.8853    1.0000 </r>
       <r>    0.9158    1.0000 </r>
       <r>    0.9915    1.0000 </r>
       <r>    0.9918    1.0000 </r>
       <r>    0.9937    1.0000 </r>
       <r>    1.0027    1.0000 </r>
       <r>    1.0203    1.0000 </r>
       <r>    1.0325    1.0000 </r>
       <r>    1.0822    1.0000 </r>
       <r>    1.0978    1.0000 </r>
       <r>    1.2066    1.0000 </r>
       <r>    1.2072    1.0000 </r>
       <r>    1.2151    1.0000 </r>
       <r>    1.2331    1.0000 </r>
       <r>    1.2450    1.0000 </r>
       <r>    1.2458    1.0000 </r>
       <r>    1.2543    1.0000 </r>
       <r>    1.2593    1.0000 </r>
       <r>    1.3150    1.0000 </r>
       <r>    1.3160    1.0000 </r>
       <r>    1.3651    1.0000 </r>
       <r>    1.3668    1.0000 </r>
       <r>    1.4008    1.0000 </r>
       <r>    1.4049    1.0000 </r>
       <r>    1.4404    1.0000 </r>
       <r>    1.4408    1.0000 </r>
       <r>    1.4980    1.0000 </r>
       <r>    1.5012    1.0000 </r>
       <r>    1.5372    1.0000 </r>
       <r>    1.5772    1.0000 </r>
       <r>    1.5885    1.0000 </r>
       <r>    1.5897    1.0000 </r>
       <r>    1.7634    1.0000 </r>
       <r>    1.7688    1.0000 </r>
       <r>    1.8460    1.0000 </r>
       <r>    1.8559    1.0000 </r>
       <r>    1.8601    1.0000 </r>
       <r>    1.8608    1.0000 </r>
       <r>    1.9186    1.0000 </r>
       <r>    1.9248    1.0000 </r>
       <r>    1.9536    1.0000 </r>
       <r>    1.9590    1.0000 </r>
       <r>    1.9794    1.0000 </r>
       <r>    1.9800    1.0000 </r>
       <r>    2.0232    1.0000 </r>
       <r>    2.0250    1.0000 </r>
       <r>    2.0629    1.0000 </r>
       <r>    2.0687    1.0000 </r>
       <r>    2.0965    1.0000 </r>
       <r>    2.0970    1.0000 </r>
       <r>    2.2231    1.0000 </r>
       <r>    2.2307    1.0000 </r>
       <r>    2.3990    1.0000 </r>
       <r>    2.4000    1.0000 </r>
       <r>    2.4036    1.0000 </r>
       <r>    2.4058    1.0000 </r>
       <r>    4.6619    1.0000 </r>
       <r>    5.8855    0.0000 </r>
       <r>    6.6169    0.0000 </r>
       <r>    6.6373    0.0000 </r>
       <r>    6.6381    0.0000 </r>
       <r>    6.8795    0.0000 </r>
       <r>    6.9262    0.0000 </r>
       <r>    6.9919    0.0000 </r>
       <r>    7.0033    0.0000 </r>
       <r>    7.0782    0.0000 </r>
       <r>    7.0879    0.0000 </r>
       <r>    7.1516    0.0000 </r>
       <r>    7.2117    0.0000 </r>
       <r>    7.2122    0.0000 </r>
       <r>    7.2284    0.0000 </r>
       <r>    7.2435    0.0000 </r>
       <r>    7.2820    0.0000 </r>
       <r>    7.2968    0.0000 </r>
       <r>    7.3059    0.0000 </r>
       <r>    7.3277    0.0000 </r>
       <r>    7.3331    0.0000 </r>
       <r>    7.3386    0.0000 </r>
       <r>    7.3430    0.0000 </r>
       <r>    7.3437    0.0000 </r>
       <r>    7.3611    0.0000 </r>
       <r>    7.3621    0.0000 </r>
       <r>    7.3839    0.0000 </r>
       <r>    7.3841    0.0000 </r>
       <r>    7.3918    0.0000 </r>
       <r>    7.3944    0.0000 </r>
       <r>    7.4294    0.0000 </r>
       <r>    7.4310    0.0000 </r>
       <r>    7.4583    0.0000 </r>
       <r>    7.6863    0.0000 </r>
       <r>    7.7387    0.0000 </r>
       <r>    7.7419    0.0000 </r>
       <r>    7.7458    0.0000 </r>
       <r>    7.7916    0.0000 </r>
       <r>    7.8208    0.0000 </r>
       <r>    7.8449    0.0000 </r>
       <r>    7.8744    0.0000 </r>
       <r>    7.8889    0.0000 </r>
       <r>    7.9072    0.0000 </r>
       <r>    7.9137    0.0000 </r>
       <r>    7.9193    0.0000 </r>
       <r>    7.9428    0.0000 </r>
       <r>    7.9657    0.0000 </r>
       <r>    8.0635    0.0000 </r>
       <r>    8.1121    0.0000 </r>
       <r>    8.1666    0.0000 </r>
       <r>    8.1705    0.0000 </r>
       <r>    8.1708    0.0000 </r>
       <r>    8.1854    0.0000 </r>
       <r>    8.2087    0.0000 </r>
       <r>    8.2212    0.0000 </r>
       <r>    8.2221    0.0000 </r>
       <r>    8.2330    0.0000 </r>
       <r>    8.2410    0.0000 </r>
       <r>    8.2549    0.0000 </r>
       <r>    8.2829    0.0000 </r>
       <r>    8.3929    0.0000 </r>
       <r>    8.5605    0.0000 </r>
       <r>    8.5804    0.0000 </r>
       <r>    8.5915    0.0000 </r>
       <r>    8.6331    0.0000 </r>
       <r>    8.6343    0.0000 </r>
       <r>    8.6445    0.0000 </r>
       <r>    8.6610    0.0000 </r>
       <r>    8.6694    0.0000 </r>
       <r>    8.6800    0.0000 </r>
       <r>    8.6878    0.0000 </r>
       <r>    8.6879    0.0000 </r>
       <r>    8.7305    0.0000 </r>
       <r>    8.8812    0.0000 </r>
       <r>    8.9557    0.0000 </r>
       <r>    8.9908    0.0000 </r>
       <r>    8.9980    0.0000 </r>
       <r>    9.0086    0.0000 </r>
       <r>    9.0561    0.0000 </r>
       <r>    9.1243    0.0000 </r>
       <r>    9.2094    0.0000 </r>
       <r>    9.2404    0.0000 </r>
       <r>    9.2645    0.0000 </r>
       <r>    9.2671    0.0000 </r>
       <r>    9.2681    0.0000 </r>
       <r>    9.2804    0.0000 </r>
       <r>    9.2951    0.0000 </r>
       <r>    9.2988    0.0000 </r>
       <r>    9.3035    0.0000 </r>
       <r>    9.3195    0.0000 </r>
       <r>    9.3252    0.0000 </r>
       <r>    9.3276    0.0000 </r>
       <r>    9.3289    0.0000 </r>
       <r>    9.3559    0.0000 </r>
       <r>    9.3984    0.0000 </r>
       <r>    9.4734    0.0000 </r>
       <r>    9.6112    0.0000 </r>
       <r>    9.6275    0.0000 </r>
       <r>    9.6813    0.0000 </r>
       <r>    9.6889    0.0000 </r>
       <r>    9.6908    0.0000 </r>
       <r>    9.7181    0.0000 </r>
       <r>    9.8767    0.0000 </r>
       <r>   10.0650    0.0000 </r>
       <r>   10.0884    0.0000 </r>
       <r>   10.0903    0.0000 </r>
       <r>   10.1018    0.0000 </r>
       <r>   10.1419    0.0000 </r>
       <r>   10.1708    0.0000 </r>
       <r>   10.1744    0.0000 </r>
       <r>   10.1898    0.0000 </r>
       <r>   10.1972    0.0000 </r>
       <r>   10.2267    0.0000 </r>
       <r>   10.2358    0.0000 </r>
       <r>   10.2823    0.0000 </r>
       <r>   10.3014    0.0000 </r>
       <r>   10.3030    0.0000 </r>
       <r>   10.3760    0.0000 </r>
       <r>   10.3802    0.0000 </r>
       <r>   10.3897    0.0000 </r>
       <r>   10.3936    0.0000 </r>
       <r>   10.4130    0.0000 </r>
       <r>   10.4363    0.0000 </r>
       <r>   10.4420    0.0000 </r>
       <r>   10.4655    0.0000 </r>
       <r>   10.5070    0.0000 </r>
       <r>   10.5272    0.0000 </r>
       <r>   10.6257    0.0000 </r>
       <r>   10.6682    0.0000 </r>
       <r>   10.7182    0.0000 </r>
       <r>   10.7205    0.0000 </r>
       <r>   10.7242    0.0000 </r>
       <r>   10.7320    0.0000 </r>
       <r>   10.7510    0.0000 </r>
       <r>   10.7580    0.0000 </r>
       <r>   10.7628    0.0000 </r>
       <r>   10.7848    0.0000 </r>
       <r>   10.7877    0.0000 </r>
       <r>   10.7928    0.0000 </r>
       <r>   10.8136    0.0000 </r>
       <r>   10.8150    0.0000 </r>
       <r>   11.2371    0.0000 </r>
       <r>   11.2594    0.0000 </r>
       <r>   11.4798    0.0000 </r>
       <r>   11.5634    0.0000 </r>
       <r>   11.6267    0.0000 </r>
       <r>   11.6752    0.0000 </r>
       <r>   11.7080    0.0000 </r>
       <r>   11.7404    0.0000 </r>
       <r>   11.7756    0.0000 </r>
       <r>   11.7939    0.0000 </r>
       <r>   11.8286    0.0000 </r>
      </set>
      <set comment="kpoint 4">
       <r>  -17.2936    1.0000 </r>
       <r>  -15.7762    1.0000 </r>
       <r>  -15.7299    1.0000 </r>
       <r>  -15.4177    1.0000 </r>
       <r>  -15.3146    1.0000 </r>
       <r>  -15.2488    1.0000 </r>
       <r>  -15.2283    1.0000 </r>
       <r>  -15.1971    1.0000 </r>
       <r>  -15.1887    1.0000 </r>
       <r>  -15.1038    1.0000 </r>
       <r>  -15.0685    1.0000 </r>
       <r>  -15.0259    1.0000 </r>
       <r>  -15.0078    1.0000 </r>
       <r>  -14.9559    1.0000 </r>
       <r>  -14.9472    1.0000 </r>
       <r>  -14.9375    1.0000 </r>
       <r>  -14.9358    1.0000 </r>
       <r>  -14.8571    1.0000 </r>
       <r>  -14.7536    1.0000 </r>
       <r>  -14.7521    1.0000 </r>
       <r>  -14.6190    1.0000 </r>
       <r>  -14.5698    1.0000 </r>
       <r>  -14.5546    1.0000 </r>
       <r>  -14.4584    1.0000 </r>
       <r>  -14.4451    1.0000 </r>
       <r>  -14.4431    1.0000 </r>
       <r>  -14.4291    1.0000 </r>
       <r>  -14.4249    1.0000 </r>
       <r>  -14.4202    1.0000 </r>
       <r>  -14.4161    1.0000 </r>
       <r>  -14.4146    1.0000 </r>
       <r>  -14.3539    1.0000 </r>
       <r>  -14.2469    1.0000 </r>
       <r>  -14.2421    1.0000 </r>
       <r>  -14.2395    1.0000 </r>
       <r>  -14.2392    1.0000 </r>
       <r>  -14.2010    1.0000 </r>
       <r>  -14.1917    1.0000 </r>
       <r>  -14.1676    1.0000 </r>
       <r>  -14.1664    1.0000 </r>
       <r>  -14.1219    1.0000 </r>
       <r>  -14.0380    1.0000 </r>
       <r>  -13.9970    1.0000 </r>
       <r>  -13.9946    1.0000 </r>
       <r>  -13.9476    1.0000 </r>
       <r>  -13.7946    1.0000 </r>
       <r>  -13.7358    1.0000 </r>
       <r>  -13.7122    1.0000 </r>
       <r>  -13.7089    1.0000 </r>
       <r>  -13.7064    1.0000 </r>
       <r>  -13.6972    1.0000 </r>
       <r>  -13.6949    1.0000 </r>
       <r>  -13.6743    1.0000 </r>
       <r>  -13.6739    1.0000 </r>
       <r>  -13.6084    1.0000 </r>
       <r>  -13.5308    1.0000 </r>
       <r>  -13.5304    1.0000 </r>
       <r>  -13.5159    1.0000 </r>
       <r>  -13.5155    1.0000 </r>
       <r>  -13.5069    1.0000 </r>
       <r>  -13.3605    1.0000 </r>
       <r>  -13.3366    1.0000 </r>
       <r>  -13.2551    1.0000 </r>
       <r>  -13.2233    1.0000 </r>
       <r>  -13.1138    1.0000 </r>
       <r>  -13.0598    1.0000 </r>
       <r>  -13.0535    1.0000 </r>
       <r>  -13.0510    1.0000 </r>
       <r>  -13.0431    1.0000 </r>
       <r>  -13.0397    1.0000 </r>
       <r>  -13.0374    1.0000 </r>
       <r>  -13.0348    1.0000 </r>
       <r>  -13.0332    1.0000 </r>
       <r>  -12.9759    1.0000 </r>
       <r>  -12.9307    1.0000 </r>
       <r>  -12.8888    1.0000 </r>
       <r>  -12.8841    1.0000 </r>
       <r>  -12.8818    1.0000 </r>
       <r>  -12.8801    1.0000 </r>
       <r>  -12.8769    1.0000 </r>
       <r>  -12.8734    1.0000 </r>
       <r>  -12.8733    1.0000 </r>
       <r>  -12.8711    1.0000 </r>
       <r>  -12.8693    1.0000 </r>
       <r>  -12.8672    1.0000 </r>
       <r>  -12.8634    1.0000 </r>
       <r>  -12.8629    1.0000 </r>
       <r>  -12.8624    1.0000 </r>
       <r>  -12.7158    1.0000 </r>
       <r>  -12.7141    1.0000 </r>
       <r>  -12.7138    1.0000 </r>
       <r>  -12.7135    1.0000 </r>
       <r>  -12.6752    1.0000 </r>
       <r>  -12.6111    1.0000 </r>
       <r>  -12.5914    1.0000 </r>
       <r>  -12.5839    1.0000 </r>
       <r>  -12.5695    1.0000 </r>
       <r>  -12.5551    1.0000 </r>
       <r>  -12.5403    1.0000 </r>
       <r>  -12.5008    1.0000 </r>
       <r>  -12.4384    1.0000 </r>
       <r>  -12.4318    1.0000 </r>
       <r>  -12.4247    1.0000 </r>
       <r>  -12.4202    1.0000 </r>
       <r>  -12.3359    1.0000 </r>
       <r>  -12.3322    1.0000 </r>
       <r>  -12.3280    1.0000 </r>
       <r>  -12.3232    1.0000 </r>
       <r>  -12.2436    1.0000 </r>
       <r>  -12.2419    1.0000 </r>
       <r>  -12.2389    1.0000 </r>
       <r>  -12.2363    1.0000 </r>
       <r>  -12.2171    1.0000 </r>
       <r>  -12.2159    1.0000 </r>
       <r>  -12.2105    1.0000 </r>
       <r>  -12.2085    1.0000 </r>
       <r>  -12.1767    1.0000 </r>
       <r>  -12.1762    1.0000 </r>
       <r>  -12.1705    1.0000 </r>
       <r>  -12.1620    1.0000 </r>
       <r>  -12.0958    1.0000 </r>
       <r>  -12.0956    1.0000 </r>
       <r>  -12.0905    1.0000 </r>
       <r>  -12.0880    1.0000 </r>
       <r>  -12.0869    1.0000 </r>
       <r>  -12.0863    1.0000 </r>
       <r>  -11.9503    1.0000 </r>
       <r>  -11.9480    1.0000 </r>
       <r>  -11.9468    1.0000 </r>
       <r>  -11.9445    1.0000 </r>
       <r>  -11.8158    1.0000 </r>
       <r>  -11.8151    1.0000 </r>
       <r>  -11.8068    1.0000 </r>
       <r>  -11.8059    1.0000 </r>
       <r>  -11.8057    1.0000 </r>
       <r>  -11.8046    1.0000 </r>
       <r>  -11.7844    1.0000 </r>
       <r>  -11.7842    1.0000 </r>
       <r>  -11.7807    1.0000 </r>
       <r>  -11.7804    1.0000 </r>
       <r>  -11.6684    1.0000 </r>
       <r>  -11.6684    1.0000 </r>
       <r>  -11.6614    1.0000 </r>
       <r>  -11.6613    1.0000 </r>
       <r>   -8.3630    1.0000 </r>
       <r>   -7.2837    1.0000 </r>
       <r>   -7.2706    1.0000 </r>
       <r>   -6.7943    1.0000 </r>
       <r>   -6.7072    1.0000 </r>
       <r>   -6.6820    1.0000 </r>
       <r>   -6.4369    1.0000 </r>
       <r>   -6.4074    1.0000 </r>
       <r>   -6.3209    1.0000 </r>
       <r>   -6.3074    1.0000 </r>
       <r>   -6.3052    1.0000 </r>
       <r>   -6.3044    1.0000 </r>
       <r>   -6.3001    1.0000 </r>
       <r>   -6.2843    1.0000 </r>
       <r>   -6.2736    1.0000 </r>
       <r>   -6.2728    1.0000 </r>
       <r>   -6.2712    1.0000 </r>
       <r>   -6.2709    1.0000 </r>
       <r>   -6.2150    1.0000 </r>
       <r>   -6.2143    1.0000 </r>
       <r>   -6.2131    1.0000 </r>
       <r>   -6.2044    1.0000 </r>
       <r>   -6.1978    1.0000 </r>
       <r>   -6.1965    1.0000 </r>
       <r>   -6.1586    1.0000 </r>
       <r>   -6.1585    1.0000 </r>
       <r>   -6.1491    1.0000 </r>
       <r>   -6.1490    1.0000 </r>
       <r>   -6.0724    1.0000 </r>
       <r>   -6.0710    1.0000 </r>
       <r>   -5.9326    1.0000 </r>
       <r>   -5.9304    1.0000 </r>
       <r>   -5.9080    1.0000 </r>
       <r>   -5.9070    1.0000 </r>
       <r>   -5.8459    1.0000 </r>
       <r>   -5.7893    1.0000 </r>
       <r>   -5.7820    1.0000 </r>
       <r>   -5.7776    1.0000 </r>
       <r>   -5.7676    1.0000 </r>
       <r>   -5.7642    1.0000 </r>
       <r>   -5.7634    1.0000 </r>
       <r>   -5.7632    1.0000 </r>
       <r>   -5.7624    1.0000 </r>
       <r>   -5.7572    1.0000 </r>
       <r>   -5.7526    1.0000 </r>
       <r>   -5.7519    1.0000 </r>
       <r>   -5.7459    1.0000 </r>
       <r>   -5.6831    1.0000 </r>
       <r>   -5.6544    1.0000 </r>
       <r>   -5.6414    1.0000 </r>
       <r>   -5.6228    1.0000 </r>
       <r>   -5.6228    1.0000 </r>
       <r>   -5.6197    1.0000 </r>
       <r>   -5.6196    1.0000 </r>
       <r>   -5.2274    1.0000 </r>
       <r>   -5.2257    1.0000 </r>
       <r>   -5.2242    1.0000 </r>
       <r>   -5.2230    1.0000 </r>
       <r>   -5.2218    1.0000 </r>
       <r>   -5.2213    1.0000 </r>
       <r>   -5.2210    1.0000 </r>
       <r>   -5.2204    1.0000 </r>
       <r>   -5.2193    1.0000 </r>
       <r>   -5.2186    1.0000 </r>
       <r>   -5.2178    1.0000 </r>
       <r>   -5.2176    1.0000 </r>
       <r>   -5.1123    1.0000 </r>
       <r>   -5.1116    1.0000 </r>
       <r>   -5.0907    1.0000 </r>
       <r>   -5.0906    1.0000 </r>
       <r>   -5.0878    1.0000 </r>
       <r>   -5.0877    1.0000 </r>
       <r>   -5.0874    1.0000 </r>
       <r>   -5.0871    1.0000 </r>
       <r>   -5.0267    1.0000 </r>
       <r>   -4.9208    1.0000 </r>
       <r>   -4.8313    1.0000 </r>
       <r>   -4.6099    1.0000 </r>
       <r>   -4.5561    1.0000 </r>
       <r>   -4.5424    1.0000 </r>
       <r>   -4.4758    1.0000 </r>
       <r>   -4.4733    1.0000 </r>
       <r>   -4.4719    1.0000 </r>
       <r>   -4.4713    1.0000 </r>
       <r>   -4.4708    1.0000 </r>
       <r>   -4.4693    1.0000 </r>
       <r>   -4.4679    1.0000 </r>
       <r>   -4.4676    1.0000 </r>
       <r>   -4.3413    1.0000 </r>
       <r>   -4.3411    1.0000 </r>
       <r>   -4.3408    1.0000 </r>
       <r>   -4.3407    1.0000 </r>
       <r>   -4.3173    1.0000 </r>
       <r>   -4.3133    1.0000 </r>
       <r>   -4.2003    1.0000 </r>
       <r>   -4.0987    1.0000 </r>
       <r>   -4.0874    1.0000 </r>
       <r>   -4.0872    1.0000 </r>
       <r>   -4.0847    1.0000 </r>
       <r>   -4.0839    1.0000 </r>
       <r>   -4.0743    1.0000 </r>
       <r>   -4.0741    1.0000 </r>
       <r>   -4.0721    1.0000 </r>
       <r>   -4.0711    1.0000 </r>
       <r>   -4.0301    1.0000 </r>
       <r>   -3.9501    1.0000 </r>
       <r>   -3.9500    1.0000 </r>
       <r>   -3.9466    1.0000 </r>
       <r>   -3.9466    1.0000 </r>
       <r>   -3.9106    1.0000 </r>
       <r>   -3.8641    1.0000 </r>
       <r>   -3.7855    1.0000 </r>
       <r>   -3.7519    1.0000 </r>
       <r>   -3.6233    1.0000 </r>
       <r>   -3.6213    1.0000 </r>
       <r>   -3.6153    1.0000 </r>
       <r>   -3.6138    1.0000 </r>
       <r>   -3.6039    1.0000 </r>
       <r>   -3.6032    1.0000 </r>
       <r>   -3.5987    1.0000 </r>
       <r>   -3.5981    1.0000 </r>
       <r>   -3.5143    1.0000 </r>
       <r>   -3.4796    1.0000 </r>
       <r>   -3.4793    1.0000 </r>
       <r>   -3.4776    1.0000 </r>
       <r>   -3.4740    1.0000 </r>
       <r>   -3.4739    1.0000 </r>
       <r>   -3.4689    1.0000 </r>
       <r>   -3.4683    1.0000 </r>
       <r>   -3.4654    1.0000 </r>
       <r>   -3.4645    1.0000 </r>
       <r>   -3.4503    1.0000 </r>
       <r>   -3.3496    1.0000 </r>
       <r>   -3.3383    1.0000 </r>
       <r>   -3.3382    1.0000 </r>
       <r>   -3.1564    1.0000 </r>
       <r>   -3.1312    1.0000 </r>
       <r>   -3.0972    1.0000 </r>
       <r>   -3.0761    1.0000 </r>
       <r>   -3.0740    1.0000 </r>
       <r>   -3.0699    1.0000 </r>
       <r>   -3.0690    1.0000 </r>
       <r>   -2.9965    1.0000 </r>
       <r>   -2.9383    1.0000 </r>
       <r>   -2.9375    1.0000 </r>
       <r>   -2.9329    1.0000 </r>
       <r>   -2.8550    1.0000 </r>
       <r>   -2.8101    1.0000 </r>
       <r>   -2.7787    1.0000 </r>
       <r>   -2.7700    1.0000 </r>
       <r>   -2.7698    1.0000 </r>
       <r>   -2.7574    1.0000 </r>
       <r>   -2.7542    1.0000 </r>
       <r>   -2.7367    1.0000 </r>
       <r>   -2.7259    1.0000 </r>
       <r>   -2.6832    1.0000 </r>
       <r>   -2.6791    1.0000 </r>
       <r>   -2.6688    1.0000 </r>
       <r>   -2.6676    1.0000 </r>
       <r>   -2.6674    1.0000 </r>
       <r>   -2.5441    1.0000 </r>
       <r>   -2.5438    1.0000 </r>
       <r>   -2.5239    1.0000 </r>
       <r>   -2.5227    1.0000 </r>
       <r>   -2.5111    1.0000 </r>
       <r>   -2.4611    1.0000 </r>
       <r>   -2.4249    1.0000 </r>
       <r>   -2.4160    1.0000 </r>
       <r>   -2.3864    1.0000 </r>
       <r>   -2.3764    1.0000 </r>
       <r>   -2.3748    1.0000 </r>
       <r>   -2.3743    1.0000 </r>
       <r>   -2.3735    1.0000 </r>
       <r>   -2.3723    1.0000 </r>
       <r>   -2.3708    1.0000 </r>
       <r>   -2.3697    1.0000 </r>
       <r>   -2.3688    1.0000 </r>
       <r>   -2.3639    1.0000 </r>
       <r>   -2.3587    1.0000 </r>
       <r>   -2.3538    1.0000 </r>
       <r>   -2.3286    1.0000 </r>
       <r>   -2.2668    1.0000 </r>
       <r>   -2.2409    1.0000 </r>
       <r>   -2.2405    1.0000 </r>
       <r>   -2.2403    1.0000 </r>
       <r>   -2.2400    1.0000 </r>
       <r>   -2.2128    1.0000 </r>
       <r>   -2.1746    1.0000 </r>
       <r>   -2.1433    1.0000 </r>
       <r>   -2.1225    1.0000 </r>
       <r>   -2.0888    1.0000 </r>
       <r>   -2.0885    1.0000 </r>
       <r>   -2.0881    1.0000 </r>
       <r>   -2.0875    1.0000 </r>
       <r>   -2.0554    1.0000 </r>
       <r>   -2.0551    1.0000 </r>
       <r>   -2.0544    1.0000 </r>
       <r>   -2.0538    1.0000 </r>
       <r>   -2.0419    1.0000 </r>
       <r>   -2.0317    1.0000 </r>
       <r>   -2.0092    1.0000 </r>
       <r>   -2.0073    1.0000 </r>
       <r>   -1.9828    1.0000 </r>
       <r>   -1.9429    1.0000 </r>
       <r>   -1.9429    1.0000 </r>
       <r>   -1.9331    1.0000 </r>
       <r>   -1.9331    1.0000 </r>
       <r>   -1.8998    1.0000 </r>
       <r>   -1.8696    1.0000 </r>
       <r>   -1.8678    1.0000 </r>
       <r>   -1.8669    1.0000 </r>
       <r>   -1.8656    1.0000 </r>
       <r>   -1.8570    1.0000 </r>
       <r>   -1.8548    1.0000 </r>
       <r>   -1.8231    1.0000 </r>
       <r>   -1.8206    1.0000 </r>
       <r>   -1.8169    1.0000 </r>
       <r>   -1.8147    1.0000 </r>
       <r>   -1.7857    1.0000 </r>
       <r>   -1.7773    1.0000 </r>
       <r>   -1.7771    1.0000 </r>
       <r>   -1.7759    1.0000 </r>
       <r>   -1.7758    1.0000 </r>
       <r>   -1.7754    1.0000 </r>
       <r>   -1.7753    1.0000 </r>
       <r>   -1.7744    1.0000 </r>
       <r>   -1.7739    1.0000 </r>
       <r>   -1.7147    1.0000 </r>
       <r>   -1.7092    1.0000 </r>
       <r>   -1.7079    1.0000 </r>
       <r>   -1.6963    1.0000 </r>
       <r>   -1.6599    1.0000 </r>
       <r>   -1.6501    1.0000 </r>
       <r>   -1.6452    1.0000 </r>
       <r>   -1.6452    1.0000 </r>
       <r>   -1.6449    1.0000 </r>
       <r>   -1.6448    1.0000 </r>
       <r>   -1.6354    1.0000 </r>
       <r>   -1.6165    1.0000 </r>
       <r>   -1.6131    1.0000 </r>
       <r>   -1.6056    1.0000 </r>
       <r>   -1.6039    1.0000 </r>
       <r>   -1.5829    1.0000 </r>
       <r>   -1.5815    1.0000 </r>
       <r>   -1.5804    1.0000 </r>
       <r>   -1.5675    1.0000 </r>
       <r>   -1.5660    1.0000 </r>
       <r>   -1.5585    1.0000 </r>
       <r>   -1.5540    1.0000 </r>
       <r>   -1.5514    1.0000 </r>
       <r>   -1.4916    1.0000 </r>
       <r>   -1.4554    1.0000 </r>
       <r>   -1.4409    1.0000 </r>
       <r>   -1.4316    1.0000 </r>
       <r>   -1.3508    1.0000 </r>
       <r>   -1.3478    1.0000 </r>
       <r>   -1.3391    1.0000 </r>
       <r>   -1.3381    1.0000 </r>
       <r>   -1.2294    1.0000 </r>
       <r>   -1.2292    1.0000 </r>
       <r>   -1.2259    1.0000 </r>
       <r>   -1.2258    1.0000 </r>
       <r>   -1.2122    1.0000 </r>
       <r>   -1.2120    1.0000 </r>
       <r>   -1.2105    1.0000 </r>
       <r>   -1.2083    1.0000 </r>
       <r>   -1.1944    1.0000 </r>
       <r>   -1.0913    1.0000 </r>
       <r>   -1.0913    1.0000 </r>
       <r>   -1.0861    1.0000 </r>
       <r>   -1.0861    1.0000 </r>
       <r>   -1.0522    1.0000 </r>
       <r>   -1.0266    1.0000 </r>
       <r>   -1.0131    1.0000 </r>
       <r>   -0.9788    1.0000 </r>
       <r>   -0.9329    1.0000 </r>
       <r>   -0.8661    1.0000 </r>
       <r>   -0.8467    1.0000 </r>
       <r>   -0.7816    1.0000 </r>
       <r>   -0.7765    1.0000 </r>
       <r>   -0.7580    1.0000 </r>
       <r>   -0.7239    1.0000 </r>
       <r>   -0.7192    1.0000 </r>
       <r>   -0.7142    1.0000 </r>
       <r>   -0.7134    1.0000 </r>
       <r>   -0.7116    1.0000 </r>
       <r>   -0.6786    1.0000 </r>
       <r>   -0.6759    1.0000 </r>
       <r>   -0.6753    1.0000 </r>
       <r>   -0.6747    1.0000 </r>
       <r>   -0.6643    1.0000 </r>
       <r>   -0.6574    1.0000 </r>
       <r>   -0.6562    1.0000 </r>
       <r>   -0.6266    1.0000 </r>
       <r>   -0.5180    1.0000 </r>
       <r>   -0.5168    1.0000 </r>
       <r>   -0.5159    1.0000 </r>
       <r>   -0.5148    1.0000 </r>
       <r>   -0.4620    1.0000 </r>
       <r>   -0.4585    1.0000 </r>
       <r>   -0.4576    1.0000 </r>
       <r>   -0.4572    1.0000 </r>
       <r>   -0.4542    1.0000 </r>
       <r>   -0.4537    1.0000 </r>
       <r>   -0.4529    1.0000 </r>
       <r>   -0.4498    1.0000 </r>
       <r>   -0.4410    1.0000 </r>
       <r>   -0.4113    1.0000 </r>
       <r>   -0.3841    1.0000 </r>
       <r>   -0.3835    1.0000 </r>
       <r>   -0.3834    1.0000 </r>
       <r>   -0.3709    1.0000 </r>
       <r>   -0.3572    1.0000 </r>
       <r>   -0.3554    1.0000 </r>
       <r>   -0.3539    1.0000 </r>
       <r>   -0.3466    1.0000 </r>
       <r>   -0.3429    1.0000 </r>
       <r>   -0.3427    1.0000 </r>
       <r>   -0.3269    1.0000 </r>
       <r>   -0.3263    1.0000 </r>
       <r>   -0.3262    1.0000 </r>
       <r>   -0.3258    1.0000 </r>
       <r>   -0.2805    1.0000 </r>
       <r>   -0.2255    1.0000 </r>
       <r>   -0.2250    1.0000 </r>
       <r>   -0.1263    1.0000 </r>
       <r>   -0.0470    1.0000 </r>
       <r>    0.0036    1.0000 </r>
       <r>    0.0425    1.0000 </r>
       <r>    0.1172    1.0000 </r>
       <r>    0.1522    1.0000 </r>
       <r>    0.1564    1.0000 </r>
       <r>    0.1676    1.0000 </r>
       <r>    0.1930    1.0000 </r>
       <r>    0.1998    1.0000 </r>
       <r>    0.2109    1.0000 </r>
       <r>    0.2125    1.0000 </r>
       <r>    0.2182    1.0000 </r>
       <r>    0.2203    1.0000 </r>
       <r>    0.2380    1.0000 </r>
       <r>    0.2420    1.0000 </r>
       <r>    0.2857    1.0000 </r>
       <r>    0.3101    1.0000 </r>
       <r>    0.3174    1.0000 </r>
       <r>    0.3434    1.0000 </r>
       <r>    0.3447    1.0000 </r>
       <r>    0.3489    1.0000 </r>
       <r>    0.3503    1.0000 </r>
       <r>    0.3646    1.0000 </r>
       <r>    0.3762    1.0000 </r>
       <r>    0.3946    1.0000 </r>
       <r>    0.4527    1.0000 </r>
       <r>    0.4589    1.0000 </r>
       <r>    0.4598    1.0000 </r>
       <r>    0.4628    1.0000 </r>
       <r>    0.4644    1.0000 </r>
       <r>    0.4650    1.0000 </r>
       <r>    0.4765    1.0000 </r>
       <r>    0.4773    1.0000 </r>
       <r>    0.5556    1.0000 </r>
       <r>    0.5600    1.0000 </r>
       <r>    0.5609    1.0000 </r>
       <r>    0.5851    1.0000 </r>
       <r>    0.5896    1.0000 </r>
       <r>    0.6863    1.0000 </r>
       <r>    0.6937    1.0000 </r>
       <r>    0.7005    1.0000 </r>
       <r>    0.7028    1.0000 </r>
       <r>    0.7249    1.0000 </r>
       <r>    0.8070    1.0000 </r>
       <r>    0.8075    1.0000 </r>
       <r>    0.8378    1.0000 </r>
       <r>    0.8555    1.0000 </r>
       <r>    0.8566    1.0000 </r>
       <r>    0.8804    1.0000 </r>
       <r>    0.8838    1.0000 </r>
       <r>    0.8852    1.0000 </r>
       <r>    0.9155    1.0000 </r>
       <r>    0.9918    1.0000 </r>
       <r>    0.9919    1.0000 </r>
       <r>    0.9938    1.0000 </r>
       <r>    1.0026    1.0000 </r>
       <r>    1.0205    1.0000 </r>
       <r>    1.0324    1.0000 </r>
       <r>    1.0821    1.0000 </r>
       <r>    1.0978    1.0000 </r>
       <r>    1.2066    1.0000 </r>
       <r>    1.2071    1.0000 </r>
       <r>    1.2142    1.0000 </r>
       <r>    1.2332    1.0000 </r>
       <r>    1.2448    1.0000 </r>
       <r>    1.2459    1.0000 </r>
       <r>    1.2545    1.0000 </r>
       <r>    1.2587    1.0000 </r>
       <r>    1.3148    1.0000 </r>
       <r>    1.3182    1.0000 </r>
       <r>    1.3643    1.0000 </r>
       <r>    1.3652    1.0000 </r>
       <r>    1.4009    1.0000 </r>
       <r>    1.4052    1.0000 </r>
       <r>    1.4401    1.0000 </r>
       <r>    1.4404    1.0000 </r>
       <r>    1.5008    1.0000 </r>
       <r>    1.5021    1.0000 </r>
       <r>    1.5373    1.0000 </r>
       <r>    1.5766    1.0000 </r>
       <r>    1.5880    1.0000 </r>
       <r>    1.5885    1.0000 </r>
       <r>    1.7637    1.0000 </r>
       <r>    1.7686    1.0000 </r>
       <r>    1.8460    1.0000 </r>
       <r>    1.8558    1.0000 </r>
       <r>    1.8604    1.0000 </r>
       <r>    1.8611    1.0000 </r>
       <r>    1.9185    1.0000 </r>
       <r>    1.9251    1.0000 </r>
       <r>    1.9533    1.0000 </r>
       <r>    1.9581    1.0000 </r>
       <r>    1.9798    1.0000 </r>
       <r>    1.9814    1.0000 </r>
       <r>    2.0231    1.0000 </r>
       <r>    2.0239    1.0000 </r>
       <r>    2.0632    1.0000 </r>
       <r>    2.0690    1.0000 </r>
       <r>    2.0962    1.0000 </r>
       <r>    2.0968    1.0000 </r>
       <r>    2.2232    1.0000 </r>
       <r>    2.2307    1.0000 </r>
       <r>    2.3992    1.0000 </r>
       <r>    2.4000    1.0000 </r>
       <r>    2.4036    1.0000 </r>
       <r>    2.4057    1.0000 </r>
       <r>    4.6620    1.0000 </r>
       <r>    5.8855    0.0000 </r>
       <r>    6.6170    0.0000 </r>
       <r>    6.6379    0.0000 </r>
       <r>    6.6384    0.0000 </r>
       <r>    6.8791    0.0000 </r>
       <r>    6.9246    0.0000 </r>
       <r>    6.9933    0.0000 </r>
       <r>    7.0040    0.0000 </r>
       <r>    7.0766    0.0000 </r>
       <r>    7.0876    0.0000 </r>
       <r>    7.1518    0.0000 </r>
       <r>    7.2116    0.0000 </r>
       <r>    7.2122    0.0000 </r>
       <r>    7.2283    0.0000 </r>
       <r>    7.2435    0.0000 </r>
       <r>    7.2824    0.0000 </r>
       <r>    7.2969    0.0000 </r>
       <r>    7.3062    0.0000 </r>
       <r>    7.3274    0.0000 </r>
       <r>    7.3329    0.0000 </r>
       <r>    7.3394    0.0000 </r>
       <r>    7.3429    0.0000 </r>
       <r>    7.3450    0.0000 </r>
       <r>    7.3613    0.0000 </r>
       <r>    7.3626    0.0000 </r>
       <r>    7.3838    0.0000 </r>
       <r>    7.3845    0.0000 </r>
       <r>    7.3921    0.0000 </r>
       <r>    7.3930    0.0000 </r>
       <r>    7.4293    0.0000 </r>
       <r>    7.4306    0.0000 </r>
       <r>    7.4580    0.0000 </r>
       <r>    7.6855    0.0000 </r>
       <r>    7.7384    0.0000 </r>
       <r>    7.7418    0.0000 </r>
       <r>    7.7458    0.0000 </r>
       <r>    7.7915    0.0000 </r>
       <r>    7.8199    0.0000 </r>
       <r>    7.8444    0.0000 </r>
       <r>    7.8739    0.0000 </r>
       <r>    7.8890    0.0000 </r>
       <r>    7.9083    0.0000 </r>
       <r>    7.9137    0.0000 </r>
       <r>    7.9197    0.0000 </r>
       <r>    7.9434    0.0000 </r>
       <r>    7.9655    0.0000 </r>
       <r>    8.0638    0.0000 </r>
       <r>    8.1123    0.0000 </r>
       <r>    8.1666    0.0000 </r>
       <r>    8.1707    0.0000 </r>
       <r>    8.1708    0.0000 </r>
       <r>    8.1854    0.0000 </r>
       <r>    8.2086    0.0000 </r>
       <r>    8.2210    0.0000 </r>
       <r>    8.2214    0.0000 </r>
       <r>    8.2338    0.0000 </r>
       <r>    8.2402    0.0000 </r>
       <r>    8.2544    0.0000 </r>
       <r>    8.2829    0.0000 </r>
       <r>    8.3927    0.0000 </r>
       <r>    8.5605    0.0000 </r>
       <r>    8.5802    0.0000 </r>
       <r>    8.5913    0.0000 </r>
       <r>    8.6333    0.0000 </r>
       <r>    8.6341    0.0000 </r>
       <r>    8.6443    0.0000 </r>
       <r>    8.6610    0.0000 </r>
       <r>    8.6695    0.0000 </r>
       <r>    8.6806    0.0000 </r>
       <r>    8.6878    0.0000 </r>
       <r>    8.6878    0.0000 </r>
       <r>    8.7302    0.0000 </r>
       <r>    8.8806    0.0000 </r>
       <r>    8.9597    0.0000 </r>
       <r>    8.9909    0.0000 </r>
       <r>    8.9981    0.0000 </r>
       <r>    9.0081    0.0000 </r>
       <r>    9.0559    0.0000 </r>
       <r>    9.1242    0.0000 </r>
       <r>    9.2096    0.0000 </r>
       <r>    9.2401    0.0000 </r>
       <r>    9.2645    0.0000 </r>
       <r>    9.2670    0.0000 </r>
       <r>    9.2684    0.0000 </r>
       <r>    9.2805    0.0000 </r>
       <r>    9.2950    0.0000 </r>
       <r>    9.2988    0.0000 </r>
       <r>    9.3034    0.0000 </r>
       <r>    9.3196    0.0000 </r>
       <r>    9.3253    0.0000 </r>
       <r>    9.3278    0.0000 </r>
       <r>    9.3290    0.0000 </r>
       <r>    9.3562    0.0000 </r>
       <r>    9.3985    0.0000 </r>
       <r>    9.4736    0.0000 </r>
       <r>    9.6110    0.0000 </r>
       <r>    9.6271    0.0000 </r>
       <r>    9.6816    0.0000 </r>
       <r>    9.6890    0.0000 </r>
       <r>    9.6907    0.0000 </r>
       <r>    9.7179    0.0000 </r>
       <r>    9.8774    0.0000 </r>
       <r>   10.0650    0.0000 </r>
       <r>   10.0870    0.0000 </r>
       <r>   10.0885    0.0000 </r>
       <r>   10.1020    0.0000 </r>
       <r>   10.1422    0.0000 </r>
       <r>   10.1703    0.0000 </r>
       <r>   10.1741    0.0000 </r>
       <r>   10.1900    0.0000 </r>
       <r>   10.1966    0.0000 </r>
       <r>   10.2266    0.0000 </r>
       <r>   10.2361    0.0000 </r>
       <r>   10.2821    0.0000 </r>
       <r>   10.3016    0.0000 </r>
       <r>   10.3036    0.0000 </r>
       <r>   10.3761    0.0000 </r>
       <r>   10.3804    0.0000 </r>
       <r>   10.3897    0.0000 </r>
       <r>   10.3936    0.0000 </r>
       <r>   10.4138    0.0000 </r>
       <r>   10.4366    0.0000 </r>
       <r>   10.4426    0.0000 </r>
       <r>   10.4660    0.0000 </r>
       <r>   10.5064    0.0000 </r>
       <r>   10.5270    0.0000 </r>
       <r>   10.6257    0.0000 </r>
       <r>   10.6676    0.0000 </r>
       <r>   10.7187    0.0000 </r>
       <r>   10.7210    0.0000 </r>
       <r>   10.7229    0.0000 </r>
       <r>   10.7318    0.0000 </r>
       <r>   10.7519    0.0000 </r>
       <r>   10.7590    0.0000 </r>
       <r>   10.7634    0.0000 </r>
       <r>   10.7828    0.0000 </r>
       <r>   10.7871    0.0000 </r>
       <r>   10.7924    0.0000 </r>
       <r>   10.8135    0.0000 </r>
       <r>   10.8145    0.0000 </r>
       <r>   11.2392    0.0000 </r>
       <r>   11.2569    0.0000 </r>
       <r>   11.5036    0.0000 </r>
       <r>   11.6144    0.0000 </r>
       <r>   11.6453    0.0000 </r>
       <r>   11.6727    0.0000 </r>
       <r>   11.7133    0.0000 </r>
       <r>   11.7402    0.0000 </r>
       <r>   11.7645    0.0000 </r>
       <r>   11.7988    0.0000 </r>
       <r>   12.2551    0.0000 </r>
      </set>
      <set comment="kpoint 5">
       <r>  -17.2938    1.0000 </r>
       <r>  -15.7205    1.0000 </r>
       <r>  -15.7195    1.0000 </r>
       <r>  -15.5736    1.0000 </r>
       <r>  -15.3956    1.0000 </r>
       <r>  -15.3102    1.0000 </r>
       <r>  -15.1599    1.0000 </r>
       <r>  -15.1585    1.0000 </r>
       <r>  -15.1569    1.0000 </r>
       <r>  -15.0713    1.0000 </r>
       <r>  -14.8871    1.0000 </r>
       <r>  -14.8645    1.0000 </r>
       <r>  -14.8641    1.0000 </r>
       <r>  -14.8473    1.0000 </r>
       <r>  -14.8432    1.0000 </r>
       <r>  -14.8426    1.0000 </r>
       <r>  -14.8379    1.0000 </r>
       <r>  -14.8374    1.0000 </r>
       <r>  -14.8270    1.0000 </r>
       <r>  -14.7640    1.0000 </r>
       <r>  -14.7633    1.0000 </r>
       <r>  -14.7438    1.0000 </r>
       <r>  -14.7208    1.0000 </r>
       <r>  -14.7201    1.0000 </r>
       <r>  -14.6443    1.0000 </r>
       <r>  -14.6338    1.0000 </r>
       <r>  -14.6335    1.0000 </r>
       <r>  -14.6193    1.0000 </r>
       <r>  -14.6190    1.0000 </r>
       <r>  -14.6127    1.0000 </r>
       <r>  -14.5610    1.0000 </r>
       <r>  -14.2539    1.0000 </r>
       <r>  -14.2533    1.0000 </r>
       <r>  -14.2426    1.0000 </r>
       <r>  -13.9178    1.0000 </r>
       <r>  -13.9133    1.0000 </r>
       <r>  -13.8551    1.0000 </r>
       <r>  -13.8485    1.0000 </r>
       <r>  -13.8429    1.0000 </r>
       <r>  -13.8429    1.0000 </r>
       <r>  -13.8386    1.0000 </r>
       <r>  -13.8386    1.0000 </r>
       <r>  -13.8371    1.0000 </r>
       <r>  -13.8135    1.0000 </r>
       <r>  -13.7959    1.0000 </r>
       <r>  -13.7955    1.0000 </r>
       <r>  -13.7840    1.0000 </r>
       <r>  -13.7782    1.0000 </r>
       <r>  -13.7774    1.0000 </r>
       <r>  -13.7544    1.0000 </r>
       <r>  -13.7509    1.0000 </r>
       <r>  -13.7478    1.0000 </r>
       <r>  -13.6398    1.0000 </r>
       <r>  -13.6379    1.0000 </r>
       <r>  -13.6379    1.0000 </r>
       <r>  -13.6362    1.0000 </r>
       <r>  -13.6362    1.0000 </r>
       <r>  -13.6356    1.0000 </r>
       <r>  -13.3982    1.0000 </r>
       <r>  -13.3943    1.0000 </r>
       <r>  -13.3942    1.0000 </r>
       <r>  -13.3939    1.0000 </r>
       <r>  -13.3938    1.0000 </r>
       <r>  -13.3920    1.0000 </r>
       <r>  -13.3727    1.0000 </r>
       <r>  -13.3727    1.0000 </r>
       <r>  -13.3571    1.0000 </r>
       <r>  -13.3498    1.0000 </r>
       <r>  -13.3498    1.0000 </r>
       <r>  -13.3495    1.0000 </r>
       <r>  -13.2685    1.0000 </r>
       <r>  -13.2674    1.0000 </r>
       <r>  -13.2052    1.0000 </r>
       <r>  -13.2042    1.0000 </r>
       <r>  -13.2042    1.0000 </r>
       <r>  -13.2039    1.0000 </r>
       <r>  -13.2039    1.0000 </r>
       <r>  -13.2033    1.0000 </r>
       <r>  -12.8945    1.0000 </r>
       <r>  -12.8583    1.0000 </r>
       <r>  -12.8583    1.0000 </r>
       <r>  -12.7736    1.0000 </r>
       <r>  -12.6766    1.0000 </r>
       <r>  -12.5908    1.0000 </r>
       <r>  -12.5896    1.0000 </r>
       <r>  -12.5878    1.0000 </r>
       <r>  -12.5426    1.0000 </r>
       <r>  -12.5238    1.0000 </r>
       <r>  -12.4980    1.0000 </r>
       <r>  -12.4950    1.0000 </r>
       <r>  -12.4678    1.0000 </r>
       <r>  -12.3508    1.0000 </r>
       <r>  -12.3363    1.0000 </r>
       <r>  -12.3314    1.0000 </r>
       <r>  -12.3205    1.0000 </r>
       <r>  -12.3201    1.0000 </r>
       <r>  -12.3155    1.0000 </r>
       <r>  -12.3125    1.0000 </r>
       <r>  -12.3120    1.0000 </r>
       <r>  -12.3043    1.0000 </r>
       <r>  -12.3038    1.0000 </r>
       <r>  -12.2951    1.0000 </r>
       <r>  -12.2946    1.0000 </r>
       <r>  -12.2895    1.0000 </r>
       <r>  -12.2891    1.0000 </r>
       <r>  -12.2880    1.0000 </r>
       <r>  -12.2875    1.0000 </r>
       <r>  -12.2781    1.0000 </r>
       <r>  -12.2769    1.0000 </r>
       <r>  -12.2701    1.0000 </r>
       <r>  -12.2695    1.0000 </r>
       <r>  -12.2673    1.0000 </r>
       <r>  -12.2668    1.0000 </r>
       <r>  -12.2560    1.0000 </r>
       <r>  -12.2552    1.0000 </r>
       <r>  -12.1930    1.0000 </r>
       <r>  -12.1919    1.0000 </r>
       <r>  -12.1918    1.0000 </r>
       <r>  -12.1846    1.0000 </r>
       <r>  -12.1834    1.0000 </r>
       <r>  -12.1831    1.0000 </r>
       <r>  -12.1582    1.0000 </r>
       <r>  -12.1582    1.0000 </r>
       <r>  -12.1542    1.0000 </r>
       <r>  -12.1538    1.0000 </r>
       <r>  -12.1517    1.0000 </r>
       <r>  -12.1517    1.0000 </r>
       <r>  -12.1440    1.0000 </r>
       <r>  -12.1440    1.0000 </r>
       <r>  -12.1429    1.0000 </r>
       <r>  -12.1420    1.0000 </r>
       <r>  -12.1396    1.0000 </r>
       <r>  -12.1396    1.0000 </r>
       <r>  -12.0617    1.0000 </r>
       <r>  -12.0617    1.0000 </r>
       <r>  -12.0617    1.0000 </r>
       <r>  -11.9641    1.0000 </r>
       <r>  -11.9586    1.0000 </r>
       <r>  -11.5949    1.0000 </r>
       <r>  -11.5943    1.0000 </r>
       <r>  -11.5939    1.0000 </r>
       <r>  -11.5934    1.0000 </r>
       <r>  -11.4688    1.0000 </r>
       <r>  -11.4688    1.0000 </r>
       <r>   -8.3732    1.0000 </r>
       <r>   -7.3292    1.0000 </r>
       <r>   -7.3287    1.0000 </r>
       <r>   -6.6094    1.0000 </r>
       <r>   -6.6082    1.0000 </r>
       <r>   -6.5433    1.0000 </r>
       <r>   -6.5259    1.0000 </r>
       <r>   -6.5259    1.0000 </r>
       <r>   -6.5244    1.0000 </r>
       <r>   -6.5208    1.0000 </r>
       <r>   -6.5208    1.0000 </r>
       <r>   -6.5095    1.0000 </r>
       <r>   -6.4868    1.0000 </r>
       <r>   -6.3900    1.0000 </r>
       <r>   -6.3899    1.0000 </r>
       <r>   -6.3899    1.0000 </r>
       <r>   -6.3190    1.0000 </r>
       <r>   -6.3136    1.0000 </r>
       <r>   -6.0969    1.0000 </r>
       <r>   -6.0957    1.0000 </r>
       <r>   -6.0305    1.0000 </r>
       <r>   -6.0293    1.0000 </r>
       <r>   -6.0052    1.0000 </r>
       <r>   -5.9874    1.0000 </r>
       <r>   -5.9070    1.0000 </r>
       <r>   -5.9065    1.0000 </r>
       <r>   -5.7170    1.0000 </r>
       <r>   -5.7169    1.0000 </r>
       <r>   -5.7108    1.0000 </r>
       <r>   -5.7107    1.0000 </r>
       <r>   -5.7081    1.0000 </r>
       <r>   -5.7081    1.0000 </r>
       <r>   -5.7018    1.0000 </r>
       <r>   -5.7018    1.0000 </r>
       <r>   -5.6933    1.0000 </r>
       <r>   -5.6888    1.0000 </r>
       <r>   -5.6880    1.0000 </r>
       <r>   -5.6849    1.0000 </r>
       <r>   -5.6834    1.0000 </r>
       <r>   -5.6834    1.0000 </r>
       <r>   -5.6781    1.0000 </r>
       <r>   -5.6765    1.0000 </r>
       <r>   -5.6718    1.0000 </r>
       <r>   -5.6718    1.0000 </r>
       <r>   -5.6701    1.0000 </r>
       <r>   -5.6700    1.0000 </r>
       <r>   -5.6653    1.0000 </r>
       <r>   -5.6653    1.0000 </r>
       <r>   -5.6631    1.0000 </r>
       <r>   -5.6631    1.0000 </r>
       <r>   -5.5810    1.0000 </r>
       <r>   -5.5810    1.0000 </r>
       <r>   -5.5589    1.0000 </r>
       <r>   -5.5583    1.0000 </r>
       <r>   -5.5583    1.0000 </r>
       <r>   -5.5577    1.0000 </r>
       <r>   -5.5550    1.0000 </r>
       <r>   -5.5550    1.0000 </r>
       <r>   -5.5539    1.0000 </r>
       <r>   -5.5539    1.0000 </r>
       <r>   -5.5506    1.0000 </r>
       <r>   -5.5506    1.0000 </r>
       <r>   -5.5471    1.0000 </r>
       <r>   -5.5471    1.0000 </r>
       <r>   -5.5471    1.0000 </r>
       <r>   -5.5468    1.0000 </r>
       <r>   -5.4184    1.0000 </r>
       <r>   -5.4184    1.0000 </r>
       <r>   -5.3696    1.0000 </r>
       <r>   -5.2477    1.0000 </r>
       <r>   -5.1479    1.0000 </r>
       <r>   -5.1461    1.0000 </r>
       <r>   -4.9933    1.0000 </r>
       <r>   -4.9235    1.0000 </r>
       <r>   -4.9231    1.0000 </r>
       <r>   -4.8738    1.0000 </r>
       <r>   -4.7464    1.0000 </r>
       <r>   -4.7464    1.0000 </r>
       <r>   -4.7454    1.0000 </r>
       <r>   -4.7454    1.0000 </r>
       <r>   -4.6191    1.0000 </r>
       <r>   -4.6191    1.0000 </r>
       <r>   -4.4800    1.0000 </r>
       <r>   -4.4795    1.0000 </r>
       <r>   -4.4795    1.0000 </r>
       <r>   -4.4764    1.0000 </r>
       <r>   -4.4761    1.0000 </r>
       <r>   -4.4761    1.0000 </r>
       <r>   -4.4718    1.0000 </r>
       <r>   -4.4718    1.0000 </r>
       <r>   -4.4703    1.0000 </r>
       <r>   -4.4687    1.0000 </r>
       <r>   -4.4687    1.0000 </r>
       <r>   -4.4685    1.0000 </r>
       <r>   -4.3393    1.0000 </r>
       <r>   -4.3390    1.0000 </r>
       <r>   -4.3390    1.0000 </r>
       <r>   -4.3389    1.0000 </r>
       <r>   -4.3389    1.0000 </r>
       <r>   -4.3386    1.0000 </r>
       <r>   -4.3020    1.0000 </r>
       <r>   -4.0490    1.0000 </r>
       <r>   -3.9420    1.0000 </r>
       <r>   -3.9418    1.0000 </r>
       <r>   -3.6314    1.0000 </r>
       <r>   -3.6282    1.0000 </r>
       <r>   -3.6149    1.0000 </r>
       <r>   -3.5984    1.0000 </r>
       <r>   -3.5594    1.0000 </r>
       <r>   -3.5234    1.0000 </r>
       <r>   -3.5146    1.0000 </r>
       <r>   -3.5127    1.0000 </r>
       <r>   -3.3591    1.0000 </r>
       <r>   -3.3215    1.0000 </r>
       <r>   -3.3188    1.0000 </r>
       <r>   -3.3071    1.0000 </r>
       <r>   -3.3044    1.0000 </r>
       <r>   -3.2525    1.0000 </r>
       <r>   -3.2513    1.0000 </r>
       <r>   -3.2206    1.0000 </r>
       <r>   -3.1832    1.0000 </r>
       <r>   -3.1742    1.0000 </r>
       <r>   -3.1717    1.0000 </r>
       <r>   -3.0984    1.0000 </r>
       <r>   -3.0984    1.0000 </r>
       <r>   -3.0977    1.0000 </r>
       <r>   -3.0970    1.0000 </r>
       <r>   -3.0970    1.0000 </r>
       <r>   -3.0968    1.0000 </r>
       <r>   -3.0962    1.0000 </r>
       <r>   -3.0962    1.0000 </r>
       <r>   -3.0955    1.0000 </r>
       <r>   -3.0953    1.0000 </r>
       <r>   -3.0953    1.0000 </r>
       <r>   -3.0951    1.0000 </r>
       <r>   -3.0221    1.0000 </r>
       <r>   -3.0200    1.0000 </r>
       <r>   -2.9690    1.0000 </r>
       <r>   -2.9689    1.0000 </r>
       <r>   -2.9689    1.0000 </r>
       <r>   -2.9688    1.0000 </r>
       <r>   -2.9688    1.0000 </r>
       <r>   -2.9687    1.0000 </r>
       <r>   -2.9671    1.0000 </r>
       <r>   -2.9265    1.0000 </r>
       <r>   -2.9264    1.0000 </r>
       <r>   -2.9219    1.0000 </r>
       <r>   -2.9217    1.0000 </r>
       <r>   -2.9192    1.0000 </r>
       <r>   -2.9190    1.0000 </r>
       <r>   -2.9133    1.0000 </r>
       <r>   -2.9132    1.0000 </r>
       <r>   -2.9086    1.0000 </r>
       <r>   -2.9037    1.0000 </r>
       <r>   -2.9026    1.0000 </r>
       <r>   -2.8967    1.0000 </r>
       <r>   -2.8939    1.0000 </r>
       <r>   -2.8925    1.0000 </r>
       <r>   -2.8878    1.0000 </r>
       <r>   -2.8860    1.0000 </r>
       <r>   -2.8822    1.0000 </r>
       <r>   -2.8822    1.0000 </r>
       <r>   -2.8802    1.0000 </r>
       <r>   -2.8802    1.0000 </r>
       <r>   -2.8758    1.0000 </r>
       <r>   -2.8758    1.0000 </r>
       <r>   -2.8732    1.0000 </r>
       <r>   -2.8732    1.0000 </r>
       <r>   -2.8599    1.0000 </r>
       <r>   -2.8298    1.0000 </r>
       <r>   -2.8294    1.0000 </r>
       <r>   -2.8034    1.0000 </r>
       <r>   -2.8029    1.0000 </r>
       <r>   -2.7928    1.0000 </r>
       <r>   -2.7721    1.0000 </r>
       <r>   -2.7721    1.0000 </r>
       <r>   -2.7719    1.0000 </r>
       <r>   -2.7709    1.0000 </r>
       <r>   -2.7676    1.0000 </r>
       <r>   -2.7676    1.0000 </r>
       <r>   -2.7625    1.0000 </r>
       <r>   -2.7625    1.0000 </r>
       <r>   -2.7597    1.0000 </r>
       <r>   -2.7594    1.0000 </r>
       <r>   -2.7587    1.0000 </r>
       <r>   -2.7587    1.0000 </r>
       <r>   -2.4052    1.0000 </r>
       <r>   -2.2454    1.0000 </r>
       <r>   -2.2432    1.0000 </r>
       <r>   -2.2172    1.0000 </r>
       <r>   -2.1191    1.0000 </r>
       <r>   -2.0979    1.0000 </r>
       <r>   -2.0920    1.0000 </r>
       <r>   -2.0917    1.0000 </r>
       <r>   -2.0875    1.0000 </r>
       <r>   -2.0222    1.0000 </r>
       <r>   -2.0221    1.0000 </r>
       <r>   -1.9519    1.0000 </r>
       <r>   -1.9503    1.0000 </r>
       <r>   -1.9017    1.0000 </r>
       <r>   -1.7147    1.0000 </r>
       <r>   -1.7146    1.0000 </r>
       <r>   -1.7145    1.0000 </r>
       <r>   -1.7099    1.0000 </r>
       <r>   -1.7099    1.0000 </r>
       <r>   -1.7098    1.0000 </r>
       <r>   -1.6905    1.0000 </r>
       <r>   -1.6904    1.0000 </r>
       <r>   -1.6813    1.0000 </r>
       <r>   -1.6656    1.0000 </r>
       <r>   -1.6375    1.0000 </r>
       <r>   -1.6370    1.0000 </r>
       <r>   -1.5951    1.0000 </r>
       <r>   -1.5930    1.0000 </r>
       <r>   -1.5807    1.0000 </r>
       <r>   -1.5807    1.0000 </r>
       <r>   -1.5806    1.0000 </r>
       <r>   -1.5790    1.0000 </r>
       <r>   -1.5717    1.0000 </r>
       <r>   -1.5700    1.0000 </r>
       <r>   -1.5481    1.0000 </r>
       <r>   -1.5273    1.0000 </r>
       <r>   -1.5187    1.0000 </r>
       <r>   -1.5058    1.0000 </r>
       <r>   -1.5025    1.0000 </r>
       <r>   -1.5024    1.0000 </r>
       <r>   -1.5012    1.0000 </r>
       <r>   -1.4999    1.0000 </r>
       <r>   -1.4999    1.0000 </r>
       <r>   -1.4980    1.0000 </r>
       <r>   -1.4918    1.0000 </r>
       <r>   -1.4915    1.0000 </r>
       <r>   -1.4914    1.0000 </r>
       <r>   -1.4907    1.0000 </r>
       <r>   -1.4895    1.0000 </r>
       <r>   -1.4876    1.0000 </r>
       <r>   -1.4876    1.0000 </r>
       <r>   -1.4875    1.0000 </r>
       <r>   -1.4815    1.0000 </r>
       <r>   -1.4461    1.0000 </r>
       <r>   -1.4447    1.0000 </r>
       <r>   -1.4305    1.0000 </r>
       <r>   -1.4304    1.0000 </r>
       <r>   -1.4303    1.0000 </r>
       <r>   -1.3888    1.0000 </r>
       <r>   -1.3784    1.0000 </r>
       <r>   -1.3784    1.0000 </r>
       <r>   -1.3751    1.0000 </r>
       <r>   -1.3717    1.0000 </r>
       <r>   -1.3711    1.0000 </r>
       <r>   -1.3637    1.0000 </r>
       <r>   -1.3637    1.0000 </r>
       <r>   -1.3629    1.0000 </r>
       <r>   -1.3596    1.0000 </r>
       <r>   -1.3596    1.0000 </r>
       <r>   -1.3595    1.0000 </r>
       <r>   -1.2386    1.0000 </r>
       <r>   -1.2269    1.0000 </r>
       <r>   -1.2195    1.0000 </r>
       <r>   -1.1524    1.0000 </r>
       <r>   -1.1518    1.0000 </r>
       <r>   -1.1518    1.0000 </r>
       <r>   -1.1506    1.0000 </r>
       <r>   -1.1506    1.0000 </r>
       <r>   -1.1497    1.0000 </r>
       <r>   -1.1495    1.0000 </r>
       <r>   -1.1490    1.0000 </r>
       <r>   -1.1481    1.0000 </r>
       <r>   -1.1474    1.0000 </r>
       <r>   -1.1474    1.0000 </r>
       <r>   -1.1462    1.0000 </r>
       <r>   -1.1462    1.0000 </r>
       <r>   -1.1452    1.0000 </r>
       <r>   -1.1255    1.0000 </r>
       <r>   -1.1059    1.0000 </r>
       <r>   -1.0195    1.0000 </r>
       <r>   -1.0194    1.0000 </r>
       <r>   -1.0193    1.0000 </r>
       <r>   -1.0191    1.0000 </r>
       <r>   -1.0190    1.0000 </r>
       <r>   -1.0190    1.0000 </r>
       <r>   -1.0097    1.0000 </r>
       <r>   -1.0081    1.0000 </r>
       <r>   -0.9941    1.0000 </r>
       <r>   -0.8613    1.0000 </r>
       <r>   -0.8611    1.0000 </r>
       <r>   -0.8600    1.0000 </r>
       <r>   -0.8514    1.0000 </r>
       <r>   -0.8513    1.0000 </r>
       <r>   -0.8493    1.0000 </r>
       <r>   -0.8433    1.0000 </r>
       <r>   -0.8432    1.0000 </r>
       <r>   -0.8347    1.0000 </r>
       <r>   -0.8341    1.0000 </r>
       <r>   -0.8340    1.0000 </r>
       <r>   -0.8256    1.0000 </r>
       <r>   -0.7530    1.0000 </r>
       <r>   -0.7458    1.0000 </r>
       <r>   -0.7458    1.0000 </r>
       <r>   -0.7436    1.0000 </r>
       <r>   -0.7436    1.0000 </r>
       <r>   -0.7419    1.0000 </r>
       <r>   -0.7229    1.0000 </r>
       <r>   -0.7212    1.0000 </r>
       <r>   -0.7211    1.0000 </r>
       <r>   -0.7156    1.0000 </r>
       <r>   -0.7155    1.0000 </r>
       <r>   -0.7128    1.0000 </r>
       <r>   -0.4606    1.0000 </r>
       <r>   -0.4599    1.0000 </r>
       <r>   -0.4257    1.0000 </r>
       <r>   -0.3429    1.0000 </r>
       <r>   -0.3388    1.0000 </r>
       <r>   -0.3386    1.0000 </r>
       <r>   -0.3351    1.0000 </r>
       <r>   -0.2592    1.0000 </r>
       <r>   -0.2586    1.0000 </r>
       <r>   -0.1365    1.0000 </r>
       <r>   -0.1261    1.0000 </r>
       <r>   -0.1260    1.0000 </r>
       <r>   -0.1223    1.0000 </r>
       <r>   -0.1222    1.0000 </r>
       <r>   -0.1207    1.0000 </r>
       <r>   -0.0932    1.0000 </r>
       <r>   -0.0829    1.0000 </r>
       <r>   -0.0386    1.0000 </r>
       <r>    0.0027    1.0000 </r>
       <r>    0.0040    1.0000 </r>
       <r>    0.1438    1.0000 </r>
       <r>    0.2135    1.0000 </r>
       <r>    0.2160    1.0000 </r>
       <r>    0.2169    1.0000 </r>
       <r>    0.2172    1.0000 </r>
       <r>    0.2196    1.0000 </r>
       <r>    0.2198    1.0000 </r>
       <r>    0.2226    1.0000 </r>
       <r>    0.2234    1.0000 </r>
       <r>    0.2289    1.0000 </r>
       <r>    0.2361    1.0000 </r>
       <r>    0.2363    1.0000 </r>
       <r>    0.2392    1.0000 </r>
       <r>    0.2394    1.0000 </r>
       <r>    0.2446    1.0000 </r>
       <r>    0.2479    1.0000 </r>
       <r>    0.3443    1.0000 </r>
       <r>    0.3450    1.0000 </r>
       <r>    0.3537    1.0000 </r>
       <r>    0.3553    1.0000 </r>
       <r>    0.3553    1.0000 </r>
       <r>    0.3604    1.0000 </r>
       <r>    0.3605    1.0000 </r>
       <r>    0.3629    1.0000 </r>
       <r>    0.4275    1.0000 </r>
       <r>    0.4370    1.0000 </r>
       <r>    0.4370    1.0000 </r>
       <r>    0.4382    1.0000 </r>
       <r>    0.4383    1.0000 </r>
       <r>    0.4405    1.0000 </r>
       <r>    0.4518    1.0000 </r>
       <r>    0.5754    1.0000 </r>
       <r>    0.6352    1.0000 </r>
       <r>    0.6358    1.0000 </r>
       <r>    0.7159    1.0000 </r>
       <r>    0.7165    1.0000 </r>
       <r>    0.7401    1.0000 </r>
       <r>    0.7444    1.0000 </r>
       <r>    0.7471    1.0000 </r>
       <r>    0.7760    1.0000 </r>
       <r>    0.7800    1.0000 </r>
       <r>    0.7841    1.0000 </r>
       <r>    0.9023    1.0000 </r>
       <r>    0.9244    1.0000 </r>
       <r>    0.9256    1.0000 </r>
       <r>    0.9257    1.0000 </r>
       <r>    0.9419    1.0000 </r>
       <r>    0.9420    1.0000 </r>
       <r>    0.9422    1.0000 </r>
       <r>    0.9459    1.0000 </r>
       <r>    0.9484    1.0000 </r>
       <r>    0.9521    1.0000 </r>
       <r>    0.9521    1.0000 </r>
       <r>    0.9630    1.0000 </r>
       <r>    0.9630    1.0000 </r>
       <r>    0.9647    1.0000 </r>
       <r>    0.9665    1.0000 </r>
       <r>    1.1330    1.0000 </r>
       <r>    1.1331    1.0000 </r>
       <r>    1.1348    1.0000 </r>
       <r>    1.1348    1.0000 </r>
       <r>    1.1803    1.0000 </r>
       <r>    1.1826    1.0000 </r>
       <r>    1.1826    1.0000 </r>
       <r>    1.2613    1.0000 </r>
       <r>    1.2614    1.0000 </r>
       <r>    1.4104    1.0000 </r>
       <r>    1.4106    1.0000 </r>
       <r>    1.4895    1.0000 </r>
       <r>    1.5435    1.0000 </r>
       <r>    1.5828    1.0000 </r>
       <r>    1.5831    1.0000 </r>
       <r>    1.6173    1.0000 </r>
       <r>    1.6176    1.0000 </r>
       <r>    1.6459    1.0000 </r>
       <r>    1.6655    1.0000 </r>
       <r>    1.6657    1.0000 </r>
       <r>    1.6679    1.0000 </r>
       <r>    1.7224    1.0000 </r>
       <r>    1.7253    1.0000 </r>
       <r>    1.7257    1.0000 </r>
       <r>    1.7646    1.0000 </r>
       <r>    1.7880    1.0000 </r>
       <r>    1.7902    1.0000 </r>
       <r>    1.7903    1.0000 </r>
       <r>    1.8045    1.0000 </r>
       <r>    1.8046    1.0000 </r>
       <r>    1.8133    1.0000 </r>
       <r>    1.8133    1.0000 </r>
       <r>    1.8232    1.0000 </r>
       <r>    1.8233    1.0000 </r>
       <r>    1.8251    1.0000 </r>
       <r>    1.8269    1.0000 </r>
       <r>    1.8932    1.0000 </r>
       <r>    1.8942    1.0000 </r>
       <r>    1.8943    1.0000 </r>
       <r>    2.0426    1.0000 </r>
       <r>    2.0452    1.0000 </r>
       <r>    2.3639    1.0000 </r>
       <r>    2.3726    1.0000 </r>
       <r>    2.3758    1.0000 </r>
       <r>    2.3788    1.0000 </r>
       <r>    2.5006    1.0000 </r>
       <r>    2.5006    1.0000 </r>
       <r>    4.6600    1.0000 </r>
       <r>    5.9136    0.0000 </r>
       <r>    6.4833    0.0000 </r>
       <r>    6.4842    0.0000 </r>
       <r>    6.6876    0.0000 </r>
       <r>    6.7484    0.0000 </r>
       <r>    6.8612    0.0000 </r>
       <r>    6.8613    0.0000 </r>
       <r>    6.8660    0.0000 </r>
       <r>    7.1104    0.0000 </r>
       <r>    7.1834    0.0000 </r>
       <r>    7.1835    0.0000 </r>
       <r>    7.1886    0.0000 </r>
       <r>    7.1886    0.0000 </r>
       <r>    7.2621    0.0000 </r>
       <r>    7.2636    0.0000 </r>
       <r>    7.3168    0.0000 </r>
       <r>    7.3168    0.0000 </r>
       <r>    7.3519    0.0000 </r>
       <r>    7.4104    0.0000 </r>
       <r>    7.4121    0.0000 </r>
       <r>    7.5193    0.0000 </r>
       <r>    7.5202    0.0000 </r>
       <r>    7.5718    0.0000 </r>
       <r>    7.5786    0.0000 </r>
       <r>    7.5793    0.0000 </r>
       <r>    7.5971    0.0000 </r>
       <r>    7.6303    0.0000 </r>
       <r>    7.6313    0.0000 </r>
       <r>    7.6359    0.0000 </r>
       <r>    7.6943    0.0000 </r>
       <r>    7.6945    0.0000 </r>
       <r>    7.7144    0.0000 </r>
       <r>    7.7223    0.0000 </r>
       <r>    7.7266    0.0000 </r>
       <r>    7.7266    0.0000 </r>
       <r>    7.7427    0.0000 </r>
       <r>    7.7427    0.0000 </r>
       <r>    7.7496    0.0000 </r>
       <r>    7.7533    0.0000 </r>
       <r>    7.7565    0.0000 </r>
       <r>    7.7567    0.0000 </r>
       <r>    7.8175    0.0000 </r>
       <r>    7.8176    0.0000 </r>
       <r>    7.8191    0.0000 </r>
       <r>    8.0142    0.0000 </r>
       <r>    8.0829    0.0000 </r>
       <r>    8.0838    0.0000 </r>
       <r>    8.0959    0.0000 </r>
       <r>    8.1455    0.0000 </r>
       <r>    8.1459    0.0000 </r>
       <r>    8.1865    0.0000 </r>
       <r>    8.1866    0.0000 </r>
       <r>    8.2147    0.0000 </r>
       <r>    8.2206    0.0000 </r>
       <r>    8.2216    0.0000 </r>
       <r>    8.2277    0.0000 </r>
       <r>    8.3064    0.0000 </r>
       <r>    8.3201    0.0000 </r>
       <r>    8.3202    0.0000 </r>
       <r>    8.3240    0.0000 </r>
       <r>    8.3311    0.0000 </r>
       <r>    8.3432    0.0000 </r>
       <r>    8.3432    0.0000 </r>
       <r>    8.3482    0.0000 </r>
       <r>    8.3482    0.0000 </r>
       <r>    8.3623    0.0000 </r>
       <r>    8.3630    0.0000 </r>
       <r>    8.3631    0.0000 </r>
       <r>    8.3632    0.0000 </r>
       <r>    8.3661    0.0000 </r>
       <r>    8.8096    0.0000 </r>
       <r>    8.8859    0.0000 </r>
       <r>    8.8866    0.0000 </r>
       <r>    9.0800    0.0000 </r>
       <r>    9.0814    0.0000 </r>
       <r>    9.0821    0.0000 </r>
       <r>    9.0831    0.0000 </r>
       <r>    9.1293    0.0000 </r>
       <r>    9.1304    0.0000 </r>
       <r>    9.1311    0.0000 </r>
       <r>    9.1582    0.0000 </r>
       <r>    9.1710    0.0000 </r>
       <r>    9.1966    0.0000 </r>
       <r>    9.1970    0.0000 </r>
       <r>    9.2199    0.0000 </r>
       <r>    9.2262    0.0000 </r>
       <r>    9.2269    0.0000 </r>
       <r>    9.2403    0.0000 </r>
       <r>    9.2735    0.0000 </r>
       <r>    9.2741    0.0000 </r>
       <r>    9.3897    0.0000 </r>
       <r>    9.3899    0.0000 </r>
       <r>    9.3902    0.0000 </r>
       <r>    9.4331    0.0000 </r>
       <r>    9.5275    0.0000 </r>
       <r>    9.5277    0.0000 </r>
       <r>    9.6647    0.0000 </r>
       <r>    9.7648    0.0000 </r>
       <r>    9.7652    0.0000 </r>
       <r>    9.7890    0.0000 </r>
       <r>    9.7895    0.0000 </r>
       <r>    9.7997    0.0000 </r>
       <r>    9.9509    0.0000 </r>
       <r>    9.9520    0.0000 </r>
       <r>    9.9521    0.0000 </r>
       <r>    9.9721    0.0000 </r>
       <r>    9.9744    0.0000 </r>
       <r>    9.9744    0.0000 </r>
       <r>   10.0706    0.0000 </r>
       <r>   10.1252    0.0000 </r>
       <r>   10.1272    0.0000 </r>
       <r>   10.1444    0.0000 </r>
       <r>   10.1445    0.0000 </r>
       <r>   10.1680    0.0000 </r>
       <r>   10.1824    0.0000 </r>
       <r>   10.1829    0.0000 </r>
       <r>   10.1911    0.0000 </r>
       <r>   10.1962    0.0000 </r>
       <r>   10.1973    0.0000 </r>
       <r>   10.2728    0.0000 </r>
       <r>   10.5408    0.0000 </r>
       <r>   10.6160    0.0000 </r>
       <r>   10.6172    0.0000 </r>
       <r>   10.6400    0.0000 </r>
       <r>   10.6401    0.0000 </r>
       <r>   10.6626    0.0000 </r>
       <r>   10.8076    0.0000 </r>
       <r>   10.8147    0.0000 </r>
       <r>   10.8154    0.0000 </r>
       <r>   10.8192    0.0000 </r>
       <r>   10.8194    0.0000 </r>
       <r>   10.8210    0.0000 </r>
       <r>   11.3190    0.0000 </r>
       <r>   11.3250    0.0000 </r>
       <r>   11.3442    0.0000 </r>
       <r>   11.4136    0.0000 </r>
       <r>   11.4465    0.0000 </r>
       <r>   11.5053    0.0000 </r>
       <r>   11.5116    0.0000 </r>
       <r>   11.5447    0.0000 </r>
       <r>   11.5652    0.0000 </r>
       <r>   11.6130    0.0000 </r>
       <r>   11.6300    0.0000 </r>
       <r>   11.6705    0.0000 </r>
       <r>   11.7027    0.0000 </r>
       <r>   11.7458    0.0000 </r>
       <r>   11.7578    0.0000 </r>
       <r>   11.7740    0.0000 </r>
       <r>   11.7984    0.0000 </r>
       <r>   11.8268    0.0000 </r>
       <r>   11.8822    0.0000 </r>
      </set>
      <set comment="kpoint 6">
       <r>  -17.2936    1.0000 </r>
       <r>  -15.7745    1.0000 </r>
       <r>  -15.7305    1.0000 </r>
       <r>  -15.4199    1.0000 </r>
       <r>  -15.3040    1.0000 </r>
       <r>  -15.2754    1.0000 </r>
       <r>  -15.2419    1.0000 </r>
       <r>  -15.2055    1.0000 </r>
       <r>  -15.1441    1.0000 </r>
       <r>  -15.0897    1.0000 </r>
       <r>  -15.0598    1.0000 </r>
       <r>  -15.0342    1.0000 </r>
       <r>  -15.0149    1.0000 </r>
       <r>  -14.9845    1.0000 </r>
       <r>  -14.9841    1.0000 </r>
       <r>  -14.9069    1.0000 </r>
       <r>  -14.9000    1.0000 </r>
       <r>  -14.8547    1.0000 </r>
       <r>  -14.7582    1.0000 </r>
       <r>  -14.7572    1.0000 </r>
       <r>  -14.6208    1.0000 </r>
       <r>  -14.5682    1.0000 </r>
       <r>  -14.5528    1.0000 </r>
       <r>  -14.4666    1.0000 </r>
       <r>  -14.4631    1.0000 </r>
       <r>  -14.4597    1.0000 </r>
       <r>  -14.4586    1.0000 </r>
       <r>  -14.4257    1.0000 </r>
       <r>  -14.4030    1.0000 </r>
       <r>  -14.3960    1.0000 </r>
       <r>  -14.3856    1.0000 </r>
       <r>  -14.3445    1.0000 </r>
       <r>  -14.2473    1.0000 </r>
       <r>  -14.2457    1.0000 </r>
       <r>  -14.2434    1.0000 </r>
       <r>  -14.2428    1.0000 </r>
       <r>  -14.2074    1.0000 </r>
       <r>  -14.2067    1.0000 </r>
       <r>  -14.1726    1.0000 </r>
       <r>  -14.1497    1.0000 </r>
       <r>  -14.1108    1.0000 </r>
       <r>  -14.0339    1.0000 </r>
       <r>  -13.9977    1.0000 </r>
       <r>  -13.9974    1.0000 </r>
       <r>  -13.9474    1.0000 </r>
       <r>  -13.7871    1.0000 </r>
       <r>  -13.7423    1.0000 </r>
       <r>  -13.7403    1.0000 </r>
       <r>  -13.7115    1.0000 </r>
       <r>  -13.7112    1.0000 </r>
       <r>  -13.7035    1.0000 </r>
       <r>  -13.6818    1.0000 </r>
       <r>  -13.6575    1.0000 </r>
       <r>  -13.6549    1.0000 </r>
       <r>  -13.6044    1.0000 </r>
       <r>  -13.5331    1.0000 </r>
       <r>  -13.5327    1.0000 </r>
       <r>  -13.5184    1.0000 </r>
       <r>  -13.5183    1.0000 </r>
       <r>  -13.5041    1.0000 </r>
       <r>  -13.3592    1.0000 </r>
       <r>  -13.3393    1.0000 </r>
       <r>  -13.2559    1.0000 </r>
       <r>  -13.2233    1.0000 </r>
       <r>  -13.1112    1.0000 </r>
       <r>  -13.0688    1.0000 </r>
       <r>  -13.0642    1.0000 </r>
       <r>  -13.0617    1.0000 </r>
       <r>  -13.0604    1.0000 </r>
       <r>  -13.0334    1.0000 </r>
       <r>  -13.0265    1.0000 </r>
       <r>  -13.0229    1.0000 </r>
       <r>  -13.0170    1.0000 </r>
       <r>  -12.9753    1.0000 </r>
       <r>  -12.9300    1.0000 </r>
       <r>  -12.8943    1.0000 </r>
       <r>  -12.8919    1.0000 </r>
       <r>  -12.8889    1.0000 </r>
       <r>  -12.8887    1.0000 </r>
       <r>  -12.8787    1.0000 </r>
       <r>  -12.8779    1.0000 </r>
       <r>  -12.8771    1.0000 </r>
       <r>  -12.8770    1.0000 </r>
       <r>  -12.8658    1.0000 </r>
       <r>  -12.8603    1.0000 </r>
       <r>  -12.8562    1.0000 </r>
       <r>  -12.8507    1.0000 </r>
       <r>  -12.8501    1.0000 </r>
       <r>  -12.7155    1.0000 </r>
       <r>  -12.7152    1.0000 </r>
       <r>  -12.7146    1.0000 </r>
       <r>  -12.7146    1.0000 </r>
       <r>  -12.6912    1.0000 </r>
       <r>  -12.6089    1.0000 </r>
       <r>  -12.5988    1.0000 </r>
       <r>  -12.5769    1.0000 </r>
       <r>  -12.5727    1.0000 </r>
       <r>  -12.5510    1.0000 </r>
       <r>  -12.5266    1.0000 </r>
       <r>  -12.4964    1.0000 </r>
       <r>  -12.4371    1.0000 </r>
       <r>  -12.4293    1.0000 </r>
       <r>  -12.4241    1.0000 </r>
       <r>  -12.4227    1.0000 </r>
       <r>  -12.3425    1.0000 </r>
       <r>  -12.3385    1.0000 </r>
       <r>  -12.3220    1.0000 </r>
       <r>  -12.3173    1.0000 </r>
       <r>  -12.2466    1.0000 </r>
       <r>  -12.2453    1.0000 </r>
       <r>  -12.2371    1.0000 </r>
       <r>  -12.2327    1.0000 </r>
       <r>  -12.2188    1.0000 </r>
       <r>  -12.2177    1.0000 </r>
       <r>  -12.2079    1.0000 </r>
       <r>  -12.2047    1.0000 </r>
       <r>  -12.1789    1.0000 </r>
       <r>  -12.1764    1.0000 </r>
       <r>  -12.1763    1.0000 </r>
       <r>  -12.1699    1.0000 </r>
       <r>  -12.0959    1.0000 </r>
       <r>  -12.0958    1.0000 </r>
       <r>  -12.0887    1.0000 </r>
       <r>  -12.0872    1.0000 </r>
       <r>  -12.0871    1.0000 </r>
       <r>  -12.0812    1.0000 </r>
       <r>  -11.9512    1.0000 </r>
       <r>  -11.9477    1.0000 </r>
       <r>  -11.9468    1.0000 </r>
       <r>  -11.9433    1.0000 </r>
       <r>  -11.8162    1.0000 </r>
       <r>  -11.8153    1.0000 </r>
       <r>  -11.8084    1.0000 </r>
       <r>  -11.8076    1.0000 </r>
       <r>  -11.8049    1.0000 </r>
       <r>  -11.8038    1.0000 </r>
       <r>  -11.7848    1.0000 </r>
       <r>  -11.7846    1.0000 </r>
       <r>  -11.7793    1.0000 </r>
       <r>  -11.7790    1.0000 </r>
       <r>  -11.6685    1.0000 </r>
       <r>  -11.6685    1.0000 </r>
       <r>  -11.6613    1.0000 </r>
       <r>  -11.6612    1.0000 </r>
       <r>   -8.3631    1.0000 </r>
       <r>   -7.2842    1.0000 </r>
       <r>   -7.2708    1.0000 </r>
       <r>   -6.7930    1.0000 </r>
       <r>   -6.7021    1.0000 </r>
       <r>   -6.6838    1.0000 </r>
       <r>   -6.4393    1.0000 </r>
       <r>   -6.4051    1.0000 </r>
       <r>   -6.3233    1.0000 </r>
       <r>   -6.3091    1.0000 </r>
       <r>   -6.3064    1.0000 </r>
       <r>   -6.3042    1.0000 </r>
       <r>   -6.2998    1.0000 </r>
       <r>   -6.2897    1.0000 </r>
       <r>   -6.2753    1.0000 </r>
       <r>   -6.2744    1.0000 </r>
       <r>   -6.2686    1.0000 </r>
       <r>   -6.2682    1.0000 </r>
       <r>   -6.2170    1.0000 </r>
       <r>   -6.2158    1.0000 </r>
       <r>   -6.2117    1.0000 </r>
       <r>   -6.2072    1.0000 </r>
       <r>   -6.1962    1.0000 </r>
       <r>   -6.1945    1.0000 </r>
       <r>   -6.1590    1.0000 </r>
       <r>   -6.1588    1.0000 </r>
       <r>   -6.1491    1.0000 </r>
       <r>   -6.1490    1.0000 </r>
       <r>   -6.0726    1.0000 </r>
       <r>   -6.0712    1.0000 </r>
       <r>   -5.9356    1.0000 </r>
       <r>   -5.9282    1.0000 </r>
       <r>   -5.9106    1.0000 </r>
       <r>   -5.9032    1.0000 </r>
       <r>   -5.8420    1.0000 </r>
       <r>   -5.7896    1.0000 </r>
       <r>   -5.7818    1.0000 </r>
       <r>   -5.7696    1.0000 </r>
       <r>   -5.7689    1.0000 </r>
       <r>   -5.7683    1.0000 </r>
       <r>   -5.7649    1.0000 </r>
       <r>   -5.7618    1.0000 </r>
       <r>   -5.7586    1.0000 </r>
       <r>   -5.7582    1.0000 </r>
       <r>   -5.7571    1.0000 </r>
       <r>   -5.7508    1.0000 </r>
       <r>   -5.7367    1.0000 </r>
       <r>   -5.6862    1.0000 </r>
       <r>   -5.6542    1.0000 </r>
       <r>   -5.6424    1.0000 </r>
       <r>   -5.6232    1.0000 </r>
       <r>   -5.6232    1.0000 </r>
       <r>   -5.6200    1.0000 </r>
       <r>   -5.6199    1.0000 </r>
       <r>   -5.2295    1.0000 </r>
       <r>   -5.2272    1.0000 </r>
       <r>   -5.2246    1.0000 </r>
       <r>   -5.2242    1.0000 </r>
       <r>   -5.2239    1.0000 </r>
       <r>   -5.2200    1.0000 </r>
       <r>   -5.2192    1.0000 </r>
       <r>   -5.2190    1.0000 </r>
       <r>   -5.2181    1.0000 </r>
       <r>   -5.2175    1.0000 </r>
       <r>   -5.2173    1.0000 </r>
       <r>   -5.2168    1.0000 </r>
       <r>   -5.1178    1.0000 </r>
       <r>   -5.1088    1.0000 </r>
       <r>   -5.0908    1.0000 </r>
       <r>   -5.0907    1.0000 </r>
       <r>   -5.0879    1.0000 </r>
       <r>   -5.0879    1.0000 </r>
       <r>   -5.0875    1.0000 </r>
       <r>   -5.0875    1.0000 </r>
       <r>   -5.0254    1.0000 </r>
       <r>   -4.9213    1.0000 </r>
       <r>   -4.8323    1.0000 </r>
       <r>   -4.6135    1.0000 </r>
       <r>   -4.5526    1.0000 </r>
       <r>   -4.5400    1.0000 </r>
       <r>   -4.4756    1.0000 </r>
       <r>   -4.4732    1.0000 </r>
       <r>   -4.4721    1.0000 </r>
       <r>   -4.4711    1.0000 </r>
       <r>   -4.4706    1.0000 </r>
       <r>   -4.4696    1.0000 </r>
       <r>   -4.4680    1.0000 </r>
       <r>   -4.4678    1.0000 </r>
       <r>   -4.3414    1.0000 </r>
       <r>   -4.3412    1.0000 </r>
       <r>   -4.3408    1.0000 </r>
       <r>   -4.3407    1.0000 </r>
       <r>   -4.3195    1.0000 </r>
       <r>   -4.2888    1.0000 </r>
       <r>   -4.2034    1.0000 </r>
       <r>   -4.0968    1.0000 </r>
       <r>   -4.0881    1.0000 </r>
       <r>   -4.0878    1.0000 </r>
       <r>   -4.0844    1.0000 </r>
       <r>   -4.0835    1.0000 </r>
       <r>   -4.0746    1.0000 </r>
       <r>   -4.0744    1.0000 </r>
       <r>   -4.0713    1.0000 </r>
       <r>   -4.0702    1.0000 </r>
       <r>   -4.0274    1.0000 </r>
       <r>   -3.9502    1.0000 </r>
       <r>   -3.9501    1.0000 </r>
       <r>   -3.9467    1.0000 </r>
       <r>   -3.9466    1.0000 </r>
       <r>   -3.9080    1.0000 </r>
       <r>   -3.8666    1.0000 </r>
       <r>   -3.7858    1.0000 </r>
       <r>   -3.6234    1.0000 </r>
       <r>   -3.6207    1.0000 </r>
       <r>   -3.6157    1.0000 </r>
       <r>   -3.6143    1.0000 </r>
       <r>   -3.6074    1.0000 </r>
       <r>   -3.6034    1.0000 </r>
       <r>   -3.6015    1.0000 </r>
       <r>   -3.5981    1.0000 </r>
       <r>   -3.5976    1.0000 </r>
       <r>   -3.4797    1.0000 </r>
       <r>   -3.4796    1.0000 </r>
       <r>   -3.4787    1.0000 </r>
       <r>   -3.4741    1.0000 </r>
       <r>   -3.4741    1.0000 </r>
       <r>   -3.4683    1.0000 </r>
       <r>   -3.4675    1.0000 </r>
       <r>   -3.4659    1.0000 </r>
       <r>   -3.4651    1.0000 </r>
       <r>   -3.3906    1.0000 </r>
       <r>   -3.3582    1.0000 </r>
       <r>   -3.3470    1.0000 </r>
       <r>   -3.3423    1.0000 </r>
       <r>   -3.3395    1.0000 </r>
       <r>   -3.3383    1.0000 </r>
       <r>   -3.3381    1.0000 </r>
       <r>   -3.1558    1.0000 </r>
       <r>   -3.0974    1.0000 </r>
       <r>   -3.0776    1.0000 </r>
       <r>   -3.0728    1.0000 </r>
       <r>   -3.0727    1.0000 </r>
       <r>   -3.0660    1.0000 </r>
       <r>   -3.0038    1.0000 </r>
       <r>   -2.9994    1.0000 </r>
       <r>   -2.9886    1.0000 </r>
       <r>   -2.9384    1.0000 </r>
       <r>   -2.9376    1.0000 </r>
       <r>   -2.8568    1.0000 </r>
       <r>   -2.8414    1.0000 </r>
       <r>   -2.7696    1.0000 </r>
       <r>   -2.7657    1.0000 </r>
       <r>   -2.7554    1.0000 </r>
       <r>   -2.7268    1.0000 </r>
       <r>   -2.6769    1.0000 </r>
       <r>   -2.6739    1.0000 </r>
       <r>   -2.6723    1.0000 </r>
       <r>   -2.6632    1.0000 </r>
       <r>   -2.6415    1.0000 </r>
       <r>   -2.5481    1.0000 </r>
       <r>   -2.5456    1.0000 </r>
       <r>   -2.5452    1.0000 </r>
       <r>   -2.5188    1.0000 </r>
       <r>   -2.4673    1.0000 </r>
       <r>   -2.3899    1.0000 </r>
       <r>   -2.3864    1.0000 </r>
       <r>   -2.3775    1.0000 </r>
       <r>   -2.3749    1.0000 </r>
       <r>   -2.3729    1.0000 </r>
       <r>   -2.3722    1.0000 </r>
       <r>   -2.3718    1.0000 </r>
       <r>   -2.3713    1.0000 </r>
       <r>   -2.3698    1.0000 </r>
       <r>   -2.3680    1.0000 </r>
       <r>   -2.3662    1.0000 </r>
       <r>   -2.3479    1.0000 </r>
       <r>   -2.2864    1.0000 </r>
       <r>   -2.2632    1.0000 </r>
       <r>   -2.2577    1.0000 </r>
       <r>   -2.2411    1.0000 </r>
       <r>   -2.2407    1.0000 </r>
       <r>   -2.2405    1.0000 </r>
       <r>   -2.2402    1.0000 </r>
       <r>   -2.2363    1.0000 </r>
       <r>   -2.2100    1.0000 </r>
       <r>   -2.2069    1.0000 </r>
       <r>   -2.1990    1.0000 </r>
       <r>   -2.1658    1.0000 </r>
       <r>   -2.1585    1.0000 </r>
       <r>   -2.1461    1.0000 </r>
       <r>   -2.1337    1.0000 </r>
       <r>   -2.0975    1.0000 </r>
       <r>   -2.0917    1.0000 </r>
       <r>   -2.0911    1.0000 </r>
       <r>   -2.0862    1.0000 </r>
       <r>   -2.0857    1.0000 </r>
       <r>   -2.0575    1.0000 </r>
       <r>   -2.0571    1.0000 </r>
       <r>   -2.0507    1.0000 </r>
       <r>   -2.0505    1.0000 </r>
       <r>   -2.0135    1.0000 </r>
       <r>   -1.9645    1.0000 </r>
       <r>   -1.9431    1.0000 </r>
       <r>   -1.9431    1.0000 </r>
       <r>   -1.9365    1.0000 </r>
       <r>   -1.9330    1.0000 </r>
       <r>   -1.9330    1.0000 </r>
       <r>   -1.9310    1.0000 </r>
       <r>   -1.9067    1.0000 </r>
       <r>   -1.9052    1.0000 </r>
       <r>   -1.8931    1.0000 </r>
       <r>   -1.8839    1.0000 </r>
       <r>   -1.8631    1.0000 </r>
       <r>   -1.8604    1.0000 </r>
       <r>   -1.8599    1.0000 </r>
       <r>   -1.8585    1.0000 </r>
       <r>   -1.8577    1.0000 </r>
       <r>   -1.8566    1.0000 </r>
       <r>   -1.8561    1.0000 </r>
       <r>   -1.8549    1.0000 </r>
       <r>   -1.7788    1.0000 </r>
       <r>   -1.7787    1.0000 </r>
       <r>   -1.7777    1.0000 </r>
       <r>   -1.7776    1.0000 </r>
       <r>   -1.7744    1.0000 </r>
       <r>   -1.7741    1.0000 </r>
       <r>   -1.7728    1.0000 </r>
       <r>   -1.7727    1.0000 </r>
       <r>   -1.7458    1.0000 </r>
       <r>   -1.7436    1.0000 </r>
       <r>   -1.7414    1.0000 </r>
       <r>   -1.7410    1.0000 </r>
       <r>   -1.7175    1.0000 </r>
       <r>   -1.7078    1.0000 </r>
       <r>   -1.6889    1.0000 </r>
       <r>   -1.6636    1.0000 </r>
       <r>   -1.6452    1.0000 </r>
       <r>   -1.6452    1.0000 </r>
       <r>   -1.6449    1.0000 </r>
       <r>   -1.6448    1.0000 </r>
       <r>   -1.6093    1.0000 </r>
       <r>   -1.6092    1.0000 </r>
       <r>   -1.5845    1.0000 </r>
       <r>   -1.5842    1.0000 </r>
       <r>   -1.5799    1.0000 </r>
       <r>   -1.5594    1.0000 </r>
       <r>   -1.5548    1.0000 </r>
       <r>   -1.5497    1.0000 </r>
       <r>   -1.4639    1.0000 </r>
       <r>   -1.4480    1.0000 </r>
       <r>   -1.4411    1.0000 </r>
       <r>   -1.4316    1.0000 </r>
       <r>   -1.2643    1.0000 </r>
       <r>   -1.2558    1.0000 </r>
       <r>   -1.2534    1.0000 </r>
       <r>   -1.2353    1.0000 </r>
       <r>   -1.2350    1.0000 </r>
       <r>   -1.2246    1.0000 </r>
       <r>   -1.2237    1.0000 </r>
       <r>   -1.2091    1.0000 </r>
       <r>   -1.2069    1.0000 </r>
       <r>   -1.2068    1.0000 </r>
       <r>   -1.2063    1.0000 </r>
       <r>   -1.1923    1.0000 </r>
       <r>   -1.1880    1.0000 </r>
       <r>   -1.1870    1.0000 </r>
       <r>   -1.1839    1.0000 </r>
       <r>   -1.1583    1.0000 </r>
       <r>   -1.1193    1.0000 </r>
       <r>   -1.0879    1.0000 </r>
       <r>   -1.0878    1.0000 </r>
       <r>   -1.0825    1.0000 </r>
       <r>   -1.0823    1.0000 </r>
       <r>   -1.0560    1.0000 </r>
       <r>   -1.0167    1.0000 </r>
       <r>   -0.9357    1.0000 </r>
       <r>   -0.9306    1.0000 </r>
       <r>   -0.9160    1.0000 </r>
       <r>   -0.9099    1.0000 </r>
       <r>   -0.9086    1.0000 </r>
       <r>   -0.8594    1.0000 </r>
       <r>   -0.8451    1.0000 </r>
       <r>   -0.8350    1.0000 </r>
       <r>   -0.7782    1.0000 </r>
       <r>   -0.7318    1.0000 </r>
       <r>   -0.7044    1.0000 </r>
       <r>   -0.7021    1.0000 </r>
       <r>   -0.6563    1.0000 </r>
       <r>   -0.6385    1.0000 </r>
       <r>   -0.5976    1.0000 </r>
       <r>   -0.5949    1.0000 </r>
       <r>   -0.5293    1.0000 </r>
       <r>   -0.5184    1.0000 </r>
       <r>   -0.5175    1.0000 </r>
       <r>   -0.5151    1.0000 </r>
       <r>   -0.5140    1.0000 </r>
       <r>   -0.4618    1.0000 </r>
       <r>   -0.4580    1.0000 </r>
       <r>   -0.4578    1.0000 </r>
       <r>   -0.4568    1.0000 </r>
       <r>   -0.4535    1.0000 </r>
       <r>   -0.4530    1.0000 </r>
       <r>   -0.4530    1.0000 </r>
       <r>   -0.4488    1.0000 </r>
       <r>   -0.4181    1.0000 </r>
       <r>   -0.3835    1.0000 </r>
       <r>   -0.3834    1.0000 </r>
       <r>   -0.3781    1.0000 </r>
       <r>   -0.3522    1.0000 </r>
       <r>   -0.3493    1.0000 </r>
       <r>   -0.3476    1.0000 </r>
       <r>   -0.3462    1.0000 </r>
       <r>   -0.3266    1.0000 </r>
       <r>   -0.3261    1.0000 </r>
       <r>   -0.3258    1.0000 </r>
       <r>   -0.3254    1.0000 </r>
       <r>   -0.2795    1.0000 </r>
       <r>   -0.2652    1.0000 </r>
       <r>   -0.2639    1.0000 </r>
       <r>   -0.2585    1.0000 </r>
       <r>   -0.2555    1.0000 </r>
       <r>   -0.2543    1.0000 </r>
       <r>   -0.2527    1.0000 </r>
       <r>   -0.2250    1.0000 </r>
       <r>   -0.2243    1.0000 </r>
       <r>   -0.2178    1.0000 </r>
       <r>   -0.2147    1.0000 </r>
       <r>   -0.1407    1.0000 </r>
       <r>   -0.1388    1.0000 </r>
       <r>   -0.0460    1.0000 </r>
       <r>   -0.0092    1.0000 </r>
       <r>    0.0006    1.0000 </r>
       <r>    0.0095    1.0000 </r>
       <r>    0.0112    1.0000 </r>
       <r>    0.0181    1.0000 </r>
       <r>    0.0182    1.0000 </r>
       <r>    0.0351    1.0000 </r>
       <r>    0.0352    1.0000 </r>
       <r>    0.0489    1.0000 </r>
       <r>    0.1800    1.0000 </r>
       <r>    0.2782    1.0000 </r>
       <r>    0.3145    1.0000 </r>
       <r>    0.3384    1.0000 </r>
       <r>    0.3431    1.0000 </r>
       <r>    0.3453    1.0000 </r>
       <r>    0.3487    1.0000 </r>
       <r>    0.3508    1.0000 </r>
       <r>    0.3945    1.0000 </r>
       <r>    0.4201    1.0000 </r>
       <r>    0.4766    1.0000 </r>
       <r>    0.4773    1.0000 </r>
       <r>    0.4879    1.0000 </r>
       <r>    0.5105    1.0000 </r>
       <r>    0.5565    1.0000 </r>
       <r>    0.5583    1.0000 </r>
       <r>    0.5705    1.0000 </r>
       <r>    0.5770    1.0000 </r>
       <r>    0.5871    1.0000 </r>
       <r>    0.5890    1.0000 </r>
       <r>    0.6153    1.0000 </r>
       <r>    0.6289    1.0000 </r>
       <r>    0.6529    1.0000 </r>
       <r>    0.6940    1.0000 </r>
       <r>    0.7033    1.0000 </r>
       <r>    0.7277    1.0000 </r>
       <r>    0.7284    1.0000 </r>
       <r>    0.8537    1.0000 </r>
       <r>    0.8547    1.0000 </r>
       <r>    0.8566    1.0000 </r>
       <r>    0.8622    1.0000 </r>
       <r>    0.8649    1.0000 </r>
       <r>    0.8659    1.0000 </r>
       <r>    0.8662    1.0000 </r>
       <r>    0.8739    1.0000 </r>
       <r>    0.8752    1.0000 </r>
       <r>    0.8757    1.0000 </r>
       <r>    0.8837    1.0000 </r>
       <r>    0.8861    1.0000 </r>
       <r>    0.8902    1.0000 </r>
       <r>    0.8964    1.0000 </r>
       <r>    0.9045    1.0000 </r>
       <r>    0.9052    1.0000 </r>
       <r>    0.9936    1.0000 </r>
       <r>    1.0028    1.0000 </r>
       <r>    1.0577    1.0000 </r>
       <r>    1.0655    1.0000 </r>
       <r>    1.0779    1.0000 </r>
       <r>    1.0784    1.0000 </r>
       <r>    1.0941    1.0000 </r>
       <r>    1.0942    1.0000 </r>
       <r>    1.1015    1.0000 </r>
       <r>    1.1089    1.0000 </r>
       <r>    1.1093    1.0000 </r>
       <r>    1.2450    1.0000 </r>
       <r>    1.2604    1.0000 </r>
       <r>    1.3040    1.0000 </r>
       <r>    1.4339    1.0000 </r>
       <r>    1.4465    1.0000 </r>
       <r>    1.4565    1.0000 </r>
       <r>    1.4619    1.0000 </r>
       <r>    1.5908    1.0000 </r>
       <r>    1.6013    1.0000 </r>
       <r>    1.6043    1.0000 </r>
       <r>    1.6058    1.0000 </r>
       <r>    1.6130    1.0000 </r>
       <r>    1.6209    1.0000 </r>
       <r>    1.6510    1.0000 </r>
       <r>    1.6661    1.0000 </r>
       <r>    1.7135    1.0000 </r>
       <r>    1.7153    1.0000 </r>
       <r>    1.7674    1.0000 </r>
       <r>    1.7733    1.0000 </r>
       <r>    1.8434    1.0000 </r>
       <r>    1.8515    1.0000 </r>
       <r>    1.8537    1.0000 </r>
       <r>    1.8625    1.0000 </r>
       <r>    1.8660    1.0000 </r>
       <r>    1.8706    1.0000 </r>
       <r>    1.8787    1.0000 </r>
       <r>    1.8789    1.0000 </r>
       <r>    1.9866    1.0000 </r>
       <r>    2.0021    1.0000 </r>
       <r>    2.1868    1.0000 </r>
       <r>    2.1879    1.0000 </r>
       <r>    2.1958    1.0000 </r>
       <r>    2.2001    1.0000 </r>
       <r>    2.2062    1.0000 </r>
       <r>    2.2106    1.0000 </r>
       <r>    2.3788    1.0000 </r>
       <r>    2.3813    1.0000 </r>
       <r>    2.3893    1.0000 </r>
       <r>    2.3895    1.0000 </r>
       <r>    4.6562    1.0000 </r>
       <r>    5.9203    0.0000 </r>
       <r>    6.6055    0.0000 </r>
       <r>    6.6223    0.0000 </r>
       <r>    6.6274    0.0000 </r>
       <r>    6.8748    0.0000 </r>
       <r>    6.9368    0.0000 </r>
       <r>    6.9993    0.0000 </r>
       <r>    7.0131    0.0000 </r>
       <r>    7.0440    0.0000 </r>
       <r>    7.0545    0.0000 </r>
       <r>    7.0701    0.0000 </r>
       <r>    7.0806    0.0000 </r>
       <r>    7.1067    0.0000 </r>
       <r>    7.1146    0.0000 </r>
       <r>    7.1457    0.0000 </r>
       <r>    7.1469    0.0000 </r>
       <r>    7.2300    0.0000 </r>
       <r>    7.2649    0.0000 </r>
       <r>    7.2649    0.0000 </r>
       <r>    7.2862    0.0000 </r>
       <r>    7.2864    0.0000 </r>
       <r>    7.4235    0.0000 </r>
       <r>    7.4496    0.0000 </r>
       <r>    7.4555    0.0000 </r>
       <r>    7.4751    0.0000 </r>
       <r>    7.4839    0.0000 </r>
       <r>    7.5660    0.0000 </r>
       <r>    7.5722    0.0000 </r>
       <r>    7.6141    0.0000 </r>
       <r>    7.6460    0.0000 </r>
       <r>    7.6607    0.0000 </r>
       <r>    7.6647    0.0000 </r>
       <r>    7.6653    0.0000 </r>
       <r>    7.6670    0.0000 </r>
       <r>    7.6830    0.0000 </r>
       <r>    7.7010    0.0000 </r>
       <r>    7.7322    0.0000 </r>
       <r>    7.7353    0.0000 </r>
       <r>    7.7813    0.0000 </r>
       <r>    7.8460    0.0000 </r>
       <r>    7.8766    0.0000 </r>
       <r>    7.8985    0.0000 </r>
       <r>    7.9694    0.0000 </r>
       <r>    7.9762    0.0000 </r>
       <r>    8.0056    0.0000 </r>
       <r>    8.0065    0.0000 </r>
       <r>    8.0820    0.0000 </r>
       <r>    8.0967    0.0000 </r>
       <r>    8.0987    0.0000 </r>
       <r>    8.1894    0.0000 </r>
       <r>    8.2105    0.0000 </r>
       <r>    8.2347    0.0000 </r>
       <r>    8.2793    0.0000 </r>
       <r>    8.3357    0.0000 </r>
       <r>    8.3377    0.0000 </r>
       <r>    8.3624    0.0000 </r>
       <r>    8.4662    0.0000 </r>
       <r>    8.4791    0.0000 </r>
       <r>    8.4889    0.0000 </r>
       <r>    8.4945    0.0000 </r>
       <r>    8.4971    0.0000 </r>
       <r>    8.5076    0.0000 </r>
       <r>    8.5102    0.0000 </r>
       <r>    8.5107    0.0000 </r>
       <r>    8.5326    0.0000 </r>
       <r>    8.5569    0.0000 </r>
       <r>    8.5634    0.0000 </r>
       <r>    8.6272    0.0000 </r>
       <r>    8.7571    0.0000 </r>
       <r>    8.8115    0.0000 </r>
       <r>    8.8765    0.0000 </r>
       <r>    8.8978    0.0000 </r>
       <r>    8.9158    0.0000 </r>
       <r>    8.9643    0.0000 </r>
       <r>    9.0020    0.0000 </r>
       <r>    9.0065    0.0000 </r>
       <r>    9.0162    0.0000 </r>
       <r>    9.0172    0.0000 </r>
       <r>    9.0221    0.0000 </r>
       <r>    9.0292    0.0000 </r>
       <r>    9.0925    0.0000 </r>
       <r>    9.1313    0.0000 </r>
       <r>    9.1628    0.0000 </r>
       <r>    9.1651    0.0000 </r>
       <r>    9.1769    0.0000 </r>
       <r>    9.2074    0.0000 </r>
       <r>    9.2086    0.0000 </r>
       <r>    9.2102    0.0000 </r>
       <r>    9.3007    0.0000 </r>
       <r>    9.3164    0.0000 </r>
       <r>    9.3988    0.0000 </r>
       <r>    9.4255    0.0000 </r>
       <r>    9.4417    0.0000 </r>
       <r>    9.4465    0.0000 </r>
       <r>    9.5813    0.0000 </r>
       <r>    9.6001    0.0000 </r>
       <r>    9.6027    0.0000 </r>
       <r>    9.6066    0.0000 </r>
       <r>    9.6076    0.0000 </r>
       <r>    9.6131    0.0000 </r>
       <r>    9.6347    0.0000 </r>
       <r>    9.6711    0.0000 </r>
       <r>    9.7073    0.0000 </r>
       <r>    9.7104    0.0000 </r>
       <r>    9.7292    0.0000 </r>
       <r>    9.7365    0.0000 </r>
       <r>    9.7724    0.0000 </r>
       <r>    9.8158    0.0000 </r>
       <r>    9.8242    0.0000 </r>
       <r>    9.9218    0.0000 </r>
       <r>    9.9244    0.0000 </r>
       <r>    9.9369    0.0000 </r>
       <r>    9.9661    0.0000 </r>
       <r>    9.9689    0.0000 </r>
       <r>   10.0292    0.0000 </r>
       <r>   10.0649    0.0000 </r>
       <r>   10.1008    0.0000 </r>
       <r>   10.1011    0.0000 </r>
       <r>   10.3004    0.0000 </r>
       <r>   10.3388    0.0000 </r>
       <r>   10.4258    0.0000 </r>
       <r>   10.4262    0.0000 </r>
       <r>   10.5250    0.0000 </r>
       <r>   10.5259    0.0000 </r>
       <r>   10.5489    0.0000 </r>
       <r>   10.5520    0.0000 </r>
       <r>   10.8648    0.0000 </r>
       <r>   10.9850    0.0000 </r>
       <r>   11.2069    0.0000 </r>
       <r>   11.2101    0.0000 </r>
       <r>   11.2790    0.0000 </r>
       <r>   11.4030    0.0000 </r>
       <r>   11.4110    0.0000 </r>
       <r>   11.4333    0.0000 </r>
       <r>   11.4639    0.0000 </r>
       <r>   11.4915    0.0000 </r>
       <r>   11.5301    0.0000 </r>
       <r>   11.5754    0.0000 </r>
       <r>   11.5817    0.0000 </r>
       <r>   11.5872    0.0000 </r>
       <r>   11.5999    0.0000 </r>
       <r>   11.6185    0.0000 </r>
       <r>   11.6483    0.0000 </r>
       <r>   11.7063    0.0000 </r>
       <r>   11.7395    0.0000 </r>
       <r>   11.8064    0.0000 </r>
       <r>   11.8668    0.0000 </r>
       <r>   11.9307    0.0000 </r>
       <r>   11.9634    0.0000 </r>
       <r>   11.9952    0.0000 </r>
       <r>   12.0563    0.0000 </r>
      </set>
      <set comment="kpoint 7">
       <r>  -17.2936    1.0000 </r>
       <r>  -15.7753    1.0000 </r>
       <r>  -15.7302    1.0000 </r>
       <r>  -15.4170    1.0000 </r>
       <r>  -15.3049    1.0000 </r>
       <r>  -15.2752    1.0000 </r>
       <r>  -15.2421    1.0000 </r>
       <r>  -15.2051    1.0000 </r>
       <r>  -15.1445    1.0000 </r>
       <r>  -15.0920    1.0000 </r>
       <r>  -15.0608    1.0000 </r>
       <r>  -15.0341    1.0000 </r>
       <r>  -15.0151    1.0000 </r>
       <r>  -14.9845    1.0000 </r>
       <r>  -14.9840    1.0000 </r>
       <r>  -14.9070    1.0000 </r>
       <r>  -14.9002    1.0000 </r>
       <r>  -14.8554    1.0000 </r>
       <r>  -14.7582    1.0000 </r>
       <r>  -14.7572    1.0000 </r>
       <r>  -14.6189    1.0000 </r>
       <r>  -14.5680    1.0000 </r>
       <r>  -14.5516    1.0000 </r>
       <r>  -14.4667    1.0000 </r>
       <r>  -14.4631    1.0000 </r>
       <r>  -14.4597    1.0000 </r>
       <r>  -14.4586    1.0000 </r>
       <r>  -14.4248    1.0000 </r>
       <r>  -14.4028    1.0000 </r>
       <r>  -14.3960    1.0000 </r>
       <r>  -14.3855    1.0000 </r>
       <r>  -14.3435    1.0000 </r>
       <r>  -14.2473    1.0000 </r>
       <r>  -14.2457    1.0000 </r>
       <r>  -14.2434    1.0000 </r>
       <r>  -14.2428    1.0000 </r>
       <r>  -14.2074    1.0000 </r>
       <r>  -14.2067    1.0000 </r>
       <r>  -14.1719    1.0000 </r>
       <r>  -14.1497    1.0000 </r>
       <r>  -14.1115    1.0000 </r>
       <r>  -14.0356    1.0000 </r>
       <r>  -13.9977    1.0000 </r>
       <r>  -13.9974    1.0000 </r>
       <r>  -13.9483    1.0000 </r>
       <r>  -13.7879    1.0000 </r>
       <r>  -13.7421    1.0000 </r>
       <r>  -13.7401    1.0000 </r>
       <r>  -13.7118    1.0000 </r>
       <r>  -13.7115    1.0000 </r>
       <r>  -13.7032    1.0000 </r>
       <r>  -13.6817    1.0000 </r>
       <r>  -13.6578    1.0000 </r>
       <r>  -13.6553    1.0000 </r>
       <r>  -13.6048    1.0000 </r>
       <r>  -13.5330    1.0000 </r>
       <r>  -13.5326    1.0000 </r>
       <r>  -13.5185    1.0000 </r>
       <r>  -13.5184    1.0000 </r>
       <r>  -13.5056    1.0000 </r>
       <r>  -13.3601    1.0000 </r>
       <r>  -13.3377    1.0000 </r>
       <r>  -13.2554    1.0000 </r>
       <r>  -13.2232    1.0000 </r>
       <r>  -13.1101    1.0000 </r>
       <r>  -13.0688    1.0000 </r>
       <r>  -13.0642    1.0000 </r>
       <r>  -13.0617    1.0000 </r>
       <r>  -13.0605    1.0000 </r>
       <r>  -13.0334    1.0000 </r>
       <r>  -13.0266    1.0000 </r>
       <r>  -13.0230    1.0000 </r>
       <r>  -13.0167    1.0000 </r>
       <r>  -12.9741    1.0000 </r>
       <r>  -12.9291    1.0000 </r>
       <r>  -12.8943    1.0000 </r>
       <r>  -12.8919    1.0000 </r>
       <r>  -12.8890    1.0000 </r>
       <r>  -12.8887    1.0000 </r>
       <r>  -12.8786    1.0000 </r>
       <r>  -12.8779    1.0000 </r>
       <r>  -12.8771    1.0000 </r>
       <r>  -12.8769    1.0000 </r>
       <r>  -12.8668    1.0000 </r>
       <r>  -12.8603    1.0000 </r>
       <r>  -12.8561    1.0000 </r>
       <r>  -12.8510    1.0000 </r>
       <r>  -12.8504    1.0000 </r>
       <r>  -12.7155    1.0000 </r>
       <r>  -12.7152    1.0000 </r>
       <r>  -12.7146    1.0000 </r>
       <r>  -12.7146    1.0000 </r>
       <r>  -12.6838    1.0000 </r>
       <r>  -12.6099    1.0000 </r>
       <r>  -12.5986    1.0000 </r>
       <r>  -12.5767    1.0000 </r>
       <r>  -12.5729    1.0000 </r>
       <r>  -12.5514    1.0000 </r>
       <r>  -12.5334    1.0000 </r>
       <r>  -12.4985    1.0000 </r>
       <r>  -12.4378    1.0000 </r>
       <r>  -12.4293    1.0000 </r>
       <r>  -12.4245    1.0000 </r>
       <r>  -12.4228    1.0000 </r>
       <r>  -12.3423    1.0000 </r>
       <r>  -12.3384    1.0000 </r>
       <r>  -12.3219    1.0000 </r>
       <r>  -12.3171    1.0000 </r>
       <r>  -12.2464    1.0000 </r>
       <r>  -12.2452    1.0000 </r>
       <r>  -12.2368    1.0000 </r>
       <r>  -12.2327    1.0000 </r>
       <r>  -12.2190    1.0000 </r>
       <r>  -12.2180    1.0000 </r>
       <r>  -12.2081    1.0000 </r>
       <r>  -12.2053    1.0000 </r>
       <r>  -12.1764    1.0000 </r>
       <r>  -12.1763    1.0000 </r>
       <r>  -12.1744    1.0000 </r>
       <r>  -12.1670    1.0000 </r>
       <r>  -12.0958    1.0000 </r>
       <r>  -12.0957    1.0000 </r>
       <r>  -12.0901    1.0000 </r>
       <r>  -12.0872    1.0000 </r>
       <r>  -12.0872    1.0000 </r>
       <r>  -12.0835    1.0000 </r>
       <r>  -11.9513    1.0000 </r>
       <r>  -11.9478    1.0000 </r>
       <r>  -11.9468    1.0000 </r>
       <r>  -11.9433    1.0000 </r>
       <r>  -11.8161    1.0000 </r>
       <r>  -11.8153    1.0000 </r>
       <r>  -11.8081    1.0000 </r>
       <r>  -11.8073    1.0000 </r>
       <r>  -11.8046    1.0000 </r>
       <r>  -11.8035    1.0000 </r>
       <r>  -11.7851    1.0000 </r>
       <r>  -11.7848    1.0000 </r>
       <r>  -11.7795    1.0000 </r>
       <r>  -11.7793    1.0000 </r>
       <r>  -11.6685    1.0000 </r>
       <r>  -11.6685    1.0000 </r>
       <r>  -11.6613    1.0000 </r>
       <r>  -11.6613    1.0000 </r>
       <r>   -8.3631    1.0000 </r>
       <r>   -7.2840    1.0000 </r>
       <r>   -7.2707    1.0000 </r>
       <r>   -6.7936    1.0000 </r>
       <r>   -6.7047    1.0000 </r>
       <r>   -6.6829    1.0000 </r>
       <r>   -6.4385    1.0000 </r>
       <r>   -6.4058    1.0000 </r>
       <r>   -6.3220    1.0000 </r>
       <r>   -6.3089    1.0000 </r>
       <r>   -6.3061    1.0000 </r>
       <r>   -6.3040    1.0000 </r>
       <r>   -6.2994    1.0000 </r>
       <r>   -6.2869    1.0000 </r>
       <r>   -6.2756    1.0000 </r>
       <r>   -6.2747    1.0000 </r>
       <r>   -6.2688    1.0000 </r>
       <r>   -6.2684    1.0000 </r>
       <r>   -6.2159    1.0000 </r>
       <r>   -6.2155    1.0000 </r>
       <r>   -6.2119    1.0000 </r>
       <r>   -6.2073    1.0000 </r>
       <r>   -6.1958    1.0000 </r>
       <r>   -6.1950    1.0000 </r>
       <r>   -6.1589    1.0000 </r>
       <r>   -6.1587    1.0000 </r>
       <r>   -6.1492    1.0000 </r>
       <r>   -6.1491    1.0000 </r>
       <r>   -6.0726    1.0000 </r>
       <r>   -6.0712    1.0000 </r>
       <r>   -5.9354    1.0000 </r>
       <r>   -5.9280    1.0000 </r>
       <r>   -5.9109    1.0000 </r>
       <r>   -5.9034    1.0000 </r>
       <r>   -5.8440    1.0000 </r>
       <r>   -5.7895    1.0000 </r>
       <r>   -5.7819    1.0000 </r>
       <r>   -5.7718    1.0000 </r>
       <r>   -5.7695    1.0000 </r>
       <r>   -5.7686    1.0000 </r>
       <r>   -5.7641    1.0000 </r>
       <r>   -5.7616    1.0000 </r>
       <r>   -5.7587    1.0000 </r>
       <r>   -5.7582    1.0000 </r>
       <r>   -5.7575    1.0000 </r>
       <r>   -5.7508    1.0000 </r>
       <r>   -5.7394    1.0000 </r>
       <r>   -5.6844    1.0000 </r>
       <r>   -5.6541    1.0000 </r>
       <r>   -5.6418    1.0000 </r>
       <r>   -5.6232    1.0000 </r>
       <r>   -5.6231    1.0000 </r>
       <r>   -5.6200    1.0000 </r>
       <r>   -5.6199    1.0000 </r>
       <r>   -5.2295    1.0000 </r>
       <r>   -5.2271    1.0000 </r>
       <r>   -5.2246    1.0000 </r>
       <r>   -5.2243    1.0000 </r>
       <r>   -5.2239    1.0000 </r>
       <r>   -5.2200    1.0000 </r>
       <r>   -5.2192    1.0000 </r>
       <r>   -5.2190    1.0000 </r>
       <r>   -5.2181    1.0000 </r>
       <r>   -5.2176    1.0000 </r>
       <r>   -5.2173    1.0000 </r>
       <r>   -5.2168    1.0000 </r>
       <r>   -5.1149    1.0000 </r>
       <r>   -5.1103    1.0000 </r>
       <r>   -5.0908    1.0000 </r>
       <r>   -5.0907    1.0000 </r>
       <r>   -5.0879    1.0000 </r>
       <r>   -5.0879    1.0000 </r>
       <r>   -5.0875    1.0000 </r>
       <r>   -5.0875    1.0000 </r>
       <r>   -5.0260    1.0000 </r>
       <r>   -4.9210    1.0000 </r>
       <r>   -4.8318    1.0000 </r>
       <r>   -4.6117    1.0000 </r>
       <r>   -4.5543    1.0000 </r>
       <r>   -4.5412    1.0000 </r>
       <r>   -4.4756    1.0000 </r>
       <r>   -4.4732    1.0000 </r>
       <r>   -4.4721    1.0000 </r>
       <r>   -4.4711    1.0000 </r>
       <r>   -4.4706    1.0000 </r>
       <r>   -4.4695    1.0000 </r>
       <r>   -4.4681    1.0000 </r>
       <r>   -4.4678    1.0000 </r>
       <r>   -4.3414    1.0000 </r>
       <r>   -4.3412    1.0000 </r>
       <r>   -4.3408    1.0000 </r>
       <r>   -4.3407    1.0000 </r>
       <r>   -4.3164    1.0000 </r>
       <r>   -4.2888    1.0000 </r>
       <r>   -4.2019    1.0000 </r>
       <r>   -4.0978    1.0000 </r>
       <r>   -4.0880    1.0000 </r>
       <r>   -4.0877    1.0000 </r>
       <r>   -4.0844    1.0000 </r>
       <r>   -4.0835    1.0000 </r>
       <r>   -4.0747    1.0000 </r>
       <r>   -4.0745    1.0000 </r>
       <r>   -4.0714    1.0000 </r>
       <r>   -4.0703    1.0000 </r>
       <r>   -4.0287    1.0000 </r>
       <r>   -3.9502    1.0000 </r>
       <r>   -3.9501    1.0000 </r>
       <r>   -3.9467    1.0000 </r>
       <r>   -3.9466    1.0000 </r>
       <r>   -3.9094    1.0000 </r>
       <r>   -3.8654    1.0000 </r>
       <r>   -3.7856    1.0000 </r>
       <r>   -3.6233    1.0000 </r>
       <r>   -3.6206    1.0000 </r>
       <r>   -3.6156    1.0000 </r>
       <r>   -3.6141    1.0000 </r>
       <r>   -3.6081    1.0000 </r>
       <r>   -3.6035    1.0000 </r>
       <r>   -3.6020    1.0000 </r>
       <r>   -3.5983    1.0000 </r>
       <r>   -3.5977    1.0000 </r>
       <r>   -3.4796    1.0000 </r>
       <r>   -3.4796    1.0000 </r>
       <r>   -3.4783    1.0000 </r>
       <r>   -3.4741    1.0000 </r>
       <r>   -3.4741    1.0000 </r>
       <r>   -3.4683    1.0000 </r>
       <r>   -3.4675    1.0000 </r>
       <r>   -3.4659    1.0000 </r>
       <r>   -3.4650    1.0000 </r>
       <r>   -3.3904    1.0000 </r>
       <r>   -3.3584    1.0000 </r>
       <r>   -3.3472    1.0000 </r>
       <r>   -3.3408    1.0000 </r>
       <r>   -3.3390    1.0000 </r>
       <r>   -3.3383    1.0000 </r>
       <r>   -3.3380    1.0000 </r>
       <r>   -3.1562    1.0000 </r>
       <r>   -3.0973    1.0000 </r>
       <r>   -3.0776    1.0000 </r>
       <r>   -3.0728    1.0000 </r>
       <r>   -3.0727    1.0000 </r>
       <r>   -3.0660    1.0000 </r>
       <r>   -3.0037    1.0000 </r>
       <r>   -2.9996    1.0000 </r>
       <r>   -2.9919    1.0000 </r>
       <r>   -2.9384    1.0000 </r>
       <r>   -2.9376    1.0000 </r>
       <r>   -2.8560    1.0000 </r>
       <r>   -2.8425    1.0000 </r>
       <r>   -2.7699    1.0000 </r>
       <r>   -2.7662    1.0000 </r>
       <r>   -2.7562    1.0000 </r>
       <r>   -2.7266    1.0000 </r>
       <r>   -2.6771    1.0000 </r>
       <r>   -2.6739    1.0000 </r>
       <r>   -2.6723    1.0000 </r>
       <r>   -2.6628    1.0000 </r>
       <r>   -2.6421    1.0000 </r>
       <r>   -2.5484    1.0000 </r>
       <r>   -2.5456    1.0000 </r>
       <r>   -2.5452    1.0000 </r>
       <r>   -2.5177    1.0000 </r>
       <r>   -2.4675    1.0000 </r>
       <r>   -2.3939    1.0000 </r>
       <r>   -2.3880    1.0000 </r>
       <r>   -2.3775    1.0000 </r>
       <r>   -2.3748    1.0000 </r>
       <r>   -2.3730    1.0000 </r>
       <r>   -2.3723    1.0000 </r>
       <r>   -2.3718    1.0000 </r>
       <r>   -2.3707    1.0000 </r>
       <r>   -2.3692    1.0000 </r>
       <r>   -2.3680    1.0000 </r>
       <r>   -2.3658    1.0000 </r>
       <r>   -2.3476    1.0000 </r>
       <r>   -2.2860    1.0000 </r>
       <r>   -2.2629    1.0000 </r>
       <r>   -2.2575    1.0000 </r>
       <r>   -2.2411    1.0000 </r>
       <r>   -2.2407    1.0000 </r>
       <r>   -2.2405    1.0000 </r>
       <r>   -2.2402    1.0000 </r>
       <r>   -2.2371    1.0000 </r>
       <r>   -2.2091    1.0000 </r>
       <r>   -2.2086    1.0000 </r>
       <r>   -2.1989    1.0000 </r>
       <r>   -2.1648    1.0000 </r>
       <r>   -2.1587    1.0000 </r>
       <r>   -2.1444    1.0000 </r>
       <r>   -2.1259    1.0000 </r>
       <r>   -2.0989    1.0000 </r>
       <r>   -2.0915    1.0000 </r>
       <r>   -2.0910    1.0000 </r>
       <r>   -2.0859    1.0000 </r>
       <r>   -2.0854    1.0000 </r>
       <r>   -2.0578    1.0000 </r>
       <r>   -2.0573    1.0000 </r>
       <r>   -2.0510    1.0000 </r>
       <r>   -2.0508    1.0000 </r>
       <r>   -2.0103    1.0000 </r>
       <r>   -1.9643    1.0000 </r>
       <r>   -1.9430    1.0000 </r>
       <r>   -1.9430    1.0000 </r>
       <r>   -1.9363    1.0000 </r>
       <r>   -1.9331    1.0000 </r>
       <r>   -1.9330    1.0000 </r>
       <r>   -1.9311    1.0000 </r>
       <r>   -1.9067    1.0000 </r>
       <r>   -1.9053    1.0000 </r>
       <r>   -1.8961    1.0000 </r>
       <r>   -1.8837    1.0000 </r>
       <r>   -1.8631    1.0000 </r>
       <r>   -1.8604    1.0000 </r>
       <r>   -1.8599    1.0000 </r>
       <r>   -1.8585    1.0000 </r>
       <r>   -1.8577    1.0000 </r>
       <r>   -1.8566    1.0000 </r>
       <r>   -1.8561    1.0000 </r>
       <r>   -1.8549    1.0000 </r>
       <r>   -1.7787    1.0000 </r>
       <r>   -1.7786    1.0000 </r>
       <r>   -1.7777    1.0000 </r>
       <r>   -1.7776    1.0000 </r>
       <r>   -1.7743    1.0000 </r>
       <r>   -1.7741    1.0000 </r>
       <r>   -1.7727    1.0000 </r>
       <r>   -1.7727    1.0000 </r>
       <r>   -1.7456    1.0000 </r>
       <r>   -1.7436    1.0000 </r>
       <r>   -1.7416    1.0000 </r>
       <r>   -1.7411    1.0000 </r>
       <r>   -1.7154    1.0000 </r>
       <r>   -1.7084    1.0000 </r>
       <r>   -1.6882    1.0000 </r>
       <r>   -1.6616    1.0000 </r>
       <r>   -1.6452    1.0000 </r>
       <r>   -1.6452    1.0000 </r>
       <r>   -1.6449    1.0000 </r>
       <r>   -1.6448    1.0000 </r>
       <r>   -1.6097    1.0000 </r>
       <r>   -1.6092    1.0000 </r>
       <r>   -1.5862    1.0000 </r>
       <r>   -1.5839    1.0000 </r>
       <r>   -1.5797    1.0000 </r>
       <r>   -1.5595    1.0000 </r>
       <r>   -1.5550    1.0000 </r>
       <r>   -1.5500    1.0000 </r>
       <r>   -1.4643    1.0000 </r>
       <r>   -1.4489    1.0000 </r>
       <r>   -1.4411    1.0000 </r>
       <r>   -1.4316    1.0000 </r>
       <r>   -1.2639    1.0000 </r>
       <r>   -1.2558    1.0000 </r>
       <r>   -1.2532    1.0000 </r>
       <r>   -1.2354    1.0000 </r>
       <r>   -1.2351    1.0000 </r>
       <r>   -1.2245    1.0000 </r>
       <r>   -1.2236    1.0000 </r>
       <r>   -1.2093    1.0000 </r>
       <r>   -1.2070    1.0000 </r>
       <r>   -1.2068    1.0000 </r>
       <r>   -1.2063    1.0000 </r>
       <r>   -1.1942    1.0000 </r>
       <r>   -1.1882    1.0000 </r>
       <r>   -1.1876    1.0000 </r>
       <r>   -1.1856    1.0000 </r>
       <r>   -1.1584    1.0000 </r>
       <r>   -1.1196    1.0000 </r>
       <r>   -1.0879    1.0000 </r>
       <r>   -1.0877    1.0000 </r>
       <r>   -1.0825    1.0000 </r>
       <r>   -1.0824    1.0000 </r>
       <r>   -1.0562    1.0000 </r>
       <r>   -1.0158    1.0000 </r>
       <r>   -0.9348    1.0000 </r>
       <r>   -0.9301    1.0000 </r>
       <r>   -0.9159    1.0000 </r>
       <r>   -0.9100    1.0000 </r>
       <r>   -0.9086    1.0000 </r>
       <r>   -0.8575    1.0000 </r>
       <r>   -0.8451    1.0000 </r>
       <r>   -0.8355    1.0000 </r>
       <r>   -0.7765    1.0000 </r>
       <r>   -0.7324    1.0000 </r>
       <r>   -0.7087    1.0000 </r>
       <r>   -0.7056    1.0000 </r>
       <r>   -0.6560    1.0000 </r>
       <r>   -0.6388    1.0000 </r>
       <r>   -0.5976    1.0000 </r>
       <r>   -0.5948    1.0000 </r>
       <r>   -0.5299    1.0000 </r>
       <r>   -0.5185    1.0000 </r>
       <r>   -0.5175    1.0000 </r>
       <r>   -0.5152    1.0000 </r>
       <r>   -0.5140    1.0000 </r>
       <r>   -0.4617    1.0000 </r>
       <r>   -0.4579    1.0000 </r>
       <r>   -0.4577    1.0000 </r>
       <r>   -0.4568    1.0000 </r>
       <r>   -0.4535    1.0000 </r>
       <r>   -0.4530    1.0000 </r>
       <r>   -0.4529    1.0000 </r>
       <r>   -0.4488    1.0000 </r>
       <r>   -0.4181    1.0000 </r>
       <r>   -0.3835    1.0000 </r>
       <r>   -0.3834    1.0000 </r>
       <r>   -0.3767    1.0000 </r>
       <r>   -0.3523    1.0000 </r>
       <r>   -0.3494    1.0000 </r>
       <r>   -0.3476    1.0000 </r>
       <r>   -0.3463    1.0000 </r>
       <r>   -0.3266    1.0000 </r>
       <r>   -0.3260    1.0000 </r>
       <r>   -0.3258    1.0000 </r>
       <r>   -0.3254    1.0000 </r>
       <r>   -0.2800    1.0000 </r>
       <r>   -0.2644    1.0000 </r>
       <r>   -0.2640    1.0000 </r>
       <r>   -0.2585    1.0000 </r>
       <r>   -0.2555    1.0000 </r>
       <r>   -0.2543    1.0000 </r>
       <r>   -0.2524    1.0000 </r>
       <r>   -0.2251    1.0000 </r>
       <r>   -0.2243    1.0000 </r>
       <r>   -0.2182    1.0000 </r>
       <r>   -0.2132    1.0000 </r>
       <r>   -0.1427    1.0000 </r>
       <r>   -0.1396    1.0000 </r>
       <r>   -0.0466    1.0000 </r>
       <r>   -0.0090    1.0000 </r>
       <r>    0.0009    1.0000 </r>
       <r>    0.0096    1.0000 </r>
       <r>    0.0113    1.0000 </r>
       <r>    0.0181    1.0000 </r>
       <r>    0.0182    1.0000 </r>
       <r>    0.0348    1.0000 </r>
       <r>    0.0349    1.0000 </r>
       <r>    0.0498    1.0000 </r>
       <r>    0.1867    1.0000 </r>
       <r>    0.2768    1.0000 </r>
       <r>    0.3159    1.0000 </r>
       <r>    0.3398    1.0000 </r>
       <r>    0.3431    1.0000 </r>
       <r>    0.3453    1.0000 </r>
       <r>    0.3487    1.0000 </r>
       <r>    0.3508    1.0000 </r>
       <r>    0.3949    1.0000 </r>
       <r>    0.4206    1.0000 </r>
       <r>    0.4766    1.0000 </r>
       <r>    0.4773    1.0000 </r>
       <r>    0.4881    1.0000 </r>
       <r>    0.5103    1.0000 </r>
       <r>    0.5568    1.0000 </r>
       <r>    0.5586    1.0000 </r>
       <r>    0.5657    1.0000 </r>
       <r>    0.5774    1.0000 </r>
       <r>    0.5869    1.0000 </r>
       <r>    0.5888    1.0000 </r>
       <r>    0.6153    1.0000 </r>
       <r>    0.6298    1.0000 </r>
       <r>    0.6526    1.0000 </r>
       <r>    0.6940    1.0000 </r>
       <r>    0.7033    1.0000 </r>
       <r>    0.7276    1.0000 </r>
       <r>    0.7284    1.0000 </r>
       <r>    0.8537    1.0000 </r>
       <r>    0.8550    1.0000 </r>
       <r>    0.8568    1.0000 </r>
       <r>    0.8622    1.0000 </r>
       <r>    0.8649    1.0000 </r>
       <r>    0.8649    1.0000 </r>
       <r>    0.8662    1.0000 </r>
       <r>    0.8739    1.0000 </r>
       <r>    0.8753    1.0000 </r>
       <r>    0.8757    1.0000 </r>
       <r>    0.8835    1.0000 </r>
       <r>    0.8859    1.0000 </r>
       <r>    0.8909    1.0000 </r>
       <r>    0.8955    1.0000 </r>
       <r>    0.9049    1.0000 </r>
       <r>    0.9059    1.0000 </r>
       <r>    0.9937    1.0000 </r>
       <r>    1.0028    1.0000 </r>
       <r>    1.0576    1.0000 </r>
       <r>    1.0655    1.0000 </r>
       <r>    1.0779    1.0000 </r>
       <r>    1.0784    1.0000 </r>
       <r>    1.0942    1.0000 </r>
       <r>    1.0944    1.0000 </r>
       <r>    1.1009    1.0000 </r>
       <r>    1.1087    1.0000 </r>
       <r>    1.1091    1.0000 </r>
       <r>    1.2445    1.0000 </r>
       <r>    1.2591    1.0000 </r>
       <r>    1.3040    1.0000 </r>
       <r>    1.4340    1.0000 </r>
       <r>    1.4467    1.0000 </r>
       <r>    1.4564    1.0000 </r>
       <r>    1.4627    1.0000 </r>
       <r>    1.5913    1.0000 </r>
       <r>    1.6013    1.0000 </r>
       <r>    1.6031    1.0000 </r>
       <r>    1.6058    1.0000 </r>
       <r>    1.6140    1.0000 </r>
       <r>    1.6220    1.0000 </r>
       <r>    1.6522    1.0000 </r>
       <r>    1.6660    1.0000 </r>
       <r>    1.7128    1.0000 </r>
       <r>    1.7138    1.0000 </r>
       <r>    1.7675    1.0000 </r>
       <r>    1.7733    1.0000 </r>
       <r>    1.8434    1.0000 </r>
       <r>    1.8516    1.0000 </r>
       <r>    1.8539    1.0000 </r>
       <r>    1.8626    1.0000 </r>
       <r>    1.8659    1.0000 </r>
       <r>    1.8706    1.0000 </r>
       <r>    1.8784    1.0000 </r>
       <r>    1.8788    1.0000 </r>
       <r>    1.9866    1.0000 </r>
       <r>    2.0019    1.0000 </r>
       <r>    2.1868    1.0000 </r>
       <r>    2.1888    1.0000 </r>
       <r>    2.1958    1.0000 </r>
       <r>    2.2000    1.0000 </r>
       <r>    2.2060    1.0000 </r>
       <r>    2.2102    1.0000 </r>
       <r>    2.3788    1.0000 </r>
       <r>    2.3814    1.0000 </r>
       <r>    2.3892    1.0000 </r>
       <r>    2.3894    1.0000 </r>
       <r>    4.6562    1.0000 </r>
       <r>    5.9203    0.0000 </r>
       <r>    6.6055    0.0000 </r>
       <r>    6.6229    0.0000 </r>
       <r>    6.6277    0.0000 </r>
       <r>    6.8744    0.0000 </r>
       <r>    6.9350    0.0000 </r>
       <r>    7.0011    0.0000 </r>
       <r>    7.0138    0.0000 </r>
       <r>    7.0440    0.0000 </r>
       <r>    7.0544    0.0000 </r>
       <r>    7.0683    0.0000 </r>
       <r>    7.0804    0.0000 </r>
       <r>    7.1068    0.0000 </r>
       <r>    7.1148    0.0000 </r>
       <r>    7.1455    0.0000 </r>
       <r>    7.1466    0.0000 </r>
       <r>    7.2307    0.0000 </r>
       <r>    7.2651    0.0000 </r>
       <r>    7.2651    0.0000 </r>
       <r>    7.2861    0.0000 </r>
       <r>    7.2863    0.0000 </r>
       <r>    7.4232    0.0000 </r>
       <r>    7.4493    0.0000 </r>
       <r>    7.4567    0.0000 </r>
       <r>    7.4749    0.0000 </r>
       <r>    7.4833    0.0000 </r>
       <r>    7.5673    0.0000 </r>
       <r>    7.5723    0.0000 </r>
       <r>    7.6148    0.0000 </r>
       <r>    7.6461    0.0000 </r>
       <r>    7.6607    0.0000 </r>
       <r>    7.6647    0.0000 </r>
       <r>    7.6653    0.0000 </r>
       <r>    7.6670    0.0000 </r>
       <r>    7.6828    0.0000 </r>
       <r>    7.7018    0.0000 </r>
       <r>    7.7323    0.0000 </r>
       <r>    7.7353    0.0000 </r>
       <r>    7.7817    0.0000 </r>
       <r>    7.8435    0.0000 </r>
       <r>    7.8757    0.0000 </r>
       <r>    7.8969    0.0000 </r>
       <r>    7.9696    0.0000 </r>
       <r>    7.9763    0.0000 </r>
       <r>    8.0055    0.0000 </r>
       <r>    8.0063    0.0000 </r>
       <r>    8.0818    0.0000 </r>
       <r>    8.0966    0.0000 </r>
       <r>    8.0987    0.0000 </r>
       <r>    8.1901    0.0000 </r>
       <r>    8.2101    0.0000 </r>
       <r>    8.2341    0.0000 </r>
       <r>    8.2810    0.0000 </r>
       <r>    8.3354    0.0000 </r>
       <r>    8.3375    0.0000 </r>
       <r>    8.3621    0.0000 </r>
       <r>    8.4660    0.0000 </r>
       <r>    8.4790    0.0000 </r>
       <r>    8.4887    0.0000 </r>
       <r>    8.4944    0.0000 </r>
       <r>    8.4970    0.0000 </r>
       <r>    8.5078    0.0000 </r>
       <r>    8.5102    0.0000 </r>
       <r>    8.5107    0.0000 </r>
       <r>    8.5325    0.0000 </r>
       <r>    8.5576    0.0000 </r>
       <r>    8.5636    0.0000 </r>
       <r>    8.6270    0.0000 </r>
       <r>    8.7568    0.0000 </r>
       <r>    8.8116    0.0000 </r>
       <r>    8.8785    0.0000 </r>
       <r>    8.8975    0.0000 </r>
       <r>    8.9157    0.0000 </r>
       <r>    8.9642    0.0000 </r>
       <r>    9.0015    0.0000 </r>
       <r>    9.0082    0.0000 </r>
       <r>    9.0162    0.0000 </r>
       <r>    9.0178    0.0000 </r>
       <r>    9.0220    0.0000 </r>
       <r>    9.0292    0.0000 </r>
       <r>    9.0925    0.0000 </r>
       <r>    9.1312    0.0000 </r>
       <r>    9.1628    0.0000 </r>
       <r>    9.1650    0.0000 </r>
       <r>    9.1771    0.0000 </r>
       <r>    9.2074    0.0000 </r>
       <r>    9.2086    0.0000 </r>
       <r>    9.2103    0.0000 </r>
       <r>    9.3005    0.0000 </r>
       <r>    9.3160    0.0000 </r>
       <r>    9.3987    0.0000 </r>
       <r>    9.4263    0.0000 </r>
       <r>    9.4418    0.0000 </r>
       <r>    9.4464    0.0000 </r>
       <r>    9.5811    0.0000 </r>
       <r>    9.6000    0.0000 </r>
       <r>    9.6028    0.0000 </r>
       <r>    9.6065    0.0000 </r>
       <r>    9.6075    0.0000 </r>
       <r>    9.6125    0.0000 </r>
       <r>    9.6352    0.0000 </r>
       <r>    9.6713    0.0000 </r>
       <r>    9.7070    0.0000 </r>
       <r>    9.7104    0.0000 </r>
       <r>    9.7291    0.0000 </r>
       <r>    9.7363    0.0000 </r>
       <r>    9.7725    0.0000 </r>
       <r>    9.8166    0.0000 </r>
       <r>    9.8250    0.0000 </r>
       <r>    9.9219    0.0000 </r>
       <r>    9.9246    0.0000 </r>
       <r>    9.9365    0.0000 </r>
       <r>    9.9648    0.0000 </r>
       <r>    9.9679    0.0000 </r>
       <r>   10.0292    0.0000 </r>
       <r>   10.0647    0.0000 </r>
       <r>   10.1008    0.0000 </r>
       <r>   10.1010    0.0000 </r>
       <r>   10.3005    0.0000 </r>
       <r>   10.3391    0.0000 </r>
       <r>   10.4249    0.0000 </r>
       <r>   10.4255    0.0000 </r>
       <r>   10.5250    0.0000 </r>
       <r>   10.5261    0.0000 </r>
       <r>   10.5490    0.0000 </r>
       <r>   10.5520    0.0000 </r>
       <r>   10.8618    0.0000 </r>
       <r>   10.9837    0.0000 </r>
       <r>   11.2069    0.0000 </r>
       <r>   11.2130    0.0000 </r>
       <r>   11.2758    0.0000 </r>
       <r>   11.4031    0.0000 </r>
       <r>   11.4120    0.0000 </r>
       <r>   11.4345    0.0000 </r>
       <r>   11.4705    0.0000 </r>
       <r>   11.5008    0.0000 </r>
       <r>   11.5243    0.0000 </r>
       <r>   11.5403    0.0000 </r>
       <r>   11.5763    0.0000 </r>
       <r>   11.5901    0.0000 </r>
       <r>   11.5996    0.0000 </r>
       <r>   11.6099    0.0000 </r>
       <r>   11.6226    0.0000 </r>
       <r>   11.6680    0.0000 </r>
       <r>   11.7457    0.0000 </r>
       <r>   11.8011    0.0000 </r>
       <r>   11.8494    0.0000 </r>
       <r>   11.8728    0.0000 </r>
       <r>   11.9239    0.0000 </r>
       <r>   12.0042    0.0000 </r>
       <r>   12.0321    0.0000 </r>
      </set>
      <set comment="kpoint 8">
       <r>  -17.2936    1.0000 </r>
       <r>  -15.7761    1.0000 </r>
       <r>  -15.7298    1.0000 </r>
       <r>  -15.4142    1.0000 </r>
       <r>  -15.3058    1.0000 </r>
       <r>  -15.2750    1.0000 </r>
       <r>  -15.2423    1.0000 </r>
       <r>  -15.2047    1.0000 </r>
       <r>  -15.1450    1.0000 </r>
       <r>  -15.0941    1.0000 </r>
       <r>  -15.0620    1.0000 </r>
       <r>  -15.0341    1.0000 </r>
       <r>  -15.0152    1.0000 </r>
       <r>  -14.9845    1.0000 </r>
       <r>  -14.9839    1.0000 </r>
       <r>  -14.9070    1.0000 </r>
       <r>  -14.9004    1.0000 </r>
       <r>  -14.8560    1.0000 </r>
       <r>  -14.7582    1.0000 </r>
       <r>  -14.7572    1.0000 </r>
       <r>  -14.6172    1.0000 </r>
       <r>  -14.5675    1.0000 </r>
       <r>  -14.5505    1.0000 </r>
       <r>  -14.4668    1.0000 </r>
       <r>  -14.4631    1.0000 </r>
       <r>  -14.4598    1.0000 </r>
       <r>  -14.4586    1.0000 </r>
       <r>  -14.4241    1.0000 </r>
       <r>  -14.4026    1.0000 </r>
       <r>  -14.3961    1.0000 </r>
       <r>  -14.3854    1.0000 </r>
       <r>  -14.3426    1.0000 </r>
       <r>  -14.2473    1.0000 </r>
       <r>  -14.2457    1.0000 </r>
       <r>  -14.2434    1.0000 </r>
       <r>  -14.2428    1.0000 </r>
       <r>  -14.2074    1.0000 </r>
       <r>  -14.2066    1.0000 </r>
       <r>  -14.1711    1.0000 </r>
       <r>  -14.1496    1.0000 </r>
       <r>  -14.1118    1.0000 </r>
       <r>  -14.0376    1.0000 </r>
       <r>  -13.9977    1.0000 </r>
       <r>  -13.9973    1.0000 </r>
       <r>  -13.9493    1.0000 </r>
       <r>  -13.7888    1.0000 </r>
       <r>  -13.7418    1.0000 </r>
       <r>  -13.7398    1.0000 </r>
       <r>  -13.7120    1.0000 </r>
       <r>  -13.7117    1.0000 </r>
       <r>  -13.7029    1.0000 </r>
       <r>  -13.6816    1.0000 </r>
       <r>  -13.6581    1.0000 </r>
       <r>  -13.6557    1.0000 </r>
       <r>  -13.6051    1.0000 </r>
       <r>  -13.5329    1.0000 </r>
       <r>  -13.5324    1.0000 </r>
       <r>  -13.5187    1.0000 </r>
       <r>  -13.5186    1.0000 </r>
       <r>  -13.5071    1.0000 </r>
       <r>  -13.3604    1.0000 </r>
       <r>  -13.3365    1.0000 </r>
       <r>  -13.2549    1.0000 </r>
       <r>  -13.2230    1.0000 </r>
       <r>  -13.1092    1.0000 </r>
       <r>  -13.0689    1.0000 </r>
       <r>  -13.0642    1.0000 </r>
       <r>  -13.0618    1.0000 </r>
       <r>  -13.0605    1.0000 </r>
       <r>  -13.0334    1.0000 </r>
       <r>  -13.0267    1.0000 </r>
       <r>  -13.0230    1.0000 </r>
       <r>  -13.0165    1.0000 </r>
       <r>  -12.9730    1.0000 </r>
       <r>  -12.9282    1.0000 </r>
       <r>  -12.8944    1.0000 </r>
       <r>  -12.8919    1.0000 </r>
       <r>  -12.8890    1.0000 </r>
       <r>  -12.8888    1.0000 </r>
       <r>  -12.8786    1.0000 </r>
       <r>  -12.8779    1.0000 </r>
       <r>  -12.8771    1.0000 </r>
       <r>  -12.8769    1.0000 </r>
       <r>  -12.8677    1.0000 </r>
       <r>  -12.8602    1.0000 </r>
       <r>  -12.8561    1.0000 </r>
       <r>  -12.8512    1.0000 </r>
       <r>  -12.8505    1.0000 </r>
       <r>  -12.7155    1.0000 </r>
       <r>  -12.7152    1.0000 </r>
       <r>  -12.7146    1.0000 </r>
       <r>  -12.7146    1.0000 </r>
       <r>  -12.6763    1.0000 </r>
       <r>  -12.6112    1.0000 </r>
       <r>  -12.5984    1.0000 </r>
       <r>  -12.5765    1.0000 </r>
       <r>  -12.5731    1.0000 </r>
       <r>  -12.5516    1.0000 </r>
       <r>  -12.5402    1.0000 </r>
       <r>  -12.5007    1.0000 </r>
       <r>  -12.4383    1.0000 </r>
       <r>  -12.4292    1.0000 </r>
       <r>  -12.4252    1.0000 </r>
       <r>  -12.4228    1.0000 </r>
       <r>  -12.3422    1.0000 </r>
       <r>  -12.3382    1.0000 </r>
       <r>  -12.3218    1.0000 </r>
       <r>  -12.3170    1.0000 </r>
       <r>  -12.2461    1.0000 </r>
       <r>  -12.2452    1.0000 </r>
       <r>  -12.2365    1.0000 </r>
       <r>  -12.2326    1.0000 </r>
       <r>  -12.2192    1.0000 </r>
       <r>  -12.2184    1.0000 </r>
       <r>  -12.2084    1.0000 </r>
       <r>  -12.2058    1.0000 </r>
       <r>  -12.1764    1.0000 </r>
       <r>  -12.1763    1.0000 </r>
       <r>  -12.1713    1.0000 </r>
       <r>  -12.1624    1.0000 </r>
       <r>  -12.0958    1.0000 </r>
       <r>  -12.0957    1.0000 </r>
       <r>  -12.0902    1.0000 </r>
       <r>  -12.0874    1.0000 </r>
       <r>  -12.0873    1.0000 </r>
       <r>  -12.0872    1.0000 </r>
       <r>  -11.9513    1.0000 </r>
       <r>  -11.9479    1.0000 </r>
       <r>  -11.9468    1.0000 </r>
       <r>  -11.9434    1.0000 </r>
       <r>  -11.8161    1.0000 </r>
       <r>  -11.8153    1.0000 </r>
       <r>  -11.8079    1.0000 </r>
       <r>  -11.8070    1.0000 </r>
       <r>  -11.8043    1.0000 </r>
       <r>  -11.8032    1.0000 </r>
       <r>  -11.7853    1.0000 </r>
       <r>  -11.7851    1.0000 </r>
       <r>  -11.7798    1.0000 </r>
       <r>  -11.7795    1.0000 </r>
       <r>  -11.6684    1.0000 </r>
       <r>  -11.6684    1.0000 </r>
       <r>  -11.6614    1.0000 </r>
       <r>  -11.6613    1.0000 </r>
       <r>   -8.3630    1.0000 </r>
       <r>   -7.2837    1.0000 </r>
       <r>   -7.2706    1.0000 </r>
       <r>   -6.7943    1.0000 </r>
       <r>   -6.7072    1.0000 </r>
       <r>   -6.6820    1.0000 </r>
       <r>   -6.4369    1.0000 </r>
       <r>   -6.4074    1.0000 </r>
       <r>   -6.3208    1.0000 </r>
       <r>   -6.3087    1.0000 </r>
       <r>   -6.3059    1.0000 </r>
       <r>   -6.3038    1.0000 </r>
       <r>   -6.2990    1.0000 </r>
       <r>   -6.2839    1.0000 </r>
       <r>   -6.2758    1.0000 </r>
       <r>   -6.2749    1.0000 </r>
       <r>   -6.2690    1.0000 </r>
       <r>   -6.2686    1.0000 </r>
       <r>   -6.2159    1.0000 </r>
       <r>   -6.2142    1.0000 </r>
       <r>   -6.2121    1.0000 </r>
       <r>   -6.2073    1.0000 </r>
       <r>   -6.1956    1.0000 </r>
       <r>   -6.1954    1.0000 </r>
       <r>   -6.1588    1.0000 </r>
       <r>   -6.1587    1.0000 </r>
       <r>   -6.1493    1.0000 </r>
       <r>   -6.1492    1.0000 </r>
       <r>   -6.0726    1.0000 </r>
       <r>   -6.0712    1.0000 </r>
       <r>   -5.9351    1.0000 </r>
       <r>   -5.9277    1.0000 </r>
       <r>   -5.9111    1.0000 </r>
       <r>   -5.9037    1.0000 </r>
       <r>   -5.8459    1.0000 </r>
       <r>   -5.7895    1.0000 </r>
       <r>   -5.7820    1.0000 </r>
       <r>   -5.7760    1.0000 </r>
       <r>   -5.7694    1.0000 </r>
       <r>   -5.7685    1.0000 </r>
       <r>   -5.7632    1.0000 </r>
       <r>   -5.7615    1.0000 </r>
       <r>   -5.7588    1.0000 </r>
       <r>   -5.7583    1.0000 </r>
       <r>   -5.7578    1.0000 </r>
       <r>   -5.7509    1.0000 </r>
       <r>   -5.7414    1.0000 </r>
       <r>   -5.6829    1.0000 </r>
       <r>   -5.6539    1.0000 </r>
       <r>   -5.6412    1.0000 </r>
       <r>   -5.6232    1.0000 </r>
       <r>   -5.6231    1.0000 </r>
       <r>   -5.6200    1.0000 </r>
       <r>   -5.6200    1.0000 </r>
       <r>   -5.2295    1.0000 </r>
       <r>   -5.2271    1.0000 </r>
       <r>   -5.2246    1.0000 </r>
       <r>   -5.2243    1.0000 </r>
       <r>   -5.2240    1.0000 </r>
       <r>   -5.2200    1.0000 </r>
       <r>   -5.2192    1.0000 </r>
       <r>   -5.2190    1.0000 </r>
       <r>   -5.2181    1.0000 </r>
       <r>   -5.2175    1.0000 </r>
       <r>   -5.2173    1.0000 </r>
       <r>   -5.2168    1.0000 </r>
       <r>   -5.1121    1.0000 </r>
       <r>   -5.1114    1.0000 </r>
       <r>   -5.0908    1.0000 </r>
       <r>   -5.0907    1.0000 </r>
       <r>   -5.0879    1.0000 </r>
       <r>   -5.0879    1.0000 </r>
       <r>   -5.0875    1.0000 </r>
       <r>   -5.0875    1.0000 </r>
       <r>   -5.0268    1.0000 </r>
       <r>   -4.9208    1.0000 </r>
       <r>   -4.8314    1.0000 </r>
       <r>   -4.6099    1.0000 </r>
       <r>   -4.5561    1.0000 </r>
       <r>   -4.5424    1.0000 </r>
       <r>   -4.4756    1.0000 </r>
       <r>   -4.4731    1.0000 </r>
       <r>   -4.4721    1.0000 </r>
       <r>   -4.4711    1.0000 </r>
       <r>   -4.4706    1.0000 </r>
       <r>   -4.4695    1.0000 </r>
       <r>   -4.4681    1.0000 </r>
       <r>   -4.4678    1.0000 </r>
       <r>   -4.3414    1.0000 </r>
       <r>   -4.3412    1.0000 </r>
       <r>   -4.3409    1.0000 </r>
       <r>   -4.3408    1.0000 </r>
       <r>   -4.3133    1.0000 </r>
       <r>   -4.2888    1.0000 </r>
       <r>   -4.2004    1.0000 </r>
       <r>   -4.0988    1.0000 </r>
       <r>   -4.0878    1.0000 </r>
       <r>   -4.0876    1.0000 </r>
       <r>   -4.0843    1.0000 </r>
       <r>   -4.0834    1.0000 </r>
       <r>   -4.0748    1.0000 </r>
       <r>   -4.0746    1.0000 </r>
       <r>   -4.0715    1.0000 </r>
       <r>   -4.0705    1.0000 </r>
       <r>   -4.0301    1.0000 </r>
       <r>   -3.9501    1.0000 </r>
       <r>   -3.9501    1.0000 </r>
       <r>   -3.9467    1.0000 </r>
       <r>   -3.9466    1.0000 </r>
       <r>   -3.9107    1.0000 </r>
       <r>   -3.8642    1.0000 </r>
       <r>   -3.7855    1.0000 </r>
       <r>   -3.6232    1.0000 </r>
       <r>   -3.6204    1.0000 </r>
       <r>   -3.6155    1.0000 </r>
       <r>   -3.6140    1.0000 </r>
       <r>   -3.6088    1.0000 </r>
       <r>   -3.6036    1.0000 </r>
       <r>   -3.6024    1.0000 </r>
       <r>   -3.5984    1.0000 </r>
       <r>   -3.5979    1.0000 </r>
       <r>   -3.4796    1.0000 </r>
       <r>   -3.4795    1.0000 </r>
       <r>   -3.4778    1.0000 </r>
       <r>   -3.4742    1.0000 </r>
       <r>   -3.4741    1.0000 </r>
       <r>   -3.4683    1.0000 </r>
       <r>   -3.4675    1.0000 </r>
       <r>   -3.4659    1.0000 </r>
       <r>   -3.4650    1.0000 </r>
       <r>   -3.3902    1.0000 </r>
       <r>   -3.3586    1.0000 </r>
       <r>   -3.3474    1.0000 </r>
       <r>   -3.3395    1.0000 </r>
       <r>   -3.3387    1.0000 </r>
       <r>   -3.3381    1.0000 </r>
       <r>   -3.3377    1.0000 </r>
       <r>   -3.1566    1.0000 </r>
       <r>   -3.0972    1.0000 </r>
       <r>   -3.0776    1.0000 </r>
       <r>   -3.0728    1.0000 </r>
       <r>   -3.0727    1.0000 </r>
       <r>   -3.0660    1.0000 </r>
       <r>   -3.0036    1.0000 </r>
       <r>   -3.0001    1.0000 </r>
       <r>   -2.9949    1.0000 </r>
       <r>   -2.9384    1.0000 </r>
       <r>   -2.9376    1.0000 </r>
       <r>   -2.8552    1.0000 </r>
       <r>   -2.8436    1.0000 </r>
       <r>   -2.7701    1.0000 </r>
       <r>   -2.7668    1.0000 </r>
       <r>   -2.7572    1.0000 </r>
       <r>   -2.7263    1.0000 </r>
       <r>   -2.6772    1.0000 </r>
       <r>   -2.6739    1.0000 </r>
       <r>   -2.6723    1.0000 </r>
       <r>   -2.6624    1.0000 </r>
       <r>   -2.6427    1.0000 </r>
       <r>   -2.5487    1.0000 </r>
       <r>   -2.5456    1.0000 </r>
       <r>   -2.5452    1.0000 </r>
       <r>   -2.5165    1.0000 </r>
       <r>   -2.4677    1.0000 </r>
       <r>   -2.3967    1.0000 </r>
       <r>   -2.3886    1.0000 </r>
       <r>   -2.3776    1.0000 </r>
       <r>   -2.3748    1.0000 </r>
       <r>   -2.3730    1.0000 </r>
       <r>   -2.3722    1.0000 </r>
       <r>   -2.3718    1.0000 </r>
       <r>   -2.3704    1.0000 </r>
       <r>   -2.3697    1.0000 </r>
       <r>   -2.3680    1.0000 </r>
       <r>   -2.3659    1.0000 </r>
       <r>   -2.3472    1.0000 </r>
       <r>   -2.2856    1.0000 </r>
       <r>   -2.2627    1.0000 </r>
       <r>   -2.2572    1.0000 </r>
       <r>   -2.2410    1.0000 </r>
       <r>   -2.2407    1.0000 </r>
       <r>   -2.2405    1.0000 </r>
       <r>   -2.2402    1.0000 </r>
       <r>   -2.2378    1.0000 </r>
       <r>   -2.2099    1.0000 </r>
       <r>   -2.2072    1.0000 </r>
       <r>   -2.2003    1.0000 </r>
       <r>   -2.1641    1.0000 </r>
       <r>   -2.1589    1.0000 </r>
       <r>   -2.1424    1.0000 </r>
       <r>   -2.1184    1.0000 </r>
       <r>   -2.1003    1.0000 </r>
       <r>   -2.0914    1.0000 </r>
       <r>   -2.0908    1.0000 </r>
       <r>   -2.0855    1.0000 </r>
       <r>   -2.0852    1.0000 </r>
       <r>   -2.0580    1.0000 </r>
       <r>   -2.0575    1.0000 </r>
       <r>   -2.0513    1.0000 </r>
       <r>   -2.0510    1.0000 </r>
       <r>   -2.0072    1.0000 </r>
       <r>   -1.9641    1.0000 </r>
       <r>   -1.9430    1.0000 </r>
       <r>   -1.9429    1.0000 </r>
       <r>   -1.9361    1.0000 </r>
       <r>   -1.9332    1.0000 </r>
       <r>   -1.9331    1.0000 </r>
       <r>   -1.9312    1.0000 </r>
       <r>   -1.9067    1.0000 </r>
       <r>   -1.9054    1.0000 </r>
       <r>   -1.8993    1.0000 </r>
       <r>   -1.8834    1.0000 </r>
       <r>   -1.8631    1.0000 </r>
       <r>   -1.8604    1.0000 </r>
       <r>   -1.8599    1.0000 </r>
       <r>   -1.8585    1.0000 </r>
       <r>   -1.8577    1.0000 </r>
       <r>   -1.8566    1.0000 </r>
       <r>   -1.8561    1.0000 </r>
       <r>   -1.8549    1.0000 </r>
       <r>   -1.7786    1.0000 </r>
       <r>   -1.7786    1.0000 </r>
       <r>   -1.7777    1.0000 </r>
       <r>   -1.7776    1.0000 </r>
       <r>   -1.7743    1.0000 </r>
       <r>   -1.7740    1.0000 </r>
       <r>   -1.7727    1.0000 </r>
       <r>   -1.7727    1.0000 </r>
       <r>   -1.7455    1.0000 </r>
       <r>   -1.7437    1.0000 </r>
       <r>   -1.7416    1.0000 </r>
       <r>   -1.7413    1.0000 </r>
       <r>   -1.7131    1.0000 </r>
       <r>   -1.7090    1.0000 </r>
       <r>   -1.6874    1.0000 </r>
       <r>   -1.6596    1.0000 </r>
       <r>   -1.6452    1.0000 </r>
       <r>   -1.6452    1.0000 </r>
       <r>   -1.6449    1.0000 </r>
       <r>   -1.6448    1.0000 </r>
       <r>   -1.6101    1.0000 </r>
       <r>   -1.6091    1.0000 </r>
       <r>   -1.5875    1.0000 </r>
       <r>   -1.5837    1.0000 </r>
       <r>   -1.5794    1.0000 </r>
       <r>   -1.5599    1.0000 </r>
       <r>   -1.5552    1.0000 </r>
       <r>   -1.5502    1.0000 </r>
       <r>   -1.4646    1.0000 </r>
       <r>   -1.4501    1.0000 </r>
       <r>   -1.4410    1.0000 </r>
       <r>   -1.4317    1.0000 </r>
       <r>   -1.2635    1.0000 </r>
       <r>   -1.2559    1.0000 </r>
       <r>   -1.2531    1.0000 </r>
       <r>   -1.2354    1.0000 </r>
       <r>   -1.2352    1.0000 </r>
       <r>   -1.2244    1.0000 </r>
       <r>   -1.2235    1.0000 </r>
       <r>   -1.2095    1.0000 </r>
       <r>   -1.2072    1.0000 </r>
       <r>   -1.2068    1.0000 </r>
       <r>   -1.2064    1.0000 </r>
       <r>   -1.1965    1.0000 </r>
       <r>   -1.1885    1.0000 </r>
       <r>   -1.1882    1.0000 </r>
       <r>   -1.1868    1.0000 </r>
       <r>   -1.1584    1.0000 </r>
       <r>   -1.1199    1.0000 </r>
       <r>   -1.0878    1.0000 </r>
       <r>   -1.0877    1.0000 </r>
       <r>   -1.0825    1.0000 </r>
       <r>   -1.0824    1.0000 </r>
       <r>   -1.0563    1.0000 </r>
       <r>   -1.0151    1.0000 </r>
       <r>   -0.9340    1.0000 </r>
       <r>   -0.9296    1.0000 </r>
       <r>   -0.9158    1.0000 </r>
       <r>   -0.9101    1.0000 </r>
       <r>   -0.9087    1.0000 </r>
       <r>   -0.8551    1.0000 </r>
       <r>   -0.8455    1.0000 </r>
       <r>   -0.8361    1.0000 </r>
       <r>   -0.7747    1.0000 </r>
       <r>   -0.7328    1.0000 </r>
       <r>   -0.7148    1.0000 </r>
       <r>   -0.7068    1.0000 </r>
       <r>   -0.6563    1.0000 </r>
       <r>   -0.6390    1.0000 </r>
       <r>   -0.5976    1.0000 </r>
       <r>   -0.5948    1.0000 </r>
       <r>   -0.5304    1.0000 </r>
       <r>   -0.5185    1.0000 </r>
       <r>   -0.5175    1.0000 </r>
       <r>   -0.5152    1.0000 </r>
       <r>   -0.5140    1.0000 </r>
       <r>   -0.4616    1.0000 </r>
       <r>   -0.4578    1.0000 </r>
       <r>   -0.4576    1.0000 </r>
       <r>   -0.4568    1.0000 </r>
       <r>   -0.4534    1.0000 </r>
       <r>   -0.4529    1.0000 </r>
       <r>   -0.4528    1.0000 </r>
       <r>   -0.4487    1.0000 </r>
       <r>   -0.4180    1.0000 </r>
       <r>   -0.3835    1.0000 </r>
       <r>   -0.3834    1.0000 </r>
       <r>   -0.3754    1.0000 </r>
       <r>   -0.3524    1.0000 </r>
       <r>   -0.3494    1.0000 </r>
       <r>   -0.3476    1.0000 </r>
       <r>   -0.3463    1.0000 </r>
       <r>   -0.3265    1.0000 </r>
       <r>   -0.3260    1.0000 </r>
       <r>   -0.3258    1.0000 </r>
       <r>   -0.3254    1.0000 </r>
       <r>   -0.2804    1.0000 </r>
       <r>   -0.2640    1.0000 </r>
       <r>   -0.2636    1.0000 </r>
       <r>   -0.2585    1.0000 </r>
       <r>   -0.2556    1.0000 </r>
       <r>   -0.2544    1.0000 </r>
       <r>   -0.2522    1.0000 </r>
       <r>   -0.2250    1.0000 </r>
       <r>   -0.2242    1.0000 </r>
       <r>   -0.2181    1.0000 </r>
       <r>   -0.2121    1.0000 </r>
       <r>   -0.1435    1.0000 </r>
       <r>   -0.1417    1.0000 </r>
       <r>   -0.0470    1.0000 </r>
       <r>   -0.0088    1.0000 </r>
       <r>    0.0011    1.0000 </r>
       <r>    0.0096    1.0000 </r>
       <r>    0.0114    1.0000 </r>
       <r>    0.0181    1.0000 </r>
       <r>    0.0182    1.0000 </r>
       <r>    0.0346    1.0000 </r>
       <r>    0.0346    1.0000 </r>
       <r>    0.0507    1.0000 </r>
       <r>    0.1933    1.0000 </r>
       <r>    0.2754    1.0000 </r>
       <r>    0.3177    1.0000 </r>
       <r>    0.3412    1.0000 </r>
       <r>    0.3430    1.0000 </r>
       <r>    0.3452    1.0000 </r>
       <r>    0.3487    1.0000 </r>
       <r>    0.3508    1.0000 </r>
       <r>    0.3949    1.0000 </r>
       <r>    0.4211    1.0000 </r>
       <r>    0.4765    1.0000 </r>
       <r>    0.4773    1.0000 </r>
       <r>    0.4882    1.0000 </r>
       <r>    0.5102    1.0000 </r>
       <r>    0.5571    1.0000 </r>
       <r>    0.5589    1.0000 </r>
       <r>    0.5609    1.0000 </r>
       <r>    0.5778    1.0000 </r>
       <r>    0.5867    1.0000 </r>
       <r>    0.5885    1.0000 </r>
       <r>    0.6152    1.0000 </r>
       <r>    0.6306    1.0000 </r>
       <r>    0.6522    1.0000 </r>
       <r>    0.6941    1.0000 </r>
       <r>    0.7032    1.0000 </r>
       <r>    0.7276    1.0000 </r>
       <r>    0.7284    1.0000 </r>
       <r>    0.8537    1.0000 </r>
       <r>    0.8552    1.0000 </r>
       <r>    0.8570    1.0000 </r>
       <r>    0.8622    1.0000 </r>
       <r>    0.8646    1.0000 </r>
       <r>    0.8649    1.0000 </r>
       <r>    0.8662    1.0000 </r>
       <r>    0.8740    1.0000 </r>
       <r>    0.8751    1.0000 </r>
       <r>    0.8758    1.0000 </r>
       <r>    0.8833    1.0000 </r>
       <r>    0.8857    1.0000 </r>
       <r>    0.8908    1.0000 </r>
       <r>    0.8940    1.0000 </r>
       <r>    0.9047    1.0000 </r>
       <r>    0.9081    1.0000 </r>
       <r>    0.9938    1.0000 </r>
       <r>    1.0027    1.0000 </r>
       <r>    1.0576    1.0000 </r>
       <r>    1.0655    1.0000 </r>
       <r>    1.0779    1.0000 </r>
       <r>    1.0784    1.0000 </r>
       <r>    1.0944    1.0000 </r>
       <r>    1.0947    1.0000 </r>
       <r>    1.1003    1.0000 </r>
       <r>    1.1085    1.0000 </r>
       <r>    1.1090    1.0000 </r>
       <r>    1.2441    1.0000 </r>
       <r>    1.2577    1.0000 </r>
       <r>    1.3040    1.0000 </r>
       <r>    1.4341    1.0000 </r>
       <r>    1.4470    1.0000 </r>
       <r>    1.4563    1.0000 </r>
       <r>    1.4635    1.0000 </r>
       <r>    1.5921    1.0000 </r>
       <r>    1.6013    1.0000 </r>
       <r>    1.6013    1.0000 </r>
       <r>    1.6057    1.0000 </r>
       <r>    1.6151    1.0000 </r>
       <r>    1.6232    1.0000 </r>
       <r>    1.6536    1.0000 </r>
       <r>    1.6658    1.0000 </r>
       <r>    1.7110    1.0000 </r>
       <r>    1.7134    1.0000 </r>
       <r>    1.7675    1.0000 </r>
       <r>    1.7734    1.0000 </r>
       <r>    1.8435    1.0000 </r>
       <r>    1.8516    1.0000 </r>
       <r>    1.8540    1.0000 </r>
       <r>    1.8626    1.0000 </r>
       <r>    1.8659    1.0000 </r>
       <r>    1.8707    1.0000 </r>
       <r>    1.8782    1.0000 </r>
       <r>    1.8787    1.0000 </r>
       <r>    1.9867    1.0000 </r>
       <r>    2.0017    1.0000 </r>
       <r>    2.1868    1.0000 </r>
       <r>    2.1896    1.0000 </r>
       <r>    2.1958    1.0000 </r>
       <r>    2.2000    1.0000 </r>
       <r>    2.2059    1.0000 </r>
       <r>    2.2096    1.0000 </r>
       <r>    2.3789    1.0000 </r>
       <r>    2.3815    1.0000 </r>
       <r>    2.3891    1.0000 </r>
       <r>    2.3893    1.0000 </r>
       <r>    4.6562    1.0000 </r>
       <r>    5.9203    0.0000 </r>
       <r>    6.6056    0.0000 </r>
       <r>    6.6236    0.0000 </r>
       <r>    6.6279    0.0000 </r>
       <r>    6.8740    0.0000 </r>
       <r>    6.9333    0.0000 </r>
       <r>    7.0029    0.0000 </r>
       <r>    7.0148    0.0000 </r>
       <r>    7.0440    0.0000 </r>
       <r>    7.0544    0.0000 </r>
       <r>    7.0662    0.0000 </r>
       <r>    7.0803    0.0000 </r>
       <r>    7.1070    0.0000 </r>
       <r>    7.1150    0.0000 </r>
       <r>    7.1453    0.0000 </r>
       <r>    7.1464    0.0000 </r>
       <r>    7.2314    0.0000 </r>
       <r>    7.2653    0.0000 </r>
       <r>    7.2653    0.0000 </r>
       <r>    7.2860    0.0000 </r>
       <r>    7.2861    0.0000 </r>
       <r>    7.4228    0.0000 </r>
       <r>    7.4492    0.0000 </r>
       <r>    7.4577    0.0000 </r>
       <r>    7.4748    0.0000 </r>
       <r>    7.4827    0.0000 </r>
       <r>    7.5685    0.0000 </r>
       <r>    7.5724    0.0000 </r>
       <r>    7.6156    0.0000 </r>
       <r>    7.6463    0.0000 </r>
       <r>    7.6607    0.0000 </r>
       <r>    7.6647    0.0000 </r>
       <r>    7.6653    0.0000 </r>
       <r>    7.6670    0.0000 </r>
       <r>    7.6826    0.0000 </r>
       <r>    7.7027    0.0000 </r>
       <r>    7.7324    0.0000 </r>
       <r>    7.7353    0.0000 </r>
       <r>    7.7821    0.0000 </r>
       <r>    7.8412    0.0000 </r>
       <r>    7.8750    0.0000 </r>
       <r>    7.8952    0.0000 </r>
       <r>    7.9698    0.0000 </r>
       <r>    7.9765    0.0000 </r>
       <r>    8.0055    0.0000 </r>
       <r>    8.0061    0.0000 </r>
       <r>    8.0817    0.0000 </r>
       <r>    8.0965    0.0000 </r>
       <r>    8.0987    0.0000 </r>
       <r>    8.1911    0.0000 </r>
       <r>    8.2095    0.0000 </r>
       <r>    8.2335    0.0000 </r>
       <r>    8.2826    0.0000 </r>
       <r>    8.3350    0.0000 </r>
       <r>    8.3373    0.0000 </r>
       <r>    8.3617    0.0000 </r>
       <r>    8.4657    0.0000 </r>
       <r>    8.4790    0.0000 </r>
       <r>    8.4885    0.0000 </r>
       <r>    8.4942    0.0000 </r>
       <r>    8.4970    0.0000 </r>
       <r>    8.5080    0.0000 </r>
       <r>    8.5102    0.0000 </r>
       <r>    8.5107    0.0000 </r>
       <r>    8.5324    0.0000 </r>
       <r>    8.5583    0.0000 </r>
       <r>    8.5637    0.0000 </r>
       <r>    8.6267    0.0000 </r>
       <r>    8.7566    0.0000 </r>
       <r>    8.8117    0.0000 </r>
       <r>    8.8805    0.0000 </r>
       <r>    8.8972    0.0000 </r>
       <r>    8.9155    0.0000 </r>
       <r>    8.9641    0.0000 </r>
       <r>    9.0012    0.0000 </r>
       <r>    9.0100    0.0000 </r>
       <r>    9.0164    0.0000 </r>
       <r>    9.0181    0.0000 </r>
       <r>    9.0217    0.0000 </r>
       <r>    9.0291    0.0000 </r>
       <r>    9.0924    0.0000 </r>
       <r>    9.1312    0.0000 </r>
       <r>    9.1627    0.0000 </r>
       <r>    9.1650    0.0000 </r>
       <r>    9.1772    0.0000 </r>
       <r>    9.2075    0.0000 </r>
       <r>    9.2086    0.0000 </r>
       <r>    9.2104    0.0000 </r>
       <r>    9.3003    0.0000 </r>
       <r>    9.3157    0.0000 </r>
       <r>    9.3987    0.0000 </r>
       <r>    9.4270    0.0000 </r>
       <r>    9.4418    0.0000 </r>
       <r>    9.4463    0.0000 </r>
       <r>    9.5809    0.0000 </r>
       <r>    9.5999    0.0000 </r>
       <r>    9.6028    0.0000 </r>
       <r>    9.6065    0.0000 </r>
       <r>    9.6075    0.0000 </r>
       <r>    9.6119    0.0000 </r>
       <r>    9.6358    0.0000 </r>
       <r>    9.6715    0.0000 </r>
       <r>    9.7068    0.0000 </r>
       <r>    9.7103    0.0000 </r>
       <r>    9.7291    0.0000 </r>
       <r>    9.7361    0.0000 </r>
       <r>    9.7727    0.0000 </r>
       <r>    9.8174    0.0000 </r>
       <r>    9.8258    0.0000 </r>
       <r>    9.9221    0.0000 </r>
       <r>    9.9248    0.0000 </r>
       <r>    9.9363    0.0000 </r>
       <r>    9.9638    0.0000 </r>
       <r>    9.9666    0.0000 </r>
       <r>   10.0290    0.0000 </r>
       <r>   10.0646    0.0000 </r>
       <r>   10.1006    0.0000 </r>
       <r>   10.1009    0.0000 </r>
       <r>   10.3006    0.0000 </r>
       <r>   10.3394    0.0000 </r>
       <r>   10.4242    0.0000 </r>
       <r>   10.4246    0.0000 </r>
       <r>   10.5250    0.0000 </r>
       <r>   10.5263    0.0000 </r>
       <r>   10.5480    0.0000 </r>
       <r>   10.5517    0.0000 </r>
       <r>   10.8627    0.0000 </r>
       <r>   10.9848    0.0000 </r>
       <r>   11.2067    0.0000 </r>
       <r>   11.2115    0.0000 </r>
       <r>   11.2843    0.0000 </r>
       <r>   11.4051    0.0000 </r>
       <r>   11.4174    0.0000 </r>
       <r>   11.4326    0.0000 </r>
       <r>   11.4430    0.0000 </r>
       <r>   11.4855    0.0000 </r>
       <r>   11.5108    0.0000 </r>
       <r>   11.5360    0.0000 </r>
       <r>   11.5754    0.0000 </r>
       <r>   11.5832    0.0000 </r>
       <r>   11.5927    0.0000 </r>
       <r>   11.6121    0.0000 </r>
       <r>   11.6366    0.0000 </r>
       <r>   11.6679    0.0000 </r>
       <r>   11.7019    0.0000 </r>
       <r>   11.7692    0.0000 </r>
       <r>   11.8231    0.0000 </r>
       <r>   11.8708    0.0000 </r>
       <r>   11.9096    0.0000 </r>
       <r>   11.9602    0.0000 </r>
       <r>   12.0531    0.0000 </r>
      </set>
     </set>
     <set comment="spin 2">
      <set comment="kpoint 1">
       <r>  -17.1662    1.0000 </r>
       <r>  -15.6768    1.0000 </r>
       <r>  -15.6758    1.0000 </r>
       <r>  -15.5710    1.0000 </r>
       <r>  -15.3631    1.0000 </r>
       <r>  -15.3442    1.0000 </r>
       <r>  -15.1589    1.0000 </r>
       <r>  -15.1559    1.0000 </r>
       <r>  -15.1527    1.0000 </r>
       <r>  -15.0720    1.0000 </r>
       <r>  -14.8857    1.0000 </r>
       <r>  -14.8714    1.0000 </r>
       <r>  -14.8710    1.0000 </r>
       <r>  -14.8454    1.0000 </r>
       <r>  -14.8192    1.0000 </r>
       <r>  -14.8187    1.0000 </r>
       <r>  -14.8176    1.0000 </r>
       <r>  -14.8170    1.0000 </r>
       <r>  -14.8007    1.0000 </r>
       <r>  -14.7878    1.0000 </r>
       <r>  -14.7872    1.0000 </r>
       <r>  -14.7746    1.0000 </r>
       <r>  -14.7211    1.0000 </r>
       <r>  -14.7203    1.0000 </r>
       <r>  -14.6472    1.0000 </r>
       <r>  -14.6256    1.0000 </r>
       <r>  -14.6253    1.0000 </r>
       <r>  -14.6141    1.0000 </r>
       <r>  -14.6138    1.0000 </r>
       <r>  -14.6063    1.0000 </r>
       <r>  -14.5444    1.0000 </r>
       <r>  -14.2502    1.0000 </r>
       <r>  -14.2496    1.0000 </r>
       <r>  -14.2411    1.0000 </r>
       <r>  -13.9188    1.0000 </r>
       <r>  -13.9148    1.0000 </r>
       <r>  -13.8640    1.0000 </r>
       <r>  -13.8297    1.0000 </r>
       <r>  -13.8295    1.0000 </r>
       <r>  -13.8261    1.0000 </r>
       <r>  -13.8239    1.0000 </r>
       <r>  -13.8125    1.0000 </r>
       <r>  -13.8122    1.0000 </r>
       <r>  -13.8109    1.0000 </r>
       <r>  -13.8064    1.0000 </r>
       <r>  -13.8064    1.0000 </r>
       <r>  -13.8012    1.0000 </r>
       <r>  -13.8012    1.0000 </r>
       <r>  -13.7995    1.0000 </r>
       <r>  -13.7617    1.0000 </r>
       <r>  -13.7557    1.0000 </r>
       <r>  -13.7525    1.0000 </r>
       <r>  -13.6368    1.0000 </r>
       <r>  -13.6351    1.0000 </r>
       <r>  -13.6350    1.0000 </r>
       <r>  -13.6334    1.0000 </r>
       <r>  -13.6334    1.0000 </r>
       <r>  -13.6330    1.0000 </r>
       <r>  -13.3974    1.0000 </r>
       <r>  -13.3973    1.0000 </r>
       <r>  -13.3878    1.0000 </r>
       <r>  -13.3823    1.0000 </r>
       <r>  -13.3823    1.0000 </r>
       <r>  -13.3821    1.0000 </r>
       <r>  -13.3674    1.0000 </r>
       <r>  -13.3634    1.0000 </r>
       <r>  -13.3633    1.0000 </r>
       <r>  -13.3629    1.0000 </r>
       <r>  -13.3627    1.0000 </r>
       <r>  -13.3605    1.0000 </r>
       <r>  -13.2695    1.0000 </r>
       <r>  -13.2684    1.0000 </r>
       <r>  -13.2037    1.0000 </r>
       <r>  -13.2019    1.0000 </r>
       <r>  -13.2019    1.0000 </r>
       <r>  -13.2017    1.0000 </r>
       <r>  -13.1994    1.0000 </r>
       <r>  -13.1994    1.0000 </r>
       <r>  -12.8860    1.0000 </r>
       <r>  -12.8555    1.0000 </r>
       <r>  -12.8555    1.0000 </r>
       <r>  -12.7715    1.0000 </r>
       <r>  -12.6729    1.0000 </r>
       <r>  -12.5898    1.0000 </r>
       <r>  -12.5884    1.0000 </r>
       <r>  -12.5869    1.0000 </r>
       <r>  -12.5422    1.0000 </r>
       <r>  -12.5235    1.0000 </r>
       <r>  -12.4974    1.0000 </r>
       <r>  -12.4945    1.0000 </r>
       <r>  -12.4675    1.0000 </r>
       <r>  -12.3440    1.0000 </r>
       <r>  -12.3392    1.0000 </r>
       <r>  -12.3267    1.0000 </r>
       <r>  -12.3203    1.0000 </r>
       <r>  -12.3160    1.0000 </r>
       <r>  -12.3155    1.0000 </r>
       <r>  -12.3091    1.0000 </r>
       <r>  -12.3086    1.0000 </r>
       <r>  -12.3077    1.0000 </r>
       <r>  -12.3073    1.0000 </r>
       <r>  -12.2996    1.0000 </r>
       <r>  -12.2991    1.0000 </r>
       <r>  -12.2850    1.0000 </r>
       <r>  -12.2846    1.0000 </r>
       <r>  -12.2818    1.0000 </r>
       <r>  -12.2816    1.0000 </r>
       <r>  -12.2751    1.0000 </r>
       <r>  -12.2748    1.0000 </r>
       <r>  -12.2730    1.0000 </r>
       <r>  -12.2726    1.0000 </r>
       <r>  -12.2723    1.0000 </r>
       <r>  -12.2715    1.0000 </r>
       <r>  -12.2621    1.0000 </r>
       <r>  -12.2610    1.0000 </r>
       <r>  -12.1914    1.0000 </r>
       <r>  -12.1904    1.0000 </r>
       <r>  -12.1902    1.0000 </r>
       <r>  -12.1861    1.0000 </r>
       <r>  -12.1851    1.0000 </r>
       <r>  -12.1849    1.0000 </r>
       <r>  -12.1580    1.0000 </r>
       <r>  -12.1580    1.0000 </r>
       <r>  -12.1538    1.0000 </r>
       <r>  -12.1535    1.0000 </r>
       <r>  -12.1513    1.0000 </r>
       <r>  -12.1513    1.0000 </r>
       <r>  -12.1436    1.0000 </r>
       <r>  -12.1436    1.0000 </r>
       <r>  -12.1423    1.0000 </r>
       <r>  -12.1414    1.0000 </r>
       <r>  -12.1391    1.0000 </r>
       <r>  -12.1390    1.0000 </r>
       <r>  -12.0617    1.0000 </r>
       <r>  -12.0616    1.0000 </r>
       <r>  -12.0616    1.0000 </r>
       <r>  -11.9629    1.0000 </r>
       <r>  -11.9575    1.0000 </r>
       <r>  -11.5946    1.0000 </r>
       <r>  -11.5943    1.0000 </r>
       <r>  -11.5936    1.0000 </r>
       <r>  -11.5933    1.0000 </r>
       <r>  -11.4687    1.0000 </r>
       <r>  -11.4687    1.0000 </r>
       <r>   -8.1766    1.0000 </r>
       <r>   -7.2992    1.0000 </r>
       <r>   -7.2986    1.0000 </r>
       <r>   -6.5947    1.0000 </r>
       <r>   -6.5934    1.0000 </r>
       <r>   -6.5330    1.0000 </r>
       <r>   -6.5253    1.0000 </r>
       <r>   -6.5253    1.0000 </r>
       <r>   -6.5234    1.0000 </r>
       <r>   -6.5212    1.0000 </r>
       <r>   -6.5211    1.0000 </r>
       <r>   -6.5030    1.0000 </r>
       <r>   -6.4691    1.0000 </r>
       <r>   -6.3898    1.0000 </r>
       <r>   -6.3898    1.0000 </r>
       <r>   -6.3897    1.0000 </r>
       <r>   -6.3118    1.0000 </r>
       <r>   -6.3065    1.0000 </r>
       <r>   -6.0941    1.0000 </r>
       <r>   -6.0929    1.0000 </r>
       <r>   -6.0284    1.0000 </r>
       <r>   -6.0271    1.0000 </r>
       <r>   -6.0034    1.0000 </r>
       <r>   -5.9865    1.0000 </r>
       <r>   -5.9066    1.0000 </r>
       <r>   -5.9061    1.0000 </r>
       <r>   -5.7145    1.0000 </r>
       <r>   -5.7144    1.0000 </r>
       <r>   -5.7127    1.0000 </r>
       <r>   -5.7125    1.0000 </r>
       <r>   -5.7056    1.0000 </r>
       <r>   -5.7056    1.0000 </r>
       <r>   -5.7038    1.0000 </r>
       <r>   -5.7038    1.0000 </r>
       <r>   -5.6907    1.0000 </r>
       <r>   -5.6898    1.0000 </r>
       <r>   -5.6865    1.0000 </r>
       <r>   -5.6855    1.0000 </r>
       <r>   -5.6822    1.0000 </r>
       <r>   -5.6807    1.0000 </r>
       <r>   -5.6807    1.0000 </r>
       <r>   -5.6792    1.0000 </r>
       <r>   -5.6693    1.0000 </r>
       <r>   -5.6692    1.0000 </r>
       <r>   -5.6679    1.0000 </r>
       <r>   -5.6678    1.0000 </r>
       <r>   -5.6671    1.0000 </r>
       <r>   -5.6670    1.0000 </r>
       <r>   -5.6661    1.0000 </r>
       <r>   -5.6661    1.0000 </r>
       <r>   -5.5747    1.0000 </r>
       <r>   -5.5747    1.0000 </r>
       <r>   -5.5617    1.0000 </r>
       <r>   -5.5617    1.0000 </r>
       <r>   -5.5588    1.0000 </r>
       <r>   -5.5582    1.0000 </r>
       <r>   -5.5582    1.0000 </r>
       <r>   -5.5576    1.0000 </r>
       <r>   -5.5537    1.0000 </r>
       <r>   -5.5537    1.0000 </r>
       <r>   -5.5504    1.0000 </r>
       <r>   -5.5504    1.0000 </r>
       <r>   -5.5469    1.0000 </r>
       <r>   -5.5469    1.0000 </r>
       <r>   -5.5469    1.0000 </r>
       <r>   -5.5467    1.0000 </r>
       <r>   -5.4177    1.0000 </r>
       <r>   -5.4177    1.0000 </r>
       <r>   -5.3587    1.0000 </r>
       <r>   -5.2307    1.0000 </r>
       <r>   -5.1389    1.0000 </r>
       <r>   -5.1373    1.0000 </r>
       <r>   -4.9856    1.0000 </r>
       <r>   -4.9187    1.0000 </r>
       <r>   -4.9184    1.0000 </r>
       <r>   -4.8705    1.0000 </r>
       <r>   -4.7489    1.0000 </r>
       <r>   -4.7489    1.0000 </r>
       <r>   -4.7423    1.0000 </r>
       <r>   -4.7423    1.0000 </r>
       <r>   -4.6191    1.0000 </r>
       <r>   -4.6191    1.0000 </r>
       <r>   -4.4766    1.0000 </r>
       <r>   -4.4766    1.0000 </r>
       <r>   -4.4755    1.0000 </r>
       <r>   -4.4743    1.0000 </r>
       <r>   -4.4743    1.0000 </r>
       <r>   -4.4735    1.0000 </r>
       <r>   -4.4733    1.0000 </r>
       <r>   -4.4733    1.0000 </r>
       <r>   -4.4729    1.0000 </r>
       <r>   -4.4713    1.0000 </r>
       <r>   -4.4713    1.0000 </r>
       <r>   -4.4711    1.0000 </r>
       <r>   -4.3390    1.0000 </r>
       <r>   -4.3388    1.0000 </r>
       <r>   -4.3388    1.0000 </r>
       <r>   -4.3387    1.0000 </r>
       <r>   -4.3387    1.0000 </r>
       <r>   -4.3384    1.0000 </r>
       <r>   -4.1436    1.0000 </r>
       <r>   -4.0360    1.0000 </r>
       <r>   -3.9235    1.0000 </r>
       <r>   -3.9234    1.0000 </r>
       <r>   -3.6245    1.0000 </r>
       <r>   -3.6213    1.0000 </r>
       <r>   -3.5973    1.0000 </r>
       <r>   -3.5852    1.0000 </r>
       <r>   -3.5819    1.0000 </r>
       <r>   -3.5196    1.0000 </r>
       <r>   -3.5108    1.0000 </r>
       <r>   -3.3535    1.0000 </r>
       <r>   -3.3194    1.0000 </r>
       <r>   -3.3167    1.0000 </r>
       <r>   -3.3148    1.0000 </r>
       <r>   -3.3137    1.0000 </r>
       <r>   -3.3041    1.0000 </r>
       <r>   -3.3015    1.0000 </r>
       <r>   -3.2199    1.0000 </r>
       <r>   -3.1826    1.0000 </r>
       <r>   -3.1734    1.0000 </r>
       <r>   -3.1710    1.0000 </r>
       <r>   -3.1700    1.0000 </r>
       <r>   -3.1684    1.0000 </r>
       <r>   -3.1323    1.0000 </r>
       <r>   -3.1020    1.0000 </r>
       <r>   -3.1020    1.0000 </r>
       <r>   -3.1012    1.0000 </r>
       <r>   -3.1010    1.0000 </r>
       <r>   -3.1009    1.0000 </r>
       <r>   -3.1008    1.0000 </r>
       <r>   -3.0921    1.0000 </r>
       <r>   -3.0921    1.0000 </r>
       <r>   -3.0913    1.0000 </r>
       <r>   -3.0910    1.0000 </r>
       <r>   -3.0910    1.0000 </r>
       <r>   -3.0909    1.0000 </r>
       <r>   -3.0489    1.0000 </r>
       <r>   -2.9687    1.0000 </r>
       <r>   -2.9686    1.0000 </r>
       <r>   -2.9686    1.0000 </r>
       <r>   -2.9685    1.0000 </r>
       <r>   -2.9685    1.0000 </r>
       <r>   -2.9684    1.0000 </r>
       <r>   -2.9618    1.0000 </r>
       <r>   -2.9240    1.0000 </r>
       <r>   -2.9239    1.0000 </r>
       <r>   -2.9232    1.0000 </r>
       <r>   -2.9230    1.0000 </r>
       <r>   -2.9167    1.0000 </r>
       <r>   -2.9165    1.0000 </r>
       <r>   -2.9157    1.0000 </r>
       <r>   -2.9156    1.0000 </r>
       <r>   -2.9067    1.0000 </r>
       <r>   -2.9056    1.0000 </r>
       <r>   -2.8999    1.0000 </r>
       <r>   -2.8991    1.0000 </r>
       <r>   -2.8913    1.0000 </r>
       <r>   -2.8903    1.0000 </r>
       <r>   -2.8896    1.0000 </r>
       <r>   -2.8888    1.0000 </r>
       <r>   -2.8798    1.0000 </r>
       <r>   -2.8797    1.0000 </r>
       <r>   -2.8782    1.0000 </r>
       <r>   -2.8782    1.0000 </r>
       <r>   -2.8772    1.0000 </r>
       <r>   -2.8772    1.0000 </r>
       <r>   -2.8762    1.0000 </r>
       <r>   -2.8762    1.0000 </r>
       <r>   -2.7720    1.0000 </r>
       <r>   -2.7720    1.0000 </r>
       <r>   -2.7718    1.0000 </r>
       <r>   -2.7707    1.0000 </r>
       <r>   -2.7675    1.0000 </r>
       <r>   -2.7675    1.0000 </r>
       <r>   -2.7624    1.0000 </r>
       <r>   -2.7624    1.0000 </r>
       <r>   -2.7596    1.0000 </r>
       <r>   -2.7592    1.0000 </r>
       <r>   -2.7585    1.0000 </r>
       <r>   -2.7585    1.0000 </r>
       <r>   -2.5618    1.0000 </r>
       <r>   -2.4529    1.0000 </r>
       <r>   -2.4522    1.0000 </r>
       <r>   -2.3098    1.0000 </r>
       <r>   -2.3076    1.0000 </r>
       <r>   -2.3062    1.0000 </r>
       <r>   -2.2796    1.0000 </r>
       <r>   -2.2787    1.0000 </r>
       <r>   -2.2669    1.0000 </r>
       <r>   -2.2307    1.0000 </r>
       <r>   -2.2285    1.0000 </r>
       <r>   -2.2188    1.0000 </r>
       <r>   -2.2168    1.0000 </r>
       <r>   -2.2121    1.0000 </r>
       <r>   -2.2106    1.0000 </r>
       <r>   -2.0970    1.0000 </r>
       <r>   -2.0881    1.0000 </r>
       <r>   -2.0881    1.0000 </r>
       <r>   -1.9441    1.0000 </r>
       <r>   -1.9423    1.0000 </r>
       <r>   -1.9027    1.0000 </r>
       <r>   -1.9020    1.0000 </r>
       <r>   -1.8937    1.0000 </r>
       <r>   -1.8912    1.0000 </r>
       <r>   -1.8440    1.0000 </r>
       <r>   -1.7796    1.0000 </r>
       <r>   -1.7792    1.0000 </r>
       <r>   -1.7791    1.0000 </r>
       <r>   -1.7134    1.0000 </r>
       <r>   -1.7133    1.0000 </r>
       <r>   -1.7133    1.0000 </r>
       <r>   -1.7110    1.0000 </r>
       <r>   -1.7109    1.0000 </r>
       <r>   -1.7109    1.0000 </r>
       <r>   -1.5807    1.0000 </r>
       <r>   -1.5807    1.0000 </r>
       <r>   -1.5807    1.0000 </r>
       <r>   -1.5506    1.0000 </r>
       <r>   -1.5469    1.0000 </r>
       <r>   -1.5389    1.0000 </r>
       <r>   -1.5234    1.0000 </r>
       <r>   -1.5165    1.0000 </r>
       <r>   -1.5013    1.0000 </r>
       <r>   -1.5013    1.0000 </r>
       <r>   -1.5005    1.0000 </r>
       <r>   -1.4996    1.0000 </r>
       <r>   -1.4996    1.0000 </r>
       <r>   -1.4982    1.0000 </r>
       <r>   -1.4965    1.0000 </r>
       <r>   -1.4960    1.0000 </r>
       <r>   -1.4960    1.0000 </r>
       <r>   -1.4922    1.0000 </r>
       <r>   -1.4920    1.0000 </r>
       <r>   -1.4915    1.0000 </r>
       <r>   -1.4854    1.0000 </r>
       <r>   -1.4852    1.0000 </r>
       <r>   -1.4770    1.0000 </r>
       <r>   -1.3673    1.0000 </r>
       <r>   -1.3673    1.0000 </r>
       <r>   -1.3673    1.0000 </r>
       <r>   -1.3673    1.0000 </r>
       <r>   -1.3672    1.0000 </r>
       <r>   -1.3672    1.0000 </r>
       <r>   -1.3185    1.0000 </r>
       <r>   -1.3184    1.0000 </r>
       <r>   -1.3115    1.0000 </r>
       <r>   -1.2476    1.0000 </r>
       <r>   -1.2431    1.0000 </r>
       <r>   -1.2349    1.0000 </r>
       <r>   -1.1781    1.0000 </r>
       <r>   -1.1777    1.0000 </r>
       <r>   -1.1755    1.0000 </r>
       <r>   -1.1513    1.0000 </r>
       <r>   -1.1508    1.0000 </r>
       <r>   -1.1507    1.0000 </r>
       <r>   -1.1504    1.0000 </r>
       <r>   -1.1503    1.0000 </r>
       <r>   -1.1495    1.0000 </r>
       <r>   -1.1495    1.0000 </r>
       <r>   -1.1492    1.0000 </r>
       <r>   -1.1485    1.0000 </r>
       <r>   -1.1481    1.0000 </r>
       <r>   -1.1480    1.0000 </r>
       <r>   -1.1469    1.0000 </r>
       <r>   -1.1469    1.0000 </r>
       <r>   -1.1463    1.0000 </r>
       <r>   -1.1340    1.0000 </r>
       <r>   -1.1266    1.0000 </r>
       <r>   -1.1164    1.0000 </r>
       <r>   -1.1151    1.0000 </r>
       <r>   -1.1027    1.0000 </r>
       <r>   -1.0195    1.0000 </r>
       <r>   -1.0194    1.0000 </r>
       <r>   -1.0193    1.0000 </r>
       <r>   -1.0191    1.0000 </r>
       <r>   -1.0190    1.0000 </r>
       <r>   -1.0190    1.0000 </r>
       <r>   -0.9620    1.0000 </r>
       <r>   -0.9602    1.0000 </r>
       <r>   -0.9538    1.0000 </r>
       <r>   -0.9469    1.0000 </r>
       <r>   -0.9324    1.0000 </r>
       <r>   -0.9322    1.0000 </r>
       <r>   -0.8700    1.0000 </r>
       <r>   -0.8687    1.0000 </r>
       <r>   -0.8685    1.0000 </r>
       <r>   -0.8623    1.0000 </r>
       <r>   -0.8518    1.0000 </r>
       <r>   -0.8516    1.0000 </r>
       <r>   -0.8501    1.0000 </r>
       <r>   -0.8501    1.0000 </r>
       <r>   -0.8496    1.0000 </r>
       <r>   -0.8494    1.0000 </r>
       <r>   -0.8480    1.0000 </r>
       <r>   -0.8435    1.0000 </r>
       <r>   -0.8434    1.0000 </r>
       <r>   -0.8422    1.0000 </r>
       <r>   -0.8418    1.0000 </r>
       <r>   -0.8333    1.0000 </r>
       <r>   -0.8331    1.0000 </r>
       <r>   -0.8251    1.0000 </r>
       <r>   -0.7249    1.0000 </r>
       <r>   -0.7238    1.0000 </r>
       <r>   -0.7237    1.0000 </r>
       <r>   -0.7191    1.0000 </r>
       <r>   -0.7190    1.0000 </r>
       <r>   -0.7166    1.0000 </r>
       <r>   -0.4502    1.0000 </r>
       <r>   -0.4496    1.0000 </r>
       <r>   -0.3890    1.0000 </r>
       <r>   -0.3440    1.0000 </r>
       <r>   -0.3430    1.0000 </r>
       <r>   -0.3348    1.0000 </r>
       <r>   -0.3335    1.0000 </r>
       <r>   -0.2574    1.0000 </r>
       <r>   -0.2568    1.0000 </r>
       <r>   -0.2561    1.0000 </r>
       <r>   -0.2470    1.0000 </r>
       <r>   -0.2470    1.0000 </r>
       <r>   -0.2436    1.0000 </r>
       <r>   -0.2435    1.0000 </r>
       <r>   -0.2411    1.0000 </r>
       <r>   -0.0925    1.0000 </r>
       <r>   -0.0821    1.0000 </r>
       <r>   -0.0388    1.0000 </r>
       <r>    0.0318    1.0000 </r>
       <r>    0.0320    1.0000 </r>
       <r>    0.0630    1.0000 </r>
       <r>    0.0849    1.0000 </r>
       <r>    0.0888    1.0000 </r>
       <r>    0.0889    1.0000 </r>
       <r>    0.2140    1.0000 </r>
       <r>    0.2155    1.0000 </r>
       <r>    0.2176    1.0000 </r>
       <r>    0.2179    1.0000 </r>
       <r>    0.2190    1.0000 </r>
       <r>    0.2193    1.0000 </r>
       <r>    0.2260    1.0000 </r>
       <r>    0.2261    1.0000 </r>
       <r>    0.2369    1.0000 </r>
       <r>    0.2371    1.0000 </r>
       <r>    0.2385    1.0000 </r>
       <r>    0.2387    1.0000 </r>
       <r>    0.2454    1.0000 </r>
       <r>    0.2469    1.0000 </r>
       <r>    0.3536    1.0000 </r>
       <r>    0.3552    1.0000 </r>
       <r>    0.3552    1.0000 </r>
       <r>    0.3604    1.0000 </r>
       <r>    0.3604    1.0000 </r>
       <r>    0.3629    1.0000 </r>
       <r>    0.4291    1.0000 </r>
       <r>    0.5257    1.0000 </r>
       <r>    0.5668    1.0000 </r>
       <r>    0.5670    1.0000 </r>
       <r>    0.6139    1.0000 </r>
       <r>    0.6142    1.0000 </r>
       <r>    0.6203    1.0000 </r>
       <r>    0.6225    1.0000 </r>
       <r>    0.6351    1.0000 </r>
       <r>    0.6352    1.0000 </r>
       <r>    0.6426    1.0000 </r>
       <r>    0.6430    1.0000 </r>
       <r>    0.6696    1.0000 </r>
       <r>    0.6801    1.0000 </r>
       <r>    0.6825    1.0000 </r>
       <r>    0.6857    1.0000 </r>
       <r>    0.7415    1.0000 </r>
       <r>    0.7485    1.0000 </r>
       <r>    0.8644    1.0000 </r>
       <r>    0.8665    1.0000 </r>
       <r>    0.8747    1.0000 </r>
       <r>    1.0642    1.0000 </r>
       <r>    1.0646    1.0000 </r>
       <r>    1.1337    1.0000 </r>
       <r>    1.1337    1.0000 </r>
       <r>    1.1346    1.0000 </r>
       <r>    1.1347    1.0000 </r>
       <r>    1.1495    1.0000 </r>
       <r>    1.1693    1.0000 </r>
       <r>    1.1965    1.0000 </r>
       <r>    1.1967    1.0000 </r>
       <r>    1.2399    1.0000 </r>
       <r>    1.2463    1.0000 </r>
       <r>    1.2468    1.0000 </r>
       <r>    1.2615    1.0000 </r>
       <r>    1.2615    1.0000 </r>
       <r>    1.2625    1.0000 </r>
       <r>    1.2759    1.0000 </r>
       <r>    1.2762    1.0000 </r>
       <r>    1.2834    1.0000 </r>
       <r>    1.2836    1.0000 </r>
       <r>    1.2839    1.0000 </r>
       <r>    1.2865    1.0000 </r>
       <r>    1.3023    1.0000 </r>
       <r>    1.3025    1.0000 </r>
       <r>    1.3234    1.0000 </r>
       <r>    1.3235    1.0000 </r>
       <r>    1.3340    1.0000 </r>
       <r>    1.3341    1.0000 </r>
       <r>    1.3408    1.0000 </r>
       <r>    1.3433    1.0000 </r>
       <r>    1.4065    1.0000 </r>
       <r>    1.4087    1.0000 </r>
       <r>    1.4111    1.0000 </r>
       <r>    1.4849    1.0000 </r>
       <r>    1.4865    1.0000 </r>
       <r>    1.4867    1.0000 </r>
       <r>    1.8179    1.0000 </r>
       <r>    1.8180    1.0000 </r>
       <r>    1.8466    1.0000 </r>
       <r>    1.8724    1.0000 </r>
       <r>    1.8987    1.0000 </r>
       <r>    1.8988    1.0000 </r>
       <r>    1.9059    1.0000 </r>
       <r>    1.9061    1.0000 </r>
       <r>    1.9288    1.0000 </r>
       <r>    1.9333    1.0000 </r>
       <r>    1.9341    1.0000 </r>
       <r>    1.9369    1.0000 </r>
       <r>    1.9636    1.0000 </r>
       <r>    1.9642    1.0000 </r>
       <r>    1.9647    1.0000 </r>
       <r>    2.0585    1.0000 </r>
       <r>    2.0610    1.0000 </r>
       <r>    2.3349    1.0000 </r>
       <r>    2.3387    1.0000 </r>
       <r>    2.4123    1.0000 </r>
       <r>    2.4143    1.0000 </r>
       <r>    2.5038    1.0000 </r>
       <r>    2.5038    1.0000 </r>
       <r>    5.5525    0.0000 </r>
       <r>    6.5231    0.0000 </r>
       <r>    6.5240    0.0000 </r>
       <r>    6.7099    0.0000 </r>
       <r>    6.7273    0.0000 </r>
       <r>    6.7318    0.0000 </r>
       <r>    7.0225    0.0000 </r>
       <r>    7.0552    0.0000 </r>
       <r>    7.0554    0.0000 </r>
       <r>    7.0870    0.0000 </r>
       <r>    7.0871    0.0000 </r>
       <r>    7.1695    0.0000 </r>
       <r>    7.1695    0.0000 </r>
       <r>    7.1774    0.0000 </r>
       <r>    7.2610    0.0000 </r>
       <r>    7.2862    0.0000 </r>
       <r>    7.2863    0.0000 </r>
       <r>    7.3119    0.0000 </r>
       <r>    7.3556    0.0000 </r>
       <r>    7.3761    0.0000 </r>
       <r>    7.3777    0.0000 </r>
       <r>    7.4035    0.0000 </r>
       <r>    7.4588    0.0000 </r>
       <r>    7.4603    0.0000 </r>
       <r>    7.5454    0.0000 </r>
       <r>    7.5457    0.0000 </r>
       <r>    7.5919    0.0000 </r>
       <r>    7.5965    0.0000 </r>
       <r>    7.5976    0.0000 </r>
       <r>    7.6081    0.0000 </r>
       <r>    7.7346    0.0000 </r>
       <r>    7.7831    0.0000 </r>
       <r>    7.8165    0.0000 </r>
       <r>    7.8168    0.0000 </r>
       <r>    7.8316    0.0000 </r>
       <r>    7.8498    0.0000 </r>
       <r>    7.8501    0.0000 </r>
       <r>    7.8593    0.0000 </r>
       <r>    7.8595    0.0000 </r>
       <r>    7.8751    0.0000 </r>
       <r>    7.8834    0.0000 </r>
       <r>    7.8865    0.0000 </r>
       <r>    7.8867    0.0000 </r>
       <r>    7.8901    0.0000 </r>
       <r>    7.8902    0.0000 </r>
       <r>    7.9070    0.0000 </r>
       <r>    7.9087    0.0000 </r>
       <r>    7.9094    0.0000 </r>
       <r>    7.9148    0.0000 </r>
       <r>    7.9149    0.0000 </r>
       <r>    7.9164    0.0000 </r>
       <r>    7.9233    0.0000 </r>
       <r>    7.9273    0.0000 </r>
       <r>    7.9332    0.0000 </r>
       <r>    7.9335    0.0000 </r>
       <r>    8.0409    0.0000 </r>
       <r>    8.0433    0.0000 </r>
       <r>    8.0437    0.0000 </r>
       <r>    8.3913    0.0000 </r>
       <r>    8.4312    0.0000 </r>
       <r>    8.4316    0.0000 </r>
       <r>    8.4360    0.0000 </r>
       <r>    8.4420    0.0000 </r>
       <r>    8.4428    0.0000 </r>
       <r>    8.4658    0.0000 </r>
       <r>    8.4660    0.0000 </r>
       <r>    8.4812    0.0000 </r>
       <r>    8.4813    0.0000 </r>
       <r>    8.4994    0.0000 </r>
       <r>    8.5030    0.0000 </r>
       <r>    8.5035    0.0000 </r>
       <r>    8.5059    0.0000 </r>
       <r>    8.5381    0.0000 </r>
       <r>    8.5392    0.0000 </r>
       <r>    8.5674    0.0000 </r>
       <r>    8.7656    0.0000 </r>
       <r>    8.9280    0.0000 </r>
       <r>    9.1713    0.0000 </r>
       <r>    9.1731    0.0000 </r>
       <r>    9.2053    0.0000 </r>
       <r>    9.2074    0.0000 </r>
       <r>    9.2297    0.0000 </r>
       <r>    9.3538    0.0000 </r>
       <r>    9.3552    0.0000 </r>
       <r>    9.5127    0.0000 </r>
       <r>    9.5266    0.0000 </r>
       <r>    9.5268    0.0000 </r>
       <r>    9.5290    0.0000 </r>
       <r>    9.5335    0.0000 </r>
       <r>    9.5335    0.0000 </r>
       <r>    9.5365    0.0000 </r>
       <r>    9.5387    0.0000 </r>
       <r>    9.5389    0.0000 </r>
       <r>    9.5409    0.0000 </r>
       <r>    9.6390    0.0000 </r>
       <r>    9.6416    0.0000 </r>
       <r>    9.8933    0.0000 </r>
       <r>    9.9691    0.0000 </r>
       <r>   10.0488    0.0000 </r>
       <r>   10.1226    0.0000 </r>
       <r>   10.1276    0.0000 </r>
       <r>   10.1394    0.0000 </r>
       <r>   10.1398    0.0000 </r>
       <r>   10.1410    0.0000 </r>
       <r>   10.1499    0.0000 </r>
       <r>   10.1603    0.0000 </r>
       <r>   10.1607    0.0000 </r>
       <r>   10.1693    0.0000 </r>
       <r>   10.1716    0.0000 </r>
       <r>   10.2481    0.0000 </r>
       <r>   10.2598    0.0000 </r>
       <r>   10.2974    0.0000 </r>
       <r>   10.3009    0.0000 </r>
       <r>   10.3291    0.0000 </r>
       <r>   10.3300    0.0000 </r>
       <r>   10.3657    0.0000 </r>
       <r>   10.4438    0.0000 </r>
       <r>   10.4458    0.0000 </r>
       <r>   10.4501    0.0000 </r>
       <r>   10.4630    0.0000 </r>
       <r>   10.4636    0.0000 </r>
       <r>   10.4676    0.0000 </r>
       <r>   10.4949    0.0000 </r>
       <r>   10.5145    0.0000 </r>
       <r>   10.5198    0.0000 </r>
       <r>   10.5202    0.0000 </r>
       <r>   10.5208    0.0000 </r>
       <r>   10.5270    0.0000 </r>
       <r>   10.5738    0.0000 </r>
       <r>   10.5748    0.0000 </r>
       <r>   10.5760    0.0000 </r>
       <r>   10.5775    0.0000 </r>
       <r>   10.5817    0.0000 </r>
       <r>   10.5919    0.0000 </r>
       <r>   10.6026    0.0000 </r>
       <r>   10.6069    0.0000 </r>
       <r>   10.6740    0.0000 </r>
       <r>   10.7154    0.0000 </r>
       <r>   10.8240    0.0000 </r>
       <r>   10.8604    0.0000 </r>
       <r>   10.8778    0.0000 </r>
       <r>   10.8813    0.0000 </r>
       <r>   10.8852    0.0000 </r>
       <r>   10.8895    0.0000 </r>
       <r>   10.9069    0.0000 </r>
       <r>   10.9456    0.0000 </r>
       <r>   10.9498    0.0000 </r>
       <r>   10.9578    0.0000 </r>
       <r>   10.9624    0.0000 </r>
       <r>   10.9714    0.0000 </r>
       <r>   12.0597    0.0000 </r>
       <r>   12.2806    0.0000 </r>
      </set>
      <set comment="kpoint 2">
       <r>  -17.1660    1.0000 </r>
       <r>  -15.7423    1.0000 </r>
       <r>  -15.6891    1.0000 </r>
       <r>  -15.4183    1.0000 </r>
       <r>  -15.2947    1.0000 </r>
       <r>  -15.2491    1.0000 </r>
       <r>  -15.2282    1.0000 </r>
       <r>  -15.1904    1.0000 </r>
       <r>  -15.1881    1.0000 </r>
       <r>  -15.0921    1.0000 </r>
       <r>  -15.0539    1.0000 </r>
       <r>  -15.0251    1.0000 </r>
       <r>  -15.0073    1.0000 </r>
       <r>  -14.9546    1.0000 </r>
       <r>  -14.9440    1.0000 </r>
       <r>  -14.9374    1.0000 </r>
       <r>  -14.9357    1.0000 </r>
       <r>  -14.8528    1.0000 </r>
       <r>  -14.7535    1.0000 </r>
       <r>  -14.7520    1.0000 </r>
       <r>  -14.6181    1.0000 </r>
       <r>  -14.5686    1.0000 </r>
       <r>  -14.5447    1.0000 </r>
       <r>  -14.4575    1.0000 </r>
       <r>  -14.4455    1.0000 </r>
       <r>  -14.4428    1.0000 </r>
       <r>  -14.4279    1.0000 </r>
       <r>  -14.4241    1.0000 </r>
       <r>  -14.4201    1.0000 </r>
       <r>  -14.4159    1.0000 </r>
       <r>  -14.4144    1.0000 </r>
       <r>  -14.3469    1.0000 </r>
       <r>  -14.2463    1.0000 </r>
       <r>  -14.2417    1.0000 </r>
       <r>  -14.2394    1.0000 </r>
       <r>  -14.2391    1.0000 </r>
       <r>  -14.2007    1.0000 </r>
       <r>  -14.1916    1.0000 </r>
       <r>  -14.1674    1.0000 </r>
       <r>  -14.1663    1.0000 </r>
       <r>  -14.1140    1.0000 </r>
       <r>  -14.0325    1.0000 </r>
       <r>  -13.9964    1.0000 </r>
       <r>  -13.9945    1.0000 </r>
       <r>  -13.9371    1.0000 </r>
       <r>  -13.7857    1.0000 </r>
       <r>  -13.7355    1.0000 </r>
       <r>  -13.7099    1.0000 </r>
       <r>  -13.7088    1.0000 </r>
       <r>  -13.7068    1.0000 </r>
       <r>  -13.6964    1.0000 </r>
       <r>  -13.6937    1.0000 </r>
       <r>  -13.6738    1.0000 </r>
       <r>  -13.6734    1.0000 </r>
       <r>  -13.5991    1.0000 </r>
       <r>  -13.5308    1.0000 </r>
       <r>  -13.5306    1.0000 </r>
       <r>  -13.5155    1.0000 </r>
       <r>  -13.5153    1.0000 </r>
       <r>  -13.5003    1.0000 </r>
       <r>  -13.3571    1.0000 </r>
       <r>  -13.3350    1.0000 </r>
       <r>  -13.2544    1.0000 </r>
       <r>  -13.2224    1.0000 </r>
       <r>  -13.1134    1.0000 </r>
       <r>  -13.0592    1.0000 </r>
       <r>  -13.0531    1.0000 </r>
       <r>  -13.0508    1.0000 </r>
       <r>  -13.0422    1.0000 </r>
       <r>  -13.0398    1.0000 </r>
       <r>  -13.0374    1.0000 </r>
       <r>  -13.0346    1.0000 </r>
       <r>  -13.0330    1.0000 </r>
       <r>  -12.9750    1.0000 </r>
       <r>  -12.9266    1.0000 </r>
       <r>  -12.8882    1.0000 </r>
       <r>  -12.8840    1.0000 </r>
       <r>  -12.8813    1.0000 </r>
       <r>  -12.8800    1.0000 </r>
       <r>  -12.8765    1.0000 </r>
       <r>  -12.8736    1.0000 </r>
       <r>  -12.8734    1.0000 </r>
       <r>  -12.8710    1.0000 </r>
       <r>  -12.8688    1.0000 </r>
       <r>  -12.8672    1.0000 </r>
       <r>  -12.8633    1.0000 </r>
       <r>  -12.8628    1.0000 </r>
       <r>  -12.8579    1.0000 </r>
       <r>  -12.7162    1.0000 </r>
       <r>  -12.7140    1.0000 </r>
       <r>  -12.7138    1.0000 </r>
       <r>  -12.7135    1.0000 </r>
       <r>  -12.6874    1.0000 </r>
       <r>  -12.6074    1.0000 </r>
       <r>  -12.5914    1.0000 </r>
       <r>  -12.5840    1.0000 </r>
       <r>  -12.5690    1.0000 </r>
       <r>  -12.5546    1.0000 </r>
       <r>  -12.5261    1.0000 </r>
       <r>  -12.4961    1.0000 </r>
       <r>  -12.4346    1.0000 </r>
       <r>  -12.4307    1.0000 </r>
       <r>  -12.4234    1.0000 </r>
       <r>  -12.4183    1.0000 </r>
       <r>  -12.3356    1.0000 </r>
       <r>  -12.3323    1.0000 </r>
       <r>  -12.3278    1.0000 </r>
       <r>  -12.3234    1.0000 </r>
       <r>  -12.2441    1.0000 </r>
       <r>  -12.2416    1.0000 </r>
       <r>  -12.2395    1.0000 </r>
       <r>  -12.2360    1.0000 </r>
       <r>  -12.2166    1.0000 </r>
       <r>  -12.2150    1.0000 </r>
       <r>  -12.2100    1.0000 </r>
       <r>  -12.2077    1.0000 </r>
       <r>  -12.1795    1.0000 </r>
       <r>  -12.1766    1.0000 </r>
       <r>  -12.1744    1.0000 </r>
       <r>  -12.1684    1.0000 </r>
       <r>  -12.0958    1.0000 </r>
       <r>  -12.0956    1.0000 </r>
       <r>  -12.0883    1.0000 </r>
       <r>  -12.0871    1.0000 </r>
       <r>  -12.0861    1.0000 </r>
       <r>  -12.0803    1.0000 </r>
       <r>  -11.9498    1.0000 </r>
       <r>  -11.9475    1.0000 </r>
       <r>  -11.9467    1.0000 </r>
       <r>  -11.9443    1.0000 </r>
       <r>  -11.8157    1.0000 </r>
       <r>  -11.8151    1.0000 </r>
       <r>  -11.8070    1.0000 </r>
       <r>  -11.8064    1.0000 </r>
       <r>  -11.8058    1.0000 </r>
       <r>  -11.8052    1.0000 </r>
       <r>  -11.7839    1.0000 </r>
       <r>  -11.7837    1.0000 </r>
       <r>  -11.7802    1.0000 </r>
       <r>  -11.7799    1.0000 </r>
       <r>  -11.6685    1.0000 </r>
       <r>  -11.6685    1.0000 </r>
       <r>  -11.6612    1.0000 </r>
       <r>  -11.6612    1.0000 </r>
       <r>   -8.1623    1.0000 </r>
       <r>   -7.2500    1.0000 </r>
       <r>   -7.2352    1.0000 </r>
       <r>   -6.7824    1.0000 </r>
       <r>   -6.6969    1.0000 </r>
       <r>   -6.6795    1.0000 </r>
       <r>   -6.4273    1.0000 </r>
       <r>   -6.4010    1.0000 </r>
       <r>   -6.3185    1.0000 </r>
       <r>   -6.3076    1.0000 </r>
       <r>   -6.3054    1.0000 </r>
       <r>   -6.3045    1.0000 </r>
       <r>   -6.2992    1.0000 </r>
       <r>   -6.2867    1.0000 </r>
       <r>   -6.2730    1.0000 </r>
       <r>   -6.2722    1.0000 </r>
       <r>   -6.2706    1.0000 </r>
       <r>   -6.2704    1.0000 </r>
       <r>   -6.2152    1.0000 </r>
       <r>   -6.2134    1.0000 </r>
       <r>   -6.2126    1.0000 </r>
       <r>   -6.2042    1.0000 </r>
       <r>   -6.1979    1.0000 </r>
       <r>   -6.1918    1.0000 </r>
       <r>   -6.1587    1.0000 </r>
       <r>   -6.1586    1.0000 </r>
       <r>   -6.1490    1.0000 </r>
       <r>   -6.1488    1.0000 </r>
       <r>   -6.0723    1.0000 </r>
       <r>   -6.0710    1.0000 </r>
       <r>   -5.9328    1.0000 </r>
       <r>   -5.9307    1.0000 </r>
       <r>   -5.9074    1.0000 </r>
       <r>   -5.9064    1.0000 </r>
       <r>   -5.8347    1.0000 </r>
       <r>   -5.7894    1.0000 </r>
       <r>   -5.7817    1.0000 </r>
       <r>   -5.7686    1.0000 </r>
       <r>   -5.7676    1.0000 </r>
       <r>   -5.7634    1.0000 </r>
       <r>   -5.7626    1.0000 </r>
       <r>   -5.7610    1.0000 </r>
       <r>   -5.7593    1.0000 </r>
       <r>   -5.7567    1.0000 </r>
       <r>   -5.7522    1.0000 </r>
       <r>   -5.7516    1.0000 </r>
       <r>   -5.7331    1.0000 </r>
       <r>   -5.6821    1.0000 </r>
       <r>   -5.6521    1.0000 </r>
       <r>   -5.6398    1.0000 </r>
       <r>   -5.6229    1.0000 </r>
       <r>   -5.6229    1.0000 </r>
       <r>   -5.6196    1.0000 </r>
       <r>   -5.6196    1.0000 </r>
       <r>   -5.2270    1.0000 </r>
       <r>   -5.2253    1.0000 </r>
       <r>   -5.2239    1.0000 </r>
       <r>   -5.2227    1.0000 </r>
       <r>   -5.2216    1.0000 </r>
       <r>   -5.2210    1.0000 </r>
       <r>   -5.2208    1.0000 </r>
       <r>   -5.2202    1.0000 </r>
       <r>   -5.2191    1.0000 </r>
       <r>   -5.2186    1.0000 </r>
       <r>   -5.2176    1.0000 </r>
       <r>   -5.2174    1.0000 </r>
       <r>   -5.1099    1.0000 </r>
       <r>   -5.0938    1.0000 </r>
       <r>   -5.0907    1.0000 </r>
       <r>   -5.0904    1.0000 </r>
       <r>   -5.0877    1.0000 </r>
       <r>   -5.0875    1.0000 </r>
       <r>   -5.0873    1.0000 </r>
       <r>   -5.0870    1.0000 </r>
       <r>   -5.0076    1.0000 </r>
       <r>   -4.9192    1.0000 </r>
       <r>   -4.8274    1.0000 </r>
       <r>   -4.5993    1.0000 </r>
       <r>   -4.5410    1.0000 </r>
       <r>   -4.5334    1.0000 </r>
       <r>   -4.4753    1.0000 </r>
       <r>   -4.4727    1.0000 </r>
       <r>   -4.4716    1.0000 </r>
       <r>   -4.4710    1.0000 </r>
       <r>   -4.4707    1.0000 </r>
       <r>   -4.4692    1.0000 </r>
       <r>   -4.4677    1.0000 </r>
       <r>   -4.4675    1.0000 </r>
       <r>   -4.3413    1.0000 </r>
       <r>   -4.3411    1.0000 </r>
       <r>   -4.3408    1.0000 </r>
       <r>   -4.3407    1.0000 </r>
       <r>   -4.3149    1.0000 </r>
       <r>   -4.1918    1.0000 </r>
       <r>   -4.0910    1.0000 </r>
       <r>   -4.0894    1.0000 </r>
       <r>   -4.0873    1.0000 </r>
       <r>   -4.0871    1.0000 </r>
       <r>   -4.0846    1.0000 </r>
       <r>   -4.0832    1.0000 </r>
       <r>   -4.0740    1.0000 </r>
       <r>   -4.0736    1.0000 </r>
       <r>   -4.0717    1.0000 </r>
       <r>   -4.0705    1.0000 </r>
       <r>   -4.0233    1.0000 </r>
       <r>   -3.9501    1.0000 </r>
       <r>   -3.9500    1.0000 </r>
       <r>   -3.9466    1.0000 </r>
       <r>   -3.9465    1.0000 </r>
       <r>   -3.9060    1.0000 </r>
       <r>   -3.8643    1.0000 </r>
       <r>   -3.7745    1.0000 </r>
       <r>   -3.7436    1.0000 </r>
       <r>   -3.6226    1.0000 </r>
       <r>   -3.6208    1.0000 </r>
       <r>   -3.6152    1.0000 </r>
       <r>   -3.6139    1.0000 </r>
       <r>   -3.6034    1.0000 </r>
       <r>   -3.6028    1.0000 </r>
       <r>   -3.5982    1.0000 </r>
       <r>   -3.5977    1.0000 </r>
       <r>   -3.4795    1.0000 </r>
       <r>   -3.4794    1.0000 </r>
       <r>   -3.4740    1.0000 </r>
       <r>   -3.4739    1.0000 </r>
       <r>   -3.4738    1.0000 </r>
       <r>   -3.4689    1.0000 </r>
       <r>   -3.4684    1.0000 </r>
       <r>   -3.4681    1.0000 </r>
       <r>   -3.4651    1.0000 </r>
       <r>   -3.4645    1.0000 </r>
       <r>   -3.4338    1.0000 </r>
       <r>   -3.3435    1.0000 </r>
       <r>   -3.3383    1.0000 </r>
       <r>   -3.3381    1.0000 </r>
       <r>   -3.1457    1.0000 </r>
       <r>   -3.0897    1.0000 </r>
       <r>   -3.0756    1.0000 </r>
       <r>   -3.0738    1.0000 </r>
       <r>   -3.0701    1.0000 </r>
       <r>   -3.0694    1.0000 </r>
       <r>   -3.0668    1.0000 </r>
       <r>   -2.9835    1.0000 </r>
       <r>   -2.9382    1.0000 </r>
       <r>   -2.9375    1.0000 </r>
       <r>   -2.9012    1.0000 </r>
       <r>   -2.8460    1.0000 </r>
       <r>   -2.8080    1.0000 </r>
       <r>   -2.7633    1.0000 </r>
       <r>   -2.7540    1.0000 </r>
       <r>   -2.7501    1.0000 </r>
       <r>   -2.7470    1.0000 </r>
       <r>   -2.7452    1.0000 </r>
       <r>   -2.7233    1.0000 </r>
       <r>   -2.7224    1.0000 </r>
       <r>   -2.6822    1.0000 </r>
       <r>   -2.6781    1.0000 </r>
       <r>   -2.6686    1.0000 </r>
       <r>   -2.6673    1.0000 </r>
       <r>   -2.6628    1.0000 </r>
       <r>   -2.5440    1.0000 </r>
       <r>   -2.5438    1.0000 </r>
       <r>   -2.5183    1.0000 </r>
       <r>   -2.5165    1.0000 </r>
       <r>   -2.5103    1.0000 </r>
       <r>   -2.4548    1.0000 </r>
       <r>   -2.4237    1.0000 </r>
       <r>   -2.4151    1.0000 </r>
       <r>   -2.3829    1.0000 </r>
       <r>   -2.3758    1.0000 </r>
       <r>   -2.3738    1.0000 </r>
       <r>   -2.3731    1.0000 </r>
       <r>   -2.3724    1.0000 </r>
       <r>   -2.3715    1.0000 </r>
       <r>   -2.3705    1.0000 </r>
       <r>   -2.3696    1.0000 </r>
       <r>   -2.3687    1.0000 </r>
       <r>   -2.3569    1.0000 </r>
       <r>   -2.3522    1.0000 </r>
       <r>   -2.3418    1.0000 </r>
       <r>   -2.3172    1.0000 </r>
       <r>   -2.2593    1.0000 </r>
       <r>   -2.2409    1.0000 </r>
       <r>   -2.2405    1.0000 </r>
       <r>   -2.2403    1.0000 </r>
       <r>   -2.2400    1.0000 </r>
       <r>   -2.2085    1.0000 </r>
       <r>   -2.1730    1.0000 </r>
       <r>   -2.1457    1.0000 </r>
       <r>   -2.1342    1.0000 </r>
       <r>   -2.0890    1.0000 </r>
       <r>   -2.0888    1.0000 </r>
       <r>   -2.0881    1.0000 </r>
       <r>   -2.0878    1.0000 </r>
       <r>   -2.0547    1.0000 </r>
       <r>   -2.0545    1.0000 </r>
       <r>   -2.0535    1.0000 </r>
       <r>   -2.0530    1.0000 </r>
       <r>   -2.0151    1.0000 </r>
       <r>   -2.0116    1.0000 </r>
       <r>   -2.0111    1.0000 </r>
       <r>   -2.0015    1.0000 </r>
       <r>   -1.9810    1.0000 </r>
       <r>   -1.9430    1.0000 </r>
       <r>   -1.9430    1.0000 </r>
       <r>   -1.9329    1.0000 </r>
       <r>   -1.9329    1.0000 </r>
       <r>   -1.8929    1.0000 </r>
       <r>   -1.8694    1.0000 </r>
       <r>   -1.8675    1.0000 </r>
       <r>   -1.8668    1.0000 </r>
       <r>   -1.8655    1.0000 </r>
       <r>   -1.8235    1.0000 </r>
       <r>   -1.8230    1.0000 </r>
       <r>   -1.8202    1.0000 </r>
       <r>   -1.8176    1.0000 </r>
       <r>   -1.8162    1.0000 </r>
       <r>   -1.8145    1.0000 </r>
       <r>   -1.7773    1.0000 </r>
       <r>   -1.7770    1.0000 </r>
       <r>   -1.7762    1.0000 </r>
       <r>   -1.7759    1.0000 </r>
       <r>   -1.7755    1.0000 </r>
       <r>   -1.7753    1.0000 </r>
       <r>   -1.7749    1.0000 </r>
       <r>   -1.7742    1.0000 </r>
       <r>   -1.7638    1.0000 </r>
       <r>   -1.7148    1.0000 </r>
       <r>   -1.7048    1.0000 </r>
       <r>   -1.6995    1.0000 </r>
       <r>   -1.6924    1.0000 </r>
       <r>   -1.6579    1.0000 </r>
       <r>   -1.6480    1.0000 </r>
       <r>   -1.6452    1.0000 </r>
       <r>   -1.6451    1.0000 </r>
       <r>   -1.6448    1.0000 </r>
       <r>   -1.6448    1.0000 </r>
       <r>   -1.6338    1.0000 </r>
       <r>   -1.6147    1.0000 </r>
       <r>   -1.6112    1.0000 </r>
       <r>   -1.6053    1.0000 </r>
       <r>   -1.6033    1.0000 </r>
       <r>   -1.5830    1.0000 </r>
       <r>   -1.5807    1.0000 </r>
       <r>   -1.5780    1.0000 </r>
       <r>   -1.5649    1.0000 </r>
       <r>   -1.5632    1.0000 </r>
       <r>   -1.5558    1.0000 </r>
       <r>   -1.5535    1.0000 </r>
       <r>   -1.5509    1.0000 </r>
       <r>   -1.4769    1.0000 </r>
       <r>   -1.4496    1.0000 </r>
       <r>   -1.4411    1.0000 </r>
       <r>   -1.4315    1.0000 </r>
       <r>   -1.3498    1.0000 </r>
       <r>   -1.3475    1.0000 </r>
       <r>   -1.3365    1.0000 </r>
       <r>   -1.3355    1.0000 </r>
       <r>   -1.2293    1.0000 </r>
       <r>   -1.2292    1.0000 </r>
       <r>   -1.2258    1.0000 </r>
       <r>   -1.2258    1.0000 </r>
       <r>   -1.2116    1.0000 </r>
       <r>   -1.2114    1.0000 </r>
       <r>   -1.2093    1.0000 </r>
       <r>   -1.2079    1.0000 </r>
       <r>   -1.1817    1.0000 </r>
       <r>   -1.0914    1.0000 </r>
       <r>   -1.0913    1.0000 </r>
       <r>   -1.0860    1.0000 </r>
       <r>   -1.0860    1.0000 </r>
       <r>   -1.0497    1.0000 </r>
       <r>   -1.0084    1.0000 </r>
       <r>   -0.9829    1.0000 </r>
       <r>   -0.9295    1.0000 </r>
       <r>   -0.8736    1.0000 </r>
       <r>   -0.8682    1.0000 </r>
       <r>   -0.8450    1.0000 </r>
       <r>   -0.7796    1.0000 </r>
       <r>   -0.7749    1.0000 </r>
       <r>   -0.7478    1.0000 </r>
       <r>   -0.7223    1.0000 </r>
       <r>   -0.7166    1.0000 </r>
       <r>   -0.7064    1.0000 </r>
       <r>   -0.7035    1.0000 </r>
       <r>   -0.7025    1.0000 </r>
       <r>   -0.6758    1.0000 </r>
       <r>   -0.6744    1.0000 </r>
       <r>   -0.6738    1.0000 </r>
       <r>   -0.6729    1.0000 </r>
       <r>   -0.6545    1.0000 </r>
       <r>   -0.6528    1.0000 </r>
       <r>   -0.6522    1.0000 </r>
       <r>   -0.6218    1.0000 </r>
       <r>   -0.5177    1.0000 </r>
       <r>   -0.5166    1.0000 </r>
       <r>   -0.5156    1.0000 </r>
       <r>   -0.5146    1.0000 </r>
       <r>   -0.4620    1.0000 </r>
       <r>   -0.4585    1.0000 </r>
       <r>   -0.4576    1.0000 </r>
       <r>   -0.4571    1.0000 </r>
       <r>   -0.4542    1.0000 </r>
       <r>   -0.4536    1.0000 </r>
       <r>   -0.4530    1.0000 </r>
       <r>   -0.4497    1.0000 </r>
       <r>   -0.4251    1.0000 </r>
       <r>   -0.4007    1.0000 </r>
       <r>   -0.3835    1.0000 </r>
       <r>   -0.3834    1.0000 </r>
       <r>   -0.3769    1.0000 </r>
       <r>   -0.3683    1.0000 </r>
       <r>   -0.3569    1.0000 </r>
       <r>   -0.3537    1.0000 </r>
       <r>   -0.3487    1.0000 </r>
       <r>   -0.3463    1.0000 </r>
       <r>   -0.3424    1.0000 </r>
       <r>   -0.3397    1.0000 </r>
       <r>   -0.3269    1.0000 </r>
       <r>   -0.3263    1.0000 </r>
       <r>   -0.3262    1.0000 </r>
       <r>   -0.3257    1.0000 </r>
       <r>   -0.2752    1.0000 </r>
       <r>   -0.2255    1.0000 </r>
       <r>   -0.2250    1.0000 </r>
       <r>   -0.0984    1.0000 </r>
       <r>   -0.0444    1.0000 </r>
       <r>    0.0266    1.0000 </r>
       <r>    0.0691    1.0000 </r>
       <r>    0.1217    1.0000 </r>
       <r>    0.1564    1.0000 </r>
       <r>    0.1581    1.0000 </r>
       <r>    0.1755    1.0000 </r>
       <r>    0.1803    1.0000 </r>
       <r>    0.2033    1.0000 </r>
       <r>    0.2128    1.0000 </r>
       <r>    0.2156    1.0000 </r>
       <r>    0.2184    1.0000 </r>
       <r>    0.2208    1.0000 </r>
       <r>    0.2405    1.0000 </r>
       <r>    0.2431    1.0000 </r>
       <r>    0.2940    1.0000 </r>
       <r>    0.3173    1.0000 </r>
       <r>    0.3212    1.0000 </r>
       <r>    0.3437    1.0000 </r>
       <r>    0.3451    1.0000 </r>
       <r>    0.3491    1.0000 </r>
       <r>    0.3504    1.0000 </r>
       <r>    0.3707    1.0000 </r>
       <r>    0.3786    1.0000 </r>
       <r>    0.3965    1.0000 </r>
       <r>    0.4550    1.0000 </r>
       <r>    0.4600    1.0000 </r>
       <r>    0.4646    1.0000 </r>
       <r>    0.4649    1.0000 </r>
       <r>    0.4652    1.0000 </r>
       <r>    0.4765    1.0000 </r>
       <r>    0.4772    1.0000 </r>
       <r>    0.4773    1.0000 </r>
       <r>    0.5552    1.0000 </r>
       <r>    0.5596    1.0000 </r>
       <r>    0.5711    1.0000 </r>
       <r>    0.5856    1.0000 </r>
       <r>    0.5901    1.0000 </r>
       <r>    0.6930    1.0000 </r>
       <r>    0.6936    1.0000 </r>
       <r>    0.7030    1.0000 </r>
       <r>    0.7077    1.0000 </r>
       <r>    0.7335    1.0000 </r>
       <r>    0.8101    1.0000 </r>
       <r>    0.8134    1.0000 </r>
       <r>    0.8433    1.0000 </r>
       <r>    0.8553    1.0000 </r>
       <r>    0.8564    1.0000 </r>
       <r>    0.8815    1.0000 </r>
       <r>    0.8842    1.0000 </r>
       <r>    0.8856    1.0000 </r>
       <r>    0.9162    1.0000 </r>
       <r>    0.9936    1.0000 </r>
       <r>    0.9977    1.0000 </r>
       <r>    0.9989    1.0000 </r>
       <r>    1.0028    1.0000 </r>
       <r>    1.0239    1.0000 </r>
       <r>    1.0338    1.0000 </r>
       <r>    1.0889    1.0000 </r>
       <r>    1.1059    1.0000 </r>
       <r>    1.2088    1.0000 </r>
       <r>    1.2100    1.0000 </r>
       <r>    1.2250    1.0000 </r>
       <r>    1.2341    1.0000 </r>
       <r>    1.2481    1.0000 </r>
       <r>    1.2511    1.0000 </r>
       <r>    1.2543    1.0000 </r>
       <r>    1.2649    1.0000 </r>
       <r>    1.3159    1.0000 </r>
       <r>    1.3176    1.0000 </r>
       <r>    1.3679    1.0000 </r>
       <r>    1.3695    1.0000 </r>
       <r>    1.4028    1.0000 </r>
       <r>    1.4047    1.0000 </r>
       <r>    1.4408    1.0000 </r>
       <r>    1.4414    1.0000 </r>
       <r>    1.5009    1.0000 </r>
       <r>    1.5050    1.0000 </r>
       <r>    1.5400    1.0000 </r>
       <r>    1.5853    1.0000 </r>
       <r>    1.5908    1.0000 </r>
       <r>    1.5933    1.0000 </r>
       <r>    1.7658    1.0000 </r>
       <r>    1.7707    1.0000 </r>
       <r>    1.8478    1.0000 </r>
       <r>    1.8560    1.0000 </r>
       <r>    1.8618    1.0000 </r>
       <r>    1.8631    1.0000 </r>
       <r>    1.9197    1.0000 </r>
       <r>    1.9258    1.0000 </r>
       <r>    1.9546    1.0000 </r>
       <r>    1.9602    1.0000 </r>
       <r>    1.9802    1.0000 </r>
       <r>    1.9807    1.0000 </r>
       <r>    2.0257    1.0000 </r>
       <r>    2.0267    1.0000 </r>
       <r>    2.0646    1.0000 </r>
       <r>    2.0684    1.0000 </r>
       <r>    2.0968    1.0000 </r>
       <r>    2.0974    1.0000 </r>
       <r>    2.2247    1.0000 </r>
       <r>    2.2311    1.0000 </r>
       <r>    2.4001    1.0000 </r>
       <r>    2.4006    1.0000 </r>
       <r>    2.4046    1.0000 </r>
       <r>    2.4062    1.0000 </r>
       <r>    5.5534    0.0000 </r>
       <r>    6.6710    0.0000 </r>
       <r>    6.6893    0.0000 </r>
       <r>    6.6927    0.0000 </r>
       <r>    6.7217    0.0000 </r>
       <r>    6.8898    0.0000 </r>
       <r>    6.9329    0.0000 </r>
       <r>    6.9985    0.0000 </r>
       <r>    7.0110    0.0000 </r>
       <r>    7.0891    0.0000 </r>
       <r>    7.0974    0.0000 </r>
       <r>    7.1632    0.0000 </r>
       <r>    7.2136    0.0000 </r>
       <r>    7.2145    0.0000 </r>
       <r>    7.2299    0.0000 </r>
       <r>    7.2563    0.0000 </r>
       <r>    7.2894    0.0000 </r>
       <r>    7.2979    0.0000 </r>
       <r>    7.3069    0.0000 </r>
       <r>    7.3294    0.0000 </r>
       <r>    7.3341    0.0000 </r>
       <r>    7.3420    0.0000 </r>
       <r>    7.3453    0.0000 </r>
       <r>    7.3501    0.0000 </r>
       <r>    7.3622    0.0000 </r>
       <r>    7.3629    0.0000 </r>
       <r>    7.3848    0.0000 </r>
       <r>    7.3879    0.0000 </r>
       <r>    7.3933    0.0000 </r>
       <r>    7.3978    0.0000 </r>
       <r>    7.4301    0.0000 </r>
       <r>    7.4316    0.0000 </r>
       <r>    7.4683    0.0000 </r>
       <r>    7.7063    0.0000 </r>
       <r>    7.7424    0.0000 </r>
       <r>    7.7449    0.0000 </r>
       <r>    7.7487    0.0000 </r>
       <r>    7.7995    0.0000 </r>
       <r>    7.8379    0.0000 </r>
       <r>    7.8608    0.0000 </r>
       <r>    7.8776    0.0000 </r>
       <r>    7.8906    0.0000 </r>
       <r>    7.9082    0.0000 </r>
       <r>    7.9192    0.0000 </r>
       <r>    7.9218    0.0000 </r>
       <r>    7.9622    0.0000 </r>
       <r>    8.0040    0.0000 </r>
       <r>    8.0806    0.0000 </r>
       <r>    8.1243    0.0000 </r>
       <r>    8.1678    0.0000 </r>
       <r>    8.1720    0.0000 </r>
       <r>    8.1749    0.0000 </r>
       <r>    8.1874    0.0000 </r>
       <r>    8.2180    0.0000 </r>
       <r>    8.2236    0.0000 </r>
       <r>    8.2255    0.0000 </r>
       <r>    8.2431    0.0000 </r>
       <r>    8.2564    0.0000 </r>
       <r>    8.2723    0.0000 </r>
       <r>    8.2890    0.0000 </r>
       <r>    8.4380    0.0000 </r>
       <r>    8.5706    0.0000 </r>
       <r>    8.5824    0.0000 </r>
       <r>    8.5994    0.0000 </r>
       <r>    8.6382    0.0000 </r>
       <r>    8.6417    0.0000 </r>
       <r>    8.6506    0.0000 </r>
       <r>    8.6672    0.0000 </r>
       <r>    8.6750    0.0000 </r>
       <r>    8.6836    0.0000 </r>
       <r>    8.6889    0.0000 </r>
       <r>    8.6895    0.0000 </r>
       <r>    8.7348    0.0000 </r>
       <r>    8.9044    0.0000 </r>
       <r>    8.9735    0.0000 </r>
       <r>    9.0016    0.0000 </r>
       <r>    9.0181    0.0000 </r>
       <r>    9.0408    0.0000 </r>
       <r>    9.0844    0.0000 </r>
       <r>    9.1269    0.0000 </r>
       <r>    9.2287    0.0000 </r>
       <r>    9.2515    0.0000 </r>
       <r>    9.2666    0.0000 </r>
       <r>    9.2684    0.0000 </r>
       <r>    9.2799    0.0000 </r>
       <r>    9.2853    0.0000 </r>
       <r>    9.2975    0.0000 </r>
       <r>    9.3009    0.0000 </r>
       <r>    9.3053    0.0000 </r>
       <r>    9.3215    0.0000 </r>
       <r>    9.3263    0.0000 </r>
       <r>    9.3287    0.0000 </r>
       <r>    9.3310    0.0000 </r>
       <r>    9.3968    0.0000 </r>
       <r>    9.4949    0.0000 </r>
       <r>    9.5284    0.0000 </r>
       <r>    9.6514    0.0000 </r>
       <r>    9.6836    0.0000 </r>
       <r>    9.6874    0.0000 </r>
       <r>    9.6904    0.0000 </r>
       <r>    9.6926    0.0000 </r>
       <r>    9.7480    0.0000 </r>
       <r>    9.9088    0.0000 </r>
       <r>   10.0792    0.0000 </r>
       <r>   10.0974    0.0000 </r>
       <r>   10.0993    0.0000 </r>
       <r>   10.1084    0.0000 </r>
       <r>   10.1505    0.0000 </r>
       <r>   10.1730    0.0000 </r>
       <r>   10.1783    0.0000 </r>
       <r>   10.1978    0.0000 </r>
       <r>   10.2007    0.0000 </r>
       <r>   10.2305    0.0000 </r>
       <r>   10.2417    0.0000 </r>
       <r>   10.2854    0.0000 </r>
       <r>   10.3099    0.0000 </r>
       <r>   10.3182    0.0000 </r>
       <r>   10.3778    0.0000 </r>
       <r>   10.3819    0.0000 </r>
       <r>   10.3910    0.0000 </r>
       <r>   10.3944    0.0000 </r>
       <r>   10.4210    0.0000 </r>
       <r>   10.4383    0.0000 </r>
       <r>   10.4455    0.0000 </r>
       <r>   10.4755    0.0000 </r>
       <r>   10.5179    0.0000 </r>
       <r>   10.5408    0.0000 </r>
       <r>   10.6310    0.0000 </r>
       <r>   10.6765    0.0000 </r>
       <r>   10.7225    0.0000 </r>
       <r>   10.7244    0.0000 </r>
       <r>   10.7270    0.0000 </r>
       <r>   10.7323    0.0000 </r>
       <r>   10.7548    0.0000 </r>
       <r>   10.7604    0.0000 </r>
       <r>   10.7658    0.0000 </r>
       <r>   10.7894    0.0000 </r>
       <r>   10.7914    0.0000 </r>
       <r>   10.7951    0.0000 </r>
       <r>   10.8163    0.0000 </r>
       <r>   10.8175    0.0000 </r>
       <r>   11.2447    0.0000 </r>
       <r>   11.2610    0.0000 </r>
       <r>   11.4738    0.0000 </r>
       <r>   11.5048    0.0000 </r>
       <r>   11.5671    0.0000 </r>
       <r>   11.6462    0.0000 </r>
       <r>   11.6943    0.0000 </r>
       <r>   11.7314    0.0000 </r>
       <r>   11.7566    0.0000 </r>
       <r>   11.7884    0.0000 </r>
       <r>   11.9466    0.0000 </r>
      </set>
      <set comment="kpoint 3">
       <r>  -17.1660    1.0000 </r>
       <r>  -15.7432    1.0000 </r>
       <r>  -15.6887    1.0000 </r>
       <r>  -15.4155    1.0000 </r>
       <r>  -15.2954    1.0000 </r>
       <r>  -15.2485    1.0000 </r>
       <r>  -15.2280    1.0000 </r>
       <r>  -15.1910    1.0000 </r>
       <r>  -15.1883    1.0000 </r>
       <r>  -15.0942    1.0000 </r>
       <r>  -15.0548    1.0000 </r>
       <r>  -15.0251    1.0000 </r>
       <r>  -15.0075    1.0000 </r>
       <r>  -14.9548    1.0000 </r>
       <r>  -14.9443    1.0000 </r>
       <r>  -14.9373    1.0000 </r>
       <r>  -14.9357    1.0000 </r>
       <r>  -14.8534    1.0000 </r>
       <r>  -14.7535    1.0000 </r>
       <r>  -14.7520    1.0000 </r>
       <r>  -14.6163    1.0000 </r>
       <r>  -14.5684    1.0000 </r>
       <r>  -14.5436    1.0000 </r>
       <r>  -14.4572    1.0000 </r>
       <r>  -14.4452    1.0000 </r>
       <r>  -14.4428    1.0000 </r>
       <r>  -14.4277    1.0000 </r>
       <r>  -14.4242    1.0000 </r>
       <r>  -14.4201    1.0000 </r>
       <r>  -14.4160    1.0000 </r>
       <r>  -14.4145    1.0000 </r>
       <r>  -14.3454    1.0000 </r>
       <r>  -14.2463    1.0000 </r>
       <r>  -14.2417    1.0000 </r>
       <r>  -14.2394    1.0000 </r>
       <r>  -14.2391    1.0000 </r>
       <r>  -14.2002    1.0000 </r>
       <r>  -14.1915    1.0000 </r>
       <r>  -14.1674    1.0000 </r>
       <r>  -14.1663    1.0000 </r>
       <r>  -14.1144    1.0000 </r>
       <r>  -14.0342    1.0000 </r>
       <r>  -13.9965    1.0000 </r>
       <r>  -13.9945    1.0000 </r>
       <r>  -13.9380    1.0000 </r>
       <r>  -13.7863    1.0000 </r>
       <r>  -13.7352    1.0000 </r>
       <r>  -13.7100    1.0000 </r>
       <r>  -13.7085    1.0000 </r>
       <r>  -13.7066    1.0000 </r>
       <r>  -13.6966    1.0000 </r>
       <r>  -13.6941    1.0000 </r>
       <r>  -13.6740    1.0000 </r>
       <r>  -13.6736    1.0000 </r>
       <r>  -13.5994    1.0000 </r>
       <r>  -13.5307    1.0000 </r>
       <r>  -13.5305    1.0000 </r>
       <r>  -13.5156    1.0000 </r>
       <r>  -13.5153    1.0000 </r>
       <r>  -13.5018    1.0000 </r>
       <r>  -13.3579    1.0000 </r>
       <r>  -13.3333    1.0000 </r>
       <r>  -13.2539    1.0000 </r>
       <r>  -13.2222    1.0000 </r>
       <r>  -13.1124    1.0000 </r>
       <r>  -13.0592    1.0000 </r>
       <r>  -13.0532    1.0000 </r>
       <r>  -13.0509    1.0000 </r>
       <r>  -13.0423    1.0000 </r>
       <r>  -13.0394    1.0000 </r>
       <r>  -13.0373    1.0000 </r>
       <r>  -13.0347    1.0000 </r>
       <r>  -13.0331    1.0000 </r>
       <r>  -12.9738    1.0000 </r>
       <r>  -12.9257    1.0000 </r>
       <r>  -12.8882    1.0000 </r>
       <r>  -12.8840    1.0000 </r>
       <r>  -12.8813    1.0000 </r>
       <r>  -12.8800    1.0000 </r>
       <r>  -12.8766    1.0000 </r>
       <r>  -12.8735    1.0000 </r>
       <r>  -12.8733    1.0000 </r>
       <r>  -12.8710    1.0000 </r>
       <r>  -12.8688    1.0000 </r>
       <r>  -12.8671    1.0000 </r>
       <r>  -12.8633    1.0000 </r>
       <r>  -12.8628    1.0000 </r>
       <r>  -12.8596    1.0000 </r>
       <r>  -12.7159    1.0000 </r>
       <r>  -12.7140    1.0000 </r>
       <r>  -12.7138    1.0000 </r>
       <r>  -12.7135    1.0000 </r>
       <r>  -12.6804    1.0000 </r>
       <r>  -12.6085    1.0000 </r>
       <r>  -12.5913    1.0000 </r>
       <r>  -12.5838    1.0000 </r>
       <r>  -12.5692    1.0000 </r>
       <r>  -12.5548    1.0000 </r>
       <r>  -12.5329    1.0000 </r>
       <r>  -12.4983    1.0000 </r>
       <r>  -12.4353    1.0000 </r>
       <r>  -12.4307    1.0000 </r>
       <r>  -12.4236    1.0000 </r>
       <r>  -12.4186    1.0000 </r>
       <r>  -12.3355    1.0000 </r>
       <r>  -12.3322    1.0000 </r>
       <r>  -12.3276    1.0000 </r>
       <r>  -12.3233    1.0000 </r>
       <r>  -12.2438    1.0000 </r>
       <r>  -12.2415    1.0000 </r>
       <r>  -12.2392    1.0000 </r>
       <r>  -12.2360    1.0000 </r>
       <r>  -12.2168    1.0000 </r>
       <r>  -12.2155    1.0000 </r>
       <r>  -12.2102    1.0000 </r>
       <r>  -12.2081    1.0000 </r>
       <r>  -12.1772    1.0000 </r>
       <r>  -12.1764    1.0000 </r>
       <r>  -12.1723    1.0000 </r>
       <r>  -12.1657    1.0000 </r>
       <r>  -12.0957    1.0000 </r>
       <r>  -12.0956    1.0000 </r>
       <r>  -12.0893    1.0000 </r>
       <r>  -12.0872    1.0000 </r>
       <r>  -12.0866    1.0000 </r>
       <r>  -12.0824    1.0000 </r>
       <r>  -11.9498    1.0000 </r>
       <r>  -11.9475    1.0000 </r>
       <r>  -11.9467    1.0000 </r>
       <r>  -11.9444    1.0000 </r>
       <r>  -11.8157    1.0000 </r>
       <r>  -11.8151    1.0000 </r>
       <r>  -11.8067    1.0000 </r>
       <r>  -11.8061    1.0000 </r>
       <r>  -11.8055    1.0000 </r>
       <r>  -11.8049    1.0000 </r>
       <r>  -11.7841    1.0000 </r>
       <r>  -11.7839    1.0000 </r>
       <r>  -11.7804    1.0000 </r>
       <r>  -11.7801    1.0000 </r>
       <r>  -11.6684    1.0000 </r>
       <r>  -11.6684    1.0000 </r>
       <r>  -11.6613    1.0000 </r>
       <r>  -11.6613    1.0000 </r>
       <r>   -8.1623    1.0000 </r>
       <r>   -7.2498    1.0000 </r>
       <r>   -7.2352    1.0000 </r>
       <r>   -6.7831    1.0000 </r>
       <r>   -6.6995    1.0000 </r>
       <r>   -6.6787    1.0000 </r>
       <r>   -6.4266    1.0000 </r>
       <r>   -6.4014    1.0000 </r>
       <r>   -6.3173    1.0000 </r>
       <r>   -6.3074    1.0000 </r>
       <r>   -6.3051    1.0000 </r>
       <r>   -6.3042    1.0000 </r>
       <r>   -6.2990    1.0000 </r>
       <r>   -6.2839    1.0000 </r>
       <r>   -6.2732    1.0000 </r>
       <r>   -6.2725    1.0000 </r>
       <r>   -6.2707    1.0000 </r>
       <r>   -6.2706    1.0000 </r>
       <r>   -6.2139    1.0000 </r>
       <r>   -6.2135    1.0000 </r>
       <r>   -6.2126    1.0000 </r>
       <r>   -6.2042    1.0000 </r>
       <r>   -6.1973    1.0000 </r>
       <r>   -6.1925    1.0000 </r>
       <r>   -6.1587    1.0000 </r>
       <r>   -6.1585    1.0000 </r>
       <r>   -6.1490    1.0000 </r>
       <r>   -6.1489    1.0000 </r>
       <r>   -6.0724    1.0000 </r>
       <r>   -6.0710    1.0000 </r>
       <r>   -5.9326    1.0000 </r>
       <r>   -5.9304    1.0000 </r>
       <r>   -5.9076    1.0000 </r>
       <r>   -5.9067    1.0000 </r>
       <r>   -5.8367    1.0000 </r>
       <r>   -5.7893    1.0000 </r>
       <r>   -5.7818    1.0000 </r>
       <r>   -5.7697    1.0000 </r>
       <r>   -5.7675    1.0000 </r>
       <r>   -5.7633    1.0000 </r>
       <r>   -5.7624    1.0000 </r>
       <r>   -5.7615    1.0000 </r>
       <r>   -5.7590    1.0000 </r>
       <r>   -5.7568    1.0000 </r>
       <r>   -5.7523    1.0000 </r>
       <r>   -5.7517    1.0000 </r>
       <r>   -5.7375    1.0000 </r>
       <r>   -5.6804    1.0000 </r>
       <r>   -5.6520    1.0000 </r>
       <r>   -5.6393    1.0000 </r>
       <r>   -5.6228    1.0000 </r>
       <r>   -5.6228    1.0000 </r>
       <r>   -5.6196    1.0000 </r>
       <r>   -5.6196    1.0000 </r>
       <r>   -5.2271    1.0000 </r>
       <r>   -5.2254    1.0000 </r>
       <r>   -5.2239    1.0000 </r>
       <r>   -5.2227    1.0000 </r>
       <r>   -5.2216    1.0000 </r>
       <r>   -5.2211    1.0000 </r>
       <r>   -5.2208    1.0000 </r>
       <r>   -5.2202    1.0000 </r>
       <r>   -5.2191    1.0000 </r>
       <r>   -5.2186    1.0000 </r>
       <r>   -5.2176    1.0000 </r>
       <r>   -5.2174    1.0000 </r>
       <r>   -5.1068    1.0000 </r>
       <r>   -5.0953    1.0000 </r>
       <r>   -5.0907    1.0000 </r>
       <r>   -5.0905    1.0000 </r>
       <r>   -5.0877    1.0000 </r>
       <r>   -5.0876    1.0000 </r>
       <r>   -5.0873    1.0000 </r>
       <r>   -5.0870    1.0000 </r>
       <r>   -5.0084    1.0000 </r>
       <r>   -4.9189    1.0000 </r>
       <r>   -4.8268    1.0000 </r>
       <r>   -4.5974    1.0000 </r>
       <r>   -4.5428    1.0000 </r>
       <r>   -4.5346    1.0000 </r>
       <r>   -4.4753    1.0000 </r>
       <r>   -4.4727    1.0000 </r>
       <r>   -4.4716    1.0000 </r>
       <r>   -4.4711    1.0000 </r>
       <r>   -4.4707    1.0000 </r>
       <r>   -4.4692    1.0000 </r>
       <r>   -4.4677    1.0000 </r>
       <r>   -4.4675    1.0000 </r>
       <r>   -4.3413    1.0000 </r>
       <r>   -4.3410    1.0000 </r>
       <r>   -4.3408    1.0000 </r>
       <r>   -4.3407    1.0000 </r>
       <r>   -4.3118    1.0000 </r>
       <r>   -4.1904    1.0000 </r>
       <r>   -4.0919    1.0000 </r>
       <r>   -4.0892    1.0000 </r>
       <r>   -4.0872    1.0000 </r>
       <r>   -4.0870    1.0000 </r>
       <r>   -4.0846    1.0000 </r>
       <r>   -4.0833    1.0000 </r>
       <r>   -4.0741    1.0000 </r>
       <r>   -4.0737    1.0000 </r>
       <r>   -4.0718    1.0000 </r>
       <r>   -4.0707    1.0000 </r>
       <r>   -4.0246    1.0000 </r>
       <r>   -3.9501    1.0000 </r>
       <r>   -3.9500    1.0000 </r>
       <r>   -3.9466    1.0000 </r>
       <r>   -3.9465    1.0000 </r>
       <r>   -3.9073    1.0000 </r>
       <r>   -3.8631    1.0000 </r>
       <r>   -3.7742    1.0000 </r>
       <r>   -3.7444    1.0000 </r>
       <r>   -3.6225    1.0000 </r>
       <r>   -3.6206    1.0000 </r>
       <r>   -3.6151    1.0000 </r>
       <r>   -3.6137    1.0000 </r>
       <r>   -3.6035    1.0000 </r>
       <r>   -3.6030    1.0000 </r>
       <r>   -3.5984    1.0000 </r>
       <r>   -3.5979    1.0000 </r>
       <r>   -3.4794    1.0000 </r>
       <r>   -3.4794    1.0000 </r>
       <r>   -3.4740    1.0000 </r>
       <r>   -3.4740    1.0000 </r>
       <r>   -3.4727    1.0000 </r>
       <r>   -3.4686    1.0000 </r>
       <r>   -3.4684    1.0000 </r>
       <r>   -3.4680    1.0000 </r>
       <r>   -3.4651    1.0000 </r>
       <r>   -3.4645    1.0000 </r>
       <r>   -3.4338    1.0000 </r>
       <r>   -3.3436    1.0000 </r>
       <r>   -3.3383    1.0000 </r>
       <r>   -3.3381    1.0000 </r>
       <r>   -3.1460    1.0000 </r>
       <r>   -3.0896    1.0000 </r>
       <r>   -3.0756    1.0000 </r>
       <r>   -3.0738    1.0000 </r>
       <r>   -3.0701    1.0000 </r>
       <r>   -3.0694    1.0000 </r>
       <r>   -3.0669    1.0000 </r>
       <r>   -2.9871    1.0000 </r>
       <r>   -2.9382    1.0000 </r>
       <r>   -2.9375    1.0000 </r>
       <r>   -2.9016    1.0000 </r>
       <r>   -2.8452    1.0000 </r>
       <r>   -2.8078    1.0000 </r>
       <r>   -2.7636    1.0000 </r>
       <r>   -2.7544    1.0000 </r>
       <r>   -2.7509    1.0000 </r>
       <r>   -2.7471    1.0000 </r>
       <r>   -2.7443    1.0000 </r>
       <r>   -2.7232    1.0000 </r>
       <r>   -2.7230    1.0000 </r>
       <r>   -2.6822    1.0000 </r>
       <r>   -2.6778    1.0000 </r>
       <r>   -2.6686    1.0000 </r>
       <r>   -2.6673    1.0000 </r>
       <r>   -2.6629    1.0000 </r>
       <r>   -2.5440    1.0000 </r>
       <r>   -2.5438    1.0000 </r>
       <r>   -2.5190    1.0000 </r>
       <r>   -2.5165    1.0000 </r>
       <r>   -2.5091    1.0000 </r>
       <r>   -2.4551    1.0000 </r>
       <r>   -2.4236    1.0000 </r>
       <r>   -2.4154    1.0000 </r>
       <r>   -2.3846    1.0000 </r>
       <r>   -2.3759    1.0000 </r>
       <r>   -2.3741    1.0000 </r>
       <r>   -2.3733    1.0000 </r>
       <r>   -2.3724    1.0000 </r>
       <r>   -2.3718    1.0000 </r>
       <r>   -2.3705    1.0000 </r>
       <r>   -2.3696    1.0000 </r>
       <r>   -2.3686    1.0000 </r>
       <r>   -2.3598    1.0000 </r>
       <r>   -2.3513    1.0000 </r>
       <r>   -2.3421    1.0000 </r>
       <r>   -2.3169    1.0000 </r>
       <r>   -2.2586    1.0000 </r>
       <r>   -2.2409    1.0000 </r>
       <r>   -2.2405    1.0000 </r>
       <r>   -2.2403    1.0000 </r>
       <r>   -2.2400    1.0000 </r>
       <r>   -2.2096    1.0000 </r>
       <r>   -2.1725    1.0000 </r>
       <r>   -2.1441    1.0000 </r>
       <r>   -2.1271    1.0000 </r>
       <r>   -2.0887    1.0000 </r>
       <r>   -2.0885    1.0000 </r>
       <r>   -2.0879    1.0000 </r>
       <r>   -2.0876    1.0000 </r>
       <r>   -2.0550    1.0000 </r>
       <r>   -2.0547    1.0000 </r>
       <r>   -2.0537    1.0000 </r>
       <r>   -2.0532    1.0000 </r>
       <r>   -2.0155    1.0000 </r>
       <r>   -2.0116    1.0000 </r>
       <r>   -2.0080    1.0000 </r>
       <r>   -2.0011    1.0000 </r>
       <r>   -1.9811    1.0000 </r>
       <r>   -1.9430    1.0000 </r>
       <r>   -1.9429    1.0000 </r>
       <r>   -1.9330    1.0000 </r>
       <r>   -1.9330    1.0000 </r>
       <r>   -1.8960    1.0000 </r>
       <r>   -1.8694    1.0000 </r>
       <r>   -1.8675    1.0000 </r>
       <r>   -1.8668    1.0000 </r>
       <r>   -1.8655    1.0000 </r>
       <r>   -1.8231    1.0000 </r>
       <r>   -1.8227    1.0000 </r>
       <r>   -1.8203    1.0000 </r>
       <r>   -1.8172    1.0000 </r>
       <r>   -1.8162    1.0000 </r>
       <r>   -1.8145    1.0000 </r>
       <r>   -1.7772    1.0000 </r>
       <r>   -1.7769    1.0000 </r>
       <r>   -1.7761    1.0000 </r>
       <r>   -1.7758    1.0000 </r>
       <r>   -1.7754    1.0000 </r>
       <r>   -1.7752    1.0000 </r>
       <r>   -1.7749    1.0000 </r>
       <r>   -1.7742    1.0000 </r>
       <r>   -1.7638    1.0000 </r>
       <r>   -1.7129    1.0000 </r>
       <r>   -1.7054    1.0000 </r>
       <r>   -1.6992    1.0000 </r>
       <r>   -1.6925    1.0000 </r>
       <r>   -1.6575    1.0000 </r>
       <r>   -1.6473    1.0000 </r>
       <r>   -1.6452    1.0000 </r>
       <r>   -1.6451    1.0000 </r>
       <r>   -1.6448    1.0000 </r>
       <r>   -1.6448    1.0000 </r>
       <r>   -1.6343    1.0000 </r>
       <r>   -1.6151    1.0000 </r>
       <r>   -1.6113    1.0000 </r>
       <r>   -1.6052    1.0000 </r>
       <r>   -1.6034    1.0000 </r>
       <r>   -1.5828    1.0000 </r>
       <r>   -1.5805    1.0000 </r>
       <r>   -1.5795    1.0000 </r>
       <r>   -1.5657    1.0000 </r>
       <r>   -1.5630    1.0000 </r>
       <r>   -1.5558    1.0000 </r>
       <r>   -1.5537    1.0000 </r>
       <r>   -1.5511    1.0000 </r>
       <r>   -1.4772    1.0000 </r>
       <r>   -1.4492    1.0000 </r>
       <r>   -1.4410    1.0000 </r>
       <r>   -1.4316    1.0000 </r>
       <r>   -1.3498    1.0000 </r>
       <r>   -1.3474    1.0000 </r>
       <r>   -1.3365    1.0000 </r>
       <r>   -1.3354    1.0000 </r>
       <r>   -1.2292    1.0000 </r>
       <r>   -1.2291    1.0000 </r>
       <r>   -1.2257    1.0000 </r>
       <r>   -1.2257    1.0000 </r>
       <r>   -1.2118    1.0000 </r>
       <r>   -1.2116    1.0000 </r>
       <r>   -1.2096    1.0000 </r>
       <r>   -1.2081    1.0000 </r>
       <r>   -1.1853    1.0000 </r>
       <r>   -1.0913    1.0000 </r>
       <r>   -1.0913    1.0000 </r>
       <r>   -1.0861    1.0000 </r>
       <r>   -1.0860    1.0000 </r>
       <r>   -1.0497    1.0000 </r>
       <r>   -1.0074    1.0000 </r>
       <r>   -0.9825    1.0000 </r>
       <r>   -0.9296    1.0000 </r>
       <r>   -0.8734    1.0000 </r>
       <r>   -0.8658    1.0000 </r>
       <r>   -0.8451    1.0000 </r>
       <r>   -0.7778    1.0000 </r>
       <r>   -0.7754    1.0000 </r>
       <r>   -0.7480    1.0000 </r>
       <r>   -0.7219    1.0000 </r>
       <r>   -0.7168    1.0000 </r>
       <r>   -0.7097    1.0000 </r>
       <r>   -0.7063    1.0000 </r>
       <r>   -0.7023    1.0000 </r>
       <r>   -0.6760    1.0000 </r>
       <r>   -0.6747    1.0000 </r>
       <r>   -0.6742    1.0000 </r>
       <r>   -0.6720    1.0000 </r>
       <r>   -0.6552    1.0000 </r>
       <r>   -0.6532    1.0000 </r>
       <r>   -0.6524    1.0000 </r>
       <r>   -0.6223    1.0000 </r>
       <r>   -0.5177    1.0000 </r>
       <r>   -0.5167    1.0000 </r>
       <r>   -0.5157    1.0000 </r>
       <r>   -0.5146    1.0000 </r>
       <r>   -0.4620    1.0000 </r>
       <r>   -0.4584    1.0000 </r>
       <r>   -0.4575    1.0000 </r>
       <r>   -0.4570    1.0000 </r>
       <r>   -0.4541    1.0000 </r>
       <r>   -0.4535    1.0000 </r>
       <r>   -0.4529    1.0000 </r>
       <r>   -0.4496    1.0000 </r>
       <r>   -0.4261    1.0000 </r>
       <r>   -0.3993    1.0000 </r>
       <r>   -0.3835    1.0000 </r>
       <r>   -0.3834    1.0000 </r>
       <r>   -0.3767    1.0000 </r>
       <r>   -0.3682    1.0000 </r>
       <r>   -0.3569    1.0000 </r>
       <r>   -0.3537    1.0000 </r>
       <r>   -0.3492    1.0000 </r>
       <r>   -0.3464    1.0000 </r>
       <r>   -0.3425    1.0000 </r>
       <r>   -0.3395    1.0000 </r>
       <r>   -0.3268    1.0000 </r>
       <r>   -0.3263    1.0000 </r>
       <r>   -0.3262    1.0000 </r>
       <r>   -0.3257    1.0000 </r>
       <r>   -0.2756    1.0000 </r>
       <r>   -0.2255    1.0000 </r>
       <r>   -0.2250    1.0000 </r>
       <r>   -0.0989    1.0000 </r>
       <r>   -0.0450    1.0000 </r>
       <r>    0.0267    1.0000 </r>
       <r>    0.0691    1.0000 </r>
       <r>    0.1214    1.0000 </r>
       <r>    0.1579    1.0000 </r>
       <r>    0.1584    1.0000 </r>
       <r>    0.1757    1.0000 </r>
       <r>    0.1869    1.0000 </r>
       <r>    0.2032    1.0000 </r>
       <r>    0.2127    1.0000 </r>
       <r>    0.2141    1.0000 </r>
       <r>    0.2183    1.0000 </r>
       <r>    0.2207    1.0000 </r>
       <r>    0.2402    1.0000 </r>
       <r>    0.2436    1.0000 </r>
       <r>    0.2934    1.0000 </r>
       <r>    0.3186    1.0000 </r>
       <r>    0.3219    1.0000 </r>
       <r>    0.3437    1.0000 </r>
       <r>    0.3450    1.0000 </r>
       <r>    0.3490    1.0000 </r>
       <r>    0.3504    1.0000 </r>
       <r>    0.3701    1.0000 </r>
       <r>    0.3787    1.0000 </r>
       <r>    0.3968    1.0000 </r>
       <r>    0.4550    1.0000 </r>
       <r>    0.4600    1.0000 </r>
       <r>    0.4646    1.0000 </r>
       <r>    0.4653    1.0000 </r>
       <r>    0.4659    1.0000 </r>
       <r>    0.4765    1.0000 </r>
       <r>    0.4773    1.0000 </r>
       <r>    0.4774    1.0000 </r>
       <r>    0.5555    1.0000 </r>
       <r>    0.5599    1.0000 </r>
       <r>    0.5664    1.0000 </r>
       <r>    0.5854    1.0000 </r>
       <r>    0.5899    1.0000 </r>
       <r>    0.6937    1.0000 </r>
       <r>    0.6951    1.0000 </r>
       <r>    0.7029    1.0000 </r>
       <r>    0.7073    1.0000 </r>
       <r>    0.7345    1.0000 </r>
       <r>    0.8100    1.0000 </r>
       <r>    0.8117    1.0000 </r>
       <r>    0.8422    1.0000 </r>
       <r>    0.8555    1.0000 </r>
       <r>    0.8566    1.0000 </r>
       <r>    0.8817    1.0000 </r>
       <r>    0.8840    1.0000 </r>
       <r>    0.8854    1.0000 </r>
       <r>    0.9160    1.0000 </r>
       <r>    0.9937    1.0000 </r>
       <r>    0.9980    1.0000 </r>
       <r>    0.9989    1.0000 </r>
       <r>    1.0027    1.0000 </r>
       <r>    1.0240    1.0000 </r>
       <r>    1.0338    1.0000 </r>
       <r>    1.0888    1.0000 </r>
       <r>    1.1059    1.0000 </r>
       <r>    1.2088    1.0000 </r>
       <r>    1.2100    1.0000 </r>
       <r>    1.2242    1.0000 </r>
       <r>    1.2342    1.0000 </r>
       <r>    1.2482    1.0000 </r>
       <r>    1.2506    1.0000 </r>
       <r>    1.2544    1.0000 </r>
       <r>    1.2644    1.0000 </r>
       <r>    1.3170    1.0000 </r>
       <r>    1.3186    1.0000 </r>
       <r>    1.3666    1.0000 </r>
       <r>    1.3684    1.0000 </r>
       <r>    1.4029    1.0000 </r>
       <r>    1.4050    1.0000 </r>
       <r>    1.4405    1.0000 </r>
       <r>    1.4409    1.0000 </r>
       <r>    1.5036    1.0000 </r>
       <r>    1.5058    1.0000 </r>
       <r>    1.5402    1.0000 </r>
       <r>    1.5841    1.0000 </r>
       <r>    1.5905    1.0000 </r>
       <r>    1.5924    1.0000 </r>
       <r>    1.7659    1.0000 </r>
       <r>    1.7706    1.0000 </r>
       <r>    1.8477    1.0000 </r>
       <r>    1.8560    1.0000 </r>
       <r>    1.8621    1.0000 </r>
       <r>    1.8635    1.0000 </r>
       <r>    1.9196    1.0000 </r>
       <r>    1.9261    1.0000 </r>
       <r>    1.9542    1.0000 </r>
       <r>    1.9593    1.0000 </r>
       <r>    1.9811    1.0000 </r>
       <r>    1.9817    1.0000 </r>
       <r>    2.0248    1.0000 </r>
       <r>    2.0264    1.0000 </r>
       <r>    2.0649    1.0000 </r>
       <r>    2.0687    1.0000 </r>
       <r>    2.0966    1.0000 </r>
       <r>    2.0971    1.0000 </r>
       <r>    2.2248    1.0000 </r>
       <r>    2.2311    1.0000 </r>
       <r>    2.4002    1.0000 </r>
       <r>    2.4006    1.0000 </r>
       <r>    2.4045    1.0000 </r>
       <r>    2.4061    1.0000 </r>
       <r>    5.5534    0.0000 </r>
       <r>    6.6711    0.0000 </r>
       <r>    6.6900    0.0000 </r>
       <r>    6.6930    0.0000 </r>
       <r>    6.7217    0.0000 </r>
       <r>    6.8894    0.0000 </r>
       <r>    6.9313    0.0000 </r>
       <r>    6.9999    0.0000 </r>
       <r>    7.0117    0.0000 </r>
       <r>    7.0877    0.0000 </r>
       <r>    7.0970    0.0000 </r>
       <r>    7.1634    0.0000 </r>
       <r>    7.2135    0.0000 </r>
       <r>    7.2146    0.0000 </r>
       <r>    7.2298    0.0000 </r>
       <r>    7.2564    0.0000 </r>
       <r>    7.2898    0.0000 </r>
       <r>    7.2980    0.0000 </r>
       <r>    7.3072    0.0000 </r>
       <r>    7.3292    0.0000 </r>
       <r>    7.3338    0.0000 </r>
       <r>    7.3422    0.0000 </r>
       <r>    7.3452    0.0000 </r>
       <r>    7.3519    0.0000 </r>
       <r>    7.3624    0.0000 </r>
       <r>    7.3635    0.0000 </r>
       <r>    7.3852    0.0000 </r>
       <r>    7.3876    0.0000 </r>
       <r>    7.3936    0.0000 </r>
       <r>    7.3965    0.0000 </r>
       <r>    7.4299    0.0000 </r>
       <r>    7.4313    0.0000 </r>
       <r>    7.4681    0.0000 </r>
       <r>    7.7056    0.0000 </r>
       <r>    7.7422    0.0000 </r>
       <r>    7.7448    0.0000 </r>
       <r>    7.7487    0.0000 </r>
       <r>    7.7994    0.0000 </r>
       <r>    7.8367    0.0000 </r>
       <r>    7.8605    0.0000 </r>
       <r>    7.8771    0.0000 </r>
       <r>    7.8907    0.0000 </r>
       <r>    7.9096    0.0000 </r>
       <r>    7.9190    0.0000 </r>
       <r>    7.9222    0.0000 </r>
       <r>    7.9620    0.0000 </r>
       <r>    8.0046    0.0000 </r>
       <r>    8.0807    0.0000 </r>
       <r>    8.1245    0.0000 </r>
       <r>    8.1678    0.0000 </r>
       <r>    8.1720    0.0000 </r>
       <r>    8.1750    0.0000 </r>
       <r>    8.1873    0.0000 </r>
       <r>    8.2174    0.0000 </r>
       <r>    8.2229    0.0000 </r>
       <r>    8.2256    0.0000 </r>
       <r>    8.2439    0.0000 </r>
       <r>    8.2562    0.0000 </r>
       <r>    8.2718    0.0000 </r>
       <r>    8.2890    0.0000 </r>
       <r>    8.4377    0.0000 </r>
       <r>    8.5706    0.0000 </r>
       <r>    8.5823    0.0000 </r>
       <r>    8.5993    0.0000 </r>
       <r>    8.6383    0.0000 </r>
       <r>    8.6416    0.0000 </r>
       <r>    8.6505    0.0000 </r>
       <r>    8.6672    0.0000 </r>
       <r>    8.6750    0.0000 </r>
       <r>    8.6843    0.0000 </r>
       <r>    8.6889    0.0000 </r>
       <r>    8.6894    0.0000 </r>
       <r>    8.7345    0.0000 </r>
       <r>    8.9037    0.0000 </r>
       <r>    8.9774    0.0000 </r>
       <r>    9.0018    0.0000 </r>
       <r>    9.0177    0.0000 </r>
       <r>    9.0409    0.0000 </r>
       <r>    9.0842    0.0000 </r>
       <r>    9.1268    0.0000 </r>
       <r>    9.2288    0.0000 </r>
       <r>    9.2512    0.0000 </r>
       <r>    9.2666    0.0000 </r>
       <r>    9.2684    0.0000 </r>
       <r>    9.2802    0.0000 </r>
       <r>    9.2854    0.0000 </r>
       <r>    9.2974    0.0000 </r>
       <r>    9.3009    0.0000 </r>
       <r>    9.3052    0.0000 </r>
       <r>    9.3216    0.0000 </r>
       <r>    9.3264    0.0000 </r>
       <r>    9.3289    0.0000 </r>
       <r>    9.3311    0.0000 </r>
       <r>    9.3971    0.0000 </r>
       <r>    9.4950    0.0000 </r>
       <r>    9.5285    0.0000 </r>
       <r>    9.6512    0.0000 </r>
       <r>    9.6840    0.0000 </r>
       <r>    9.6874    0.0000 </r>
       <r>    9.6904    0.0000 </r>
       <r>    9.6925    0.0000 </r>
       <r>    9.7477    0.0000 </r>
       <r>    9.9095    0.0000 </r>
       <r>   10.0793    0.0000 </r>
       <r>   10.0956    0.0000 </r>
       <r>   10.0979    0.0000 </r>
       <r>   10.1087    0.0000 </r>
       <r>   10.1504    0.0000 </r>
       <r>   10.1726    0.0000 </r>
       <r>   10.1780    0.0000 </r>
       <r>   10.1981    0.0000 </r>
       <r>   10.2000    0.0000 </r>
       <r>   10.2304    0.0000 </r>
       <r>   10.2413    0.0000 </r>
       <r>   10.2854    0.0000 </r>
       <r>   10.3096    0.0000 </r>
       <r>   10.3206    0.0000 </r>
       <r>   10.3780    0.0000 </r>
       <r>   10.3821    0.0000 </r>
       <r>   10.3910    0.0000 </r>
       <r>   10.3943    0.0000 </r>
       <r>   10.4225    0.0000 </r>
       <r>   10.4388    0.0000 </r>
       <r>   10.4463    0.0000 </r>
       <r>   10.4784    0.0000 </r>
       <r>   10.5176    0.0000 </r>
       <r>   10.5401    0.0000 </r>
       <r>   10.6303    0.0000 </r>
       <r>   10.6772    0.0000 </r>
       <r>   10.7224    0.0000 </r>
       <r>   10.7240    0.0000 </r>
       <r>   10.7271    0.0000 </r>
       <r>   10.7346    0.0000 </r>
       <r>   10.7536    0.0000 </r>
       <r>   10.7627    0.0000 </r>
       <r>   10.7678    0.0000 </r>
       <r>   10.7893    0.0000 </r>
       <r>   10.7915    0.0000 </r>
       <r>   10.7953    0.0000 </r>
       <r>   10.8162    0.0000 </r>
       <r>   10.8179    0.0000 </r>
       <r>   11.2434    0.0000 </r>
       <r>   11.2610    0.0000 </r>
       <r>   11.4846    0.0000 </r>
       <r>   11.5797    0.0000 </r>
       <r>   11.6680    0.0000 </r>
       <r>   11.7076    0.0000 </r>
       <r>   11.7385    0.0000 </r>
       <r>   11.7459    0.0000 </r>
       <r>   11.7789    0.0000 </r>
       <r>   11.8042    0.0000 </r>
       <r>   12.2778    0.0000 </r>
      </set>
      <set comment="kpoint 4">
       <r>  -17.1660    1.0000 </r>
       <r>  -15.7440    1.0000 </r>
       <r>  -15.6883    1.0000 </r>
       <r>  -15.4128    1.0000 </r>
       <r>  -15.2960    1.0000 </r>
       <r>  -15.2479    1.0000 </r>
       <r>  -15.2278    1.0000 </r>
       <r>  -15.1916    1.0000 </r>
       <r>  -15.1886    1.0000 </r>
       <r>  -15.0961    1.0000 </r>
       <r>  -15.0558    1.0000 </r>
       <r>  -15.0252    1.0000 </r>
       <r>  -15.0077    1.0000 </r>
       <r>  -14.9550    1.0000 </r>
       <r>  -14.9448    1.0000 </r>
       <r>  -14.9372    1.0000 </r>
       <r>  -14.9357    1.0000 </r>
       <r>  -14.8539    1.0000 </r>
       <r>  -14.7534    1.0000 </r>
       <r>  -14.7520    1.0000 </r>
       <r>  -14.6148    1.0000 </r>
       <r>  -14.5679    1.0000 </r>
       <r>  -14.5425    1.0000 </r>
       <r>  -14.4569    1.0000 </r>
       <r>  -14.4448    1.0000 </r>
       <r>  -14.4428    1.0000 </r>
       <r>  -14.4275    1.0000 </r>
       <r>  -14.4243    1.0000 </r>
       <r>  -14.4200    1.0000 </r>
       <r>  -14.4160    1.0000 </r>
       <r>  -14.4145    1.0000 </r>
       <r>  -14.3439    1.0000 </r>
       <r>  -14.2464    1.0000 </r>
       <r>  -14.2417    1.0000 </r>
       <r>  -14.2394    1.0000 </r>
       <r>  -14.2391    1.0000 </r>
       <r>  -14.1997    1.0000 </r>
       <r>  -14.1914    1.0000 </r>
       <r>  -14.1673    1.0000 </r>
       <r>  -14.1663    1.0000 </r>
       <r>  -14.1144    1.0000 </r>
       <r>  -14.0363    1.0000 </r>
       <r>  -13.9965    1.0000 </r>
       <r>  -13.9945    1.0000 </r>
       <r>  -13.9390    1.0000 </r>
       <r>  -13.7870    1.0000 </r>
       <r>  -13.7350    1.0000 </r>
       <r>  -13.7101    1.0000 </r>
       <r>  -13.7082    1.0000 </r>
       <r>  -13.7063    1.0000 </r>
       <r>  -13.6968    1.0000 </r>
       <r>  -13.6945    1.0000 </r>
       <r>  -13.6743    1.0000 </r>
       <r>  -13.6738    1.0000 </r>
       <r>  -13.5998    1.0000 </r>
       <r>  -13.5306    1.0000 </r>
       <r>  -13.5304    1.0000 </r>
       <r>  -13.5158    1.0000 </r>
       <r>  -13.5154    1.0000 </r>
       <r>  -13.5033    1.0000 </r>
       <r>  -13.3583    1.0000 </r>
       <r>  -13.3321    1.0000 </r>
       <r>  -13.2534    1.0000 </r>
       <r>  -13.2220    1.0000 </r>
       <r>  -13.1116    1.0000 </r>
       <r>  -13.0592    1.0000 </r>
       <r>  -13.0533    1.0000 </r>
       <r>  -13.0509    1.0000 </r>
       <r>  -13.0423    1.0000 </r>
       <r>  -13.0391    1.0000 </r>
       <r>  -13.0373    1.0000 </r>
       <r>  -13.0347    1.0000 </r>
       <r>  -13.0331    1.0000 </r>
       <r>  -12.9726    1.0000 </r>
       <r>  -12.9249    1.0000 </r>
       <r>  -12.8882    1.0000 </r>
       <r>  -12.8840    1.0000 </r>
       <r>  -12.8813    1.0000 </r>
       <r>  -12.8800    1.0000 </r>
       <r>  -12.8767    1.0000 </r>
       <r>  -12.8733    1.0000 </r>
       <r>  -12.8732    1.0000 </r>
       <r>  -12.8709    1.0000 </r>
       <r>  -12.8688    1.0000 </r>
       <r>  -12.8671    1.0000 </r>
       <r>  -12.8633    1.0000 </r>
       <r>  -12.8628    1.0000 </r>
       <r>  -12.8610    1.0000 </r>
       <r>  -12.7156    1.0000 </r>
       <r>  -12.7140    1.0000 </r>
       <r>  -12.7137    1.0000 </r>
       <r>  -12.7135    1.0000 </r>
       <r>  -12.6732    1.0000 </r>
       <r>  -12.6098    1.0000 </r>
       <r>  -12.5911    1.0000 </r>
       <r>  -12.5835    1.0000 </r>
       <r>  -12.5694    1.0000 </r>
       <r>  -12.5551    1.0000 </r>
       <r>  -12.5397    1.0000 </r>
       <r>  -12.5004    1.0000 </r>
       <r>  -12.4358    1.0000 </r>
       <r>  -12.4309    1.0000 </r>
       <r>  -12.4238    1.0000 </r>
       <r>  -12.4189    1.0000 </r>
       <r>  -12.3354    1.0000 </r>
       <r>  -12.3321    1.0000 </r>
       <r>  -12.3274    1.0000 </r>
       <r>  -12.3232    1.0000 </r>
       <r>  -12.2436    1.0000 </r>
       <r>  -12.2415    1.0000 </r>
       <r>  -12.2389    1.0000 </r>
       <r>  -12.2359    1.0000 </r>
       <r>  -12.2171    1.0000 </r>
       <r>  -12.2159    1.0000 </r>
       <r>  -12.2104    1.0000 </r>
       <r>  -12.2085    1.0000 </r>
       <r>  -12.1766    1.0000 </r>
       <r>  -12.1762    1.0000 </r>
       <r>  -12.1698    1.0000 </r>
       <r>  -12.1613    1.0000 </r>
       <r>  -12.0957    1.0000 </r>
       <r>  -12.0956    1.0000 </r>
       <r>  -12.0895    1.0000 </r>
       <r>  -12.0876    1.0000 </r>
       <r>  -12.0867    1.0000 </r>
       <r>  -12.0858    1.0000 </r>
       <r>  -11.9499    1.0000 </r>
       <r>  -11.9475    1.0000 </r>
       <r>  -11.9468    1.0000 </r>
       <r>  -11.9445    1.0000 </r>
       <r>  -11.8157    1.0000 </r>
       <r>  -11.8150    1.0000 </r>
       <r>  -11.8064    1.0000 </r>
       <r>  -11.8058    1.0000 </r>
       <r>  -11.8052    1.0000 </r>
       <r>  -11.8046    1.0000 </r>
       <r>  -11.7844    1.0000 </r>
       <r>  -11.7841    1.0000 </r>
       <r>  -11.7807    1.0000 </r>
       <r>  -11.7804    1.0000 </r>
       <r>  -11.6683    1.0000 </r>
       <r>  -11.6683    1.0000 </r>
       <r>  -11.6613    1.0000 </r>
       <r>  -11.6613    1.0000 </r>
       <r>   -8.1623    1.0000 </r>
       <r>   -7.2495    1.0000 </r>
       <r>   -7.2351    1.0000 </r>
       <r>   -6.7837    1.0000 </r>
       <r>   -6.7021    1.0000 </r>
       <r>   -6.6778    1.0000 </r>
       <r>   -6.4248    1.0000 </r>
       <r>   -6.4029    1.0000 </r>
       <r>   -6.3163    1.0000 </r>
       <r>   -6.3072    1.0000 </r>
       <r>   -6.3049    1.0000 </r>
       <r>   -6.3040    1.0000 </r>
       <r>   -6.2987    1.0000 </r>
       <r>   -6.2809    1.0000 </r>
       <r>   -6.2735    1.0000 </r>
       <r>   -6.2727    1.0000 </r>
       <r>   -6.2708    1.0000 </r>
       <r>   -6.2708    1.0000 </r>
       <r>   -6.2136    1.0000 </r>
       <r>   -6.2128    1.0000 </r>
       <r>   -6.2127    1.0000 </r>
       <r>   -6.2043    1.0000 </r>
       <r>   -6.1966    1.0000 </r>
       <r>   -6.1932    1.0000 </r>
       <r>   -6.1586    1.0000 </r>
       <r>   -6.1584    1.0000 </r>
       <r>   -6.1491    1.0000 </r>
       <r>   -6.1489    1.0000 </r>
       <r>   -6.0724    1.0000 </r>
       <r>   -6.0710    1.0000 </r>
       <r>   -5.9323    1.0000 </r>
       <r>   -5.9301    1.0000 </r>
       <r>   -5.9078    1.0000 </r>
       <r>   -5.9069    1.0000 </r>
       <r>   -5.8386    1.0000 </r>
       <r>   -5.7893    1.0000 </r>
       <r>   -5.7819    1.0000 </r>
       <r>   -5.7715    1.0000 </r>
       <r>   -5.7673    1.0000 </r>
       <r>   -5.7632    1.0000 </r>
       <r>   -5.7625    1.0000 </r>
       <r>   -5.7620    1.0000 </r>
       <r>   -5.7583    1.0000 </r>
       <r>   -5.7569    1.0000 </r>
       <r>   -5.7524    1.0000 </r>
       <r>   -5.7518    1.0000 </r>
       <r>   -5.7412    1.0000 </r>
       <r>   -5.6789    1.0000 </r>
       <r>   -5.6518    1.0000 </r>
       <r>   -5.6387    1.0000 </r>
       <r>   -5.6228    1.0000 </r>
       <r>   -5.6228    1.0000 </r>
       <r>   -5.6196    1.0000 </r>
       <r>   -5.6196    1.0000 </r>
       <r>   -5.2271    1.0000 </r>
       <r>   -5.2254    1.0000 </r>
       <r>   -5.2238    1.0000 </r>
       <r>   -5.2226    1.0000 </r>
       <r>   -5.2216    1.0000 </r>
       <r>   -5.2211    1.0000 </r>
       <r>   -5.2208    1.0000 </r>
       <r>   -5.2202    1.0000 </r>
       <r>   -5.2191    1.0000 </r>
       <r>   -5.2186    1.0000 </r>
       <r>   -5.2176    1.0000 </r>
       <r>   -5.2173    1.0000 </r>
       <r>   -5.1037    1.0000 </r>
       <r>   -5.0967    1.0000 </r>
       <r>   -5.0907    1.0000 </r>
       <r>   -5.0905    1.0000 </r>
       <r>   -5.0877    1.0000 </r>
       <r>   -5.0876    1.0000 </r>
       <r>   -5.0873    1.0000 </r>
       <r>   -5.0869    1.0000 </r>
       <r>   -5.0092    1.0000 </r>
       <r>   -4.9187    1.0000 </r>
       <r>   -4.8264    1.0000 </r>
       <r>   -4.5955    1.0000 </r>
       <r>   -4.5446    1.0000 </r>
       <r>   -4.5359    1.0000 </r>
       <r>   -4.4754    1.0000 </r>
       <r>   -4.4726    1.0000 </r>
       <r>   -4.4716    1.0000 </r>
       <r>   -4.4711    1.0000 </r>
       <r>   -4.4707    1.0000 </r>
       <r>   -4.4691    1.0000 </r>
       <r>   -4.4678    1.0000 </r>
       <r>   -4.4675    1.0000 </r>
       <r>   -4.3413    1.0000 </r>
       <r>   -4.3411    1.0000 </r>
       <r>   -4.3408    1.0000 </r>
       <r>   -4.3407    1.0000 </r>
       <r>   -4.3087    1.0000 </r>
       <r>   -4.1890    1.0000 </r>
       <r>   -4.0928    1.0000 </r>
       <r>   -4.0891    1.0000 </r>
       <r>   -4.0871    1.0000 </r>
       <r>   -4.0869    1.0000 </r>
       <r>   -4.0845    1.0000 </r>
       <r>   -4.0833    1.0000 </r>
       <r>   -4.0742    1.0000 </r>
       <r>   -4.0738    1.0000 </r>
       <r>   -4.0719    1.0000 </r>
       <r>   -4.0708    1.0000 </r>
       <r>   -4.0260    1.0000 </r>
       <r>   -3.9501    1.0000 </r>
       <r>   -3.9500    1.0000 </r>
       <r>   -3.9466    1.0000 </r>
       <r>   -3.9466    1.0000 </r>
       <r>   -3.9086    1.0000 </r>
       <r>   -3.8618    1.0000 </r>
       <r>   -3.7740    1.0000 </r>
       <r>   -3.7451    1.0000 </r>
       <r>   -3.6224    1.0000 </r>
       <r>   -3.6205    1.0000 </r>
       <r>   -3.6150    1.0000 </r>
       <r>   -3.6136    1.0000 </r>
       <r>   -3.6037    1.0000 </r>
       <r>   -3.6031    1.0000 </r>
       <r>   -3.5985    1.0000 </r>
       <r>   -3.5980    1.0000 </r>
       <r>   -3.4794    1.0000 </r>
       <r>   -3.4793    1.0000 </r>
       <r>   -3.4741    1.0000 </r>
       <r>   -3.4740    1.0000 </r>
       <r>   -3.4717    1.0000 </r>
       <r>   -3.4683    1.0000 </r>
       <r>   -3.4682    1.0000 </r>
       <r>   -3.4680    1.0000 </r>
       <r>   -3.4650    1.0000 </r>
       <r>   -3.4645    1.0000 </r>
       <r>   -3.4337    1.0000 </r>
       <r>   -3.3437    1.0000 </r>
       <r>   -3.3383    1.0000 </r>
       <r>   -3.3381    1.0000 </r>
       <r>   -3.1463    1.0000 </r>
       <r>   -3.0894    1.0000 </r>
       <r>   -3.0755    1.0000 </r>
       <r>   -3.0738    1.0000 </r>
       <r>   -3.0701    1.0000 </r>
       <r>   -3.0694    1.0000 </r>
       <r>   -3.0670    1.0000 </r>
       <r>   -2.9907    1.0000 </r>
       <r>   -2.9382    1.0000 </r>
       <r>   -2.9375    1.0000 </r>
       <r>   -2.9020    1.0000 </r>
       <r>   -2.8445    1.0000 </r>
       <r>   -2.8076    1.0000 </r>
       <r>   -2.7638    1.0000 </r>
       <r>   -2.7547    1.0000 </r>
       <r>   -2.7518    1.0000 </r>
       <r>   -2.7471    1.0000 </r>
       <r>   -2.7436    1.0000 </r>
       <r>   -2.7238    1.0000 </r>
       <r>   -2.7228    1.0000 </r>
       <r>   -2.6822    1.0000 </r>
       <r>   -2.6774    1.0000 </r>
       <r>   -2.6686    1.0000 </r>
       <r>   -2.6673    1.0000 </r>
       <r>   -2.6631    1.0000 </r>
       <r>   -2.5440    1.0000 </r>
       <r>   -2.5438    1.0000 </r>
       <r>   -2.5192    1.0000 </r>
       <r>   -2.5171    1.0000 </r>
       <r>   -2.5078    1.0000 </r>
       <r>   -2.4554    1.0000 </r>
       <r>   -2.4234    1.0000 </r>
       <r>   -2.4156    1.0000 </r>
       <r>   -2.3855    1.0000 </r>
       <r>   -2.3760    1.0000 </r>
       <r>   -2.3743    1.0000 </r>
       <r>   -2.3733    1.0000 </r>
       <r>   -2.3724    1.0000 </r>
       <r>   -2.3719    1.0000 </r>
       <r>   -2.3704    1.0000 </r>
       <r>   -2.3696    1.0000 </r>
       <r>   -2.3686    1.0000 </r>
       <r>   -2.3611    1.0000 </r>
       <r>   -2.3530    1.0000 </r>
       <r>   -2.3425    1.0000 </r>
       <r>   -2.3165    1.0000 </r>
       <r>   -2.2578    1.0000 </r>
       <r>   -2.2409    1.0000 </r>
       <r>   -2.2405    1.0000 </r>
       <r>   -2.2403    1.0000 </r>
       <r>   -2.2400    1.0000 </r>
       <r>   -2.2106    1.0000 </r>
       <r>   -2.1723    1.0000 </r>
       <r>   -2.1419    1.0000 </r>
       <r>   -2.1203    1.0000 </r>
       <r>   -2.0884    1.0000 </r>
       <r>   -2.0883    1.0000 </r>
       <r>   -2.0877    1.0000 </r>
       <r>   -2.0874    1.0000 </r>
       <r>   -2.0553    1.0000 </r>
       <r>   -2.0550    1.0000 </r>
       <r>   -2.0540    1.0000 </r>
       <r>   -2.0535    1.0000 </r>
       <r>   -2.0159    1.0000 </r>
       <r>   -2.0118    1.0000 </r>
       <r>   -2.0049    1.0000 </r>
       <r>   -2.0006    1.0000 </r>
       <r>   -1.9812    1.0000 </r>
       <r>   -1.9429    1.0000 </r>
       <r>   -1.9429    1.0000 </r>
       <r>   -1.9331    1.0000 </r>
       <r>   -1.9331    1.0000 </r>
       <r>   -1.8992    1.0000 </r>
       <r>   -1.8694    1.0000 </r>
       <r>   -1.8675    1.0000 </r>
       <r>   -1.8668    1.0000 </r>
       <r>   -1.8654    1.0000 </r>
       <r>   -1.8227    1.0000 </r>
       <r>   -1.8225    1.0000 </r>
       <r>   -1.8203    1.0000 </r>
       <r>   -1.8168    1.0000 </r>
       <r>   -1.8162    1.0000 </r>
       <r>   -1.8145    1.0000 </r>
       <r>   -1.7772    1.0000 </r>
       <r>   -1.7769    1.0000 </r>
       <r>   -1.7761    1.0000 </r>
       <r>   -1.7758    1.0000 </r>
       <r>   -1.7753    1.0000 </r>
       <r>   -1.7751    1.0000 </r>
       <r>   -1.7749    1.0000 </r>
       <r>   -1.7742    1.0000 </r>
       <r>   -1.7638    1.0000 </r>
       <r>   -1.7108    1.0000 </r>
       <r>   -1.7060    1.0000 </r>
       <r>   -1.6988    1.0000 </r>
       <r>   -1.6926    1.0000 </r>
       <r>   -1.6571    1.0000 </r>
       <r>   -1.6466    1.0000 </r>
       <r>   -1.6451    1.0000 </r>
       <r>   -1.6451    1.0000 </r>
       <r>   -1.6449    1.0000 </r>
       <r>   -1.6448    1.0000 </r>
       <r>   -1.6346    1.0000 </r>
       <r>   -1.6156    1.0000 </r>
       <r>   -1.6115    1.0000 </r>
       <r>   -1.6052    1.0000 </r>
       <r>   -1.6035    1.0000 </r>
       <r>   -1.5826    1.0000 </r>
       <r>   -1.5806    1.0000 </r>
       <r>   -1.5801    1.0000 </r>
       <r>   -1.5655    1.0000 </r>
       <r>   -1.5639    1.0000 </r>
       <r>   -1.5560    1.0000 </r>
       <r>   -1.5539    1.0000 </r>
       <r>   -1.5513    1.0000 </r>
       <r>   -1.4776    1.0000 </r>
       <r>   -1.4487    1.0000 </r>
       <r>   -1.4409    1.0000 </r>
       <r>   -1.4316    1.0000 </r>
       <r>   -1.3498    1.0000 </r>
       <r>   -1.3474    1.0000 </r>
       <r>   -1.3362    1.0000 </r>
       <r>   -1.3357    1.0000 </r>
       <r>   -1.2291    1.0000 </r>
       <r>   -1.2289    1.0000 </r>
       <r>   -1.2256    1.0000 </r>
       <r>   -1.2256    1.0000 </r>
       <r>   -1.2120    1.0000 </r>
       <r>   -1.2117    1.0000 </r>
       <r>   -1.2099    1.0000 </r>
       <r>   -1.2083    1.0000 </r>
       <r>   -1.1889    1.0000 </r>
       <r>   -1.0913    1.0000 </r>
       <r>   -1.0913    1.0000 </r>
       <r>   -1.0861    1.0000 </r>
       <r>   -1.0861    1.0000 </r>
       <r>   -1.0498    1.0000 </r>
       <r>   -1.0066    1.0000 </r>
       <r>   -0.9822    1.0000 </r>
       <r>   -0.9297    1.0000 </r>
       <r>   -0.8732    1.0000 </r>
       <r>   -0.8630    1.0000 </r>
       <r>   -0.8455    1.0000 </r>
       <r>   -0.7761    1.0000 </r>
       <r>   -0.7757    1.0000 </r>
       <r>   -0.7483    1.0000 </r>
       <r>   -0.7216    1.0000 </r>
       <r>   -0.7187    1.0000 </r>
       <r>   -0.7136    1.0000 </r>
       <r>   -0.7064    1.0000 </r>
       <r>   -0.7021    1.0000 </r>
       <r>   -0.6761    1.0000 </r>
       <r>   -0.6750    1.0000 </r>
       <r>   -0.6745    1.0000 </r>
       <r>   -0.6712    1.0000 </r>
       <r>   -0.6563    1.0000 </r>
       <r>   -0.6533    1.0000 </r>
       <r>   -0.6529    1.0000 </r>
       <r>   -0.6228    1.0000 </r>
       <r>   -0.5177    1.0000 </r>
       <r>   -0.5167    1.0000 </r>
       <r>   -0.5157    1.0000 </r>
       <r>   -0.5147    1.0000 </r>
       <r>   -0.4619    1.0000 </r>
       <r>   -0.4584    1.0000 </r>
       <r>   -0.4575    1.0000 </r>
       <r>   -0.4570    1.0000 </r>
       <r>   -0.4540    1.0000 </r>
       <r>   -0.4535    1.0000 </r>
       <r>   -0.4528    1.0000 </r>
       <r>   -0.4496    1.0000 </r>
       <r>   -0.4270    1.0000 </r>
       <r>   -0.3981    1.0000 </r>
       <r>   -0.3835    1.0000 </r>
       <r>   -0.3834    1.0000 </r>
       <r>   -0.3764    1.0000 </r>
       <r>   -0.3682    1.0000 </r>
       <r>   -0.3570    1.0000 </r>
       <r>   -0.3538    1.0000 </r>
       <r>   -0.3496    1.0000 </r>
       <r>   -0.3464    1.0000 </r>
       <r>   -0.3426    1.0000 </r>
       <r>   -0.3394    1.0000 </r>
       <r>   -0.3268    1.0000 </r>
       <r>   -0.3263    1.0000 </r>
       <r>   -0.3262    1.0000 </r>
       <r>   -0.3257    1.0000 </r>
       <r>   -0.2761    1.0000 </r>
       <r>   -0.2255    1.0000 </r>
       <r>   -0.2250    1.0000 </r>
       <r>   -0.0993    1.0000 </r>
       <r>   -0.0454    1.0000 </r>
       <r>    0.0269    1.0000 </r>
       <r>    0.0691    1.0000 </r>
       <r>    0.1212    1.0000 </r>
       <r>    0.1584    1.0000 </r>
       <r>    0.1595    1.0000 </r>
       <r>    0.1760    1.0000 </r>
       <r>    0.1935    1.0000 </r>
       <r>    0.2032    1.0000 </r>
       <r>    0.2124    1.0000 </r>
       <r>    0.2130    1.0000 </r>
       <r>    0.2183    1.0000 </r>
       <r>    0.2207    1.0000 </r>
       <r>    0.2400    1.0000 </r>
       <r>    0.2440    1.0000 </r>
       <r>    0.2928    1.0000 </r>
       <r>    0.3202    1.0000 </r>
       <r>    0.3227    1.0000 </r>
       <r>    0.3436    1.0000 </r>
       <r>    0.3449    1.0000 </r>
       <r>    0.3490    1.0000 </r>
       <r>    0.3504    1.0000 </r>
       <r>    0.3695    1.0000 </r>
       <r>    0.3788    1.0000 </r>
       <r>    0.3968    1.0000 </r>
       <r>    0.4550    1.0000 </r>
       <r>    0.4600    1.0000 </r>
       <r>    0.4646    1.0000 </r>
       <r>    0.4653    1.0000 </r>
       <r>    0.4670    1.0000 </r>
       <r>    0.4765    1.0000 </r>
       <r>    0.4773    1.0000 </r>
       <r>    0.4776    1.0000 </r>
       <r>    0.5557    1.0000 </r>
       <r>    0.5602    1.0000 </r>
       <r>    0.5616    1.0000 </r>
       <r>    0.5851    1.0000 </r>
       <r>    0.5897    1.0000 </r>
       <r>    0.6937    1.0000 </r>
       <r>    0.6971    1.0000 </r>
       <r>    0.7028    1.0000 </r>
       <r>    0.7069    1.0000 </r>
       <r>    0.7356    1.0000 </r>
       <r>    0.8097    1.0000 </r>
       <r>    0.8104    1.0000 </r>
       <r>    0.8409    1.0000 </r>
       <r>    0.8557    1.0000 </r>
       <r>    0.8568    1.0000 </r>
       <r>    0.8819    1.0000 </r>
       <r>    0.8838    1.0000 </r>
       <r>    0.8852    1.0000 </r>
       <r>    0.9158    1.0000 </r>
       <r>    0.9938    1.0000 </r>
       <r>    0.9983    1.0000 </r>
       <r>    0.9989    1.0000 </r>
       <r>    1.0026    1.0000 </r>
       <r>    1.0242    1.0000 </r>
       <r>    1.0337    1.0000 </r>
       <r>    1.0886    1.0000 </r>
       <r>    1.1059    1.0000 </r>
       <r>    1.2088    1.0000 </r>
       <r>    1.2099    1.0000 </r>
       <r>    1.2235    1.0000 </r>
       <r>    1.2343    1.0000 </r>
       <r>    1.2484    1.0000 </r>
       <r>    1.2502    1.0000 </r>
       <r>    1.2546    1.0000 </r>
       <r>    1.2639    1.0000 </r>
       <r>    1.3166    1.0000 </r>
       <r>    1.3210    1.0000 </r>
       <r>    1.3658    1.0000 </r>
       <r>    1.3667    1.0000 </r>
       <r>    1.4030    1.0000 </r>
       <r>    1.4054    1.0000 </r>
       <r>    1.4403    1.0000 </r>
       <r>    1.4405    1.0000 </r>
       <r>    1.5063    1.0000 </r>
       <r>    1.5066    1.0000 </r>
       <r>    1.5404    1.0000 </r>
       <r>    1.5837    1.0000 </r>
       <r>    1.5903    1.0000 </r>
       <r>    1.5908    1.0000 </r>
       <r>    1.7662    1.0000 </r>
       <r>    1.7704    1.0000 </r>
       <r>    1.8477    1.0000 </r>
       <r>    1.8559    1.0000 </r>
       <r>    1.8623    1.0000 </r>
       <r>    1.8638    1.0000 </r>
       <r>    1.9195    1.0000 </r>
       <r>    1.9264    1.0000 </r>
       <r>    1.9539    1.0000 </r>
       <r>    1.9584    1.0000 </r>
       <r>    1.9814    1.0000 </r>
       <r>    1.9832    1.0000 </r>
       <r>    2.0245    1.0000 </r>
       <r>    2.0255    1.0000 </r>
       <r>    2.0652    1.0000 </r>
       <r>    2.0690    1.0000 </r>
       <r>    2.0963    1.0000 </r>
       <r>    2.0969    1.0000 </r>
       <r>    2.2249    1.0000 </r>
       <r>    2.2310    1.0000 </r>
       <r>    2.4004    1.0000 </r>
       <r>    2.4006    1.0000 </r>
       <r>    2.4045    1.0000 </r>
       <r>    2.4060    1.0000 </r>
       <r>    5.5533    0.0000 </r>
       <r>    6.6712    0.0000 </r>
       <r>    6.6908    0.0000 </r>
       <r>    6.6932    0.0000 </r>
       <r>    6.7217    0.0000 </r>
       <r>    6.8889    0.0000 </r>
       <r>    6.9297    0.0000 </r>
       <r>    7.0014    0.0000 </r>
       <r>    7.0125    0.0000 </r>
       <r>    7.0862    0.0000 </r>
       <r>    7.0967    0.0000 </r>
       <r>    7.1636    0.0000 </r>
       <r>    7.2134    0.0000 </r>
       <r>    7.2146    0.0000 </r>
       <r>    7.2297    0.0000 </r>
       <r>    7.2565    0.0000 </r>
       <r>    7.2902    0.0000 </r>
       <r>    7.2982    0.0000 </r>
       <r>    7.3075    0.0000 </r>
       <r>    7.3290    0.0000 </r>
       <r>    7.3335    0.0000 </r>
       <r>    7.3423    0.0000 </r>
       <r>    7.3450    0.0000 </r>
       <r>    7.3535    0.0000 </r>
       <r>    7.3627    0.0000 </r>
       <r>    7.3642    0.0000 </r>
       <r>    7.3856    0.0000 </r>
       <r>    7.3876    0.0000 </r>
       <r>    7.3939    0.0000 </r>
       <r>    7.3950    0.0000 </r>
       <r>    7.4298    0.0000 </r>
       <r>    7.4310    0.0000 </r>
       <r>    7.4678    0.0000 </r>
       <r>    7.7049    0.0000 </r>
       <r>    7.7420    0.0000 </r>
       <r>    7.7448    0.0000 </r>
       <r>    7.7487    0.0000 </r>
       <r>    7.7993    0.0000 </r>
       <r>    7.8355    0.0000 </r>
       <r>    7.8601    0.0000 </r>
       <r>    7.8766    0.0000 </r>
       <r>    7.8908    0.0000 </r>
       <r>    7.9110    0.0000 </r>
       <r>    7.9187    0.0000 </r>
       <r>    7.9225    0.0000 </r>
       <r>    7.9618    0.0000 </r>
       <r>    8.0053    0.0000 </r>
       <r>    8.0809    0.0000 </r>
       <r>    8.1246    0.0000 </r>
       <r>    8.1677    0.0000 </r>
       <r>    8.1721    0.0000 </r>
       <r>    8.1752    0.0000 </r>
       <r>    8.1873    0.0000 </r>
       <r>    8.2169    0.0000 </r>
       <r>    8.2221    0.0000 </r>
       <r>    8.2258    0.0000 </r>
       <r>    8.2446    0.0000 </r>
       <r>    8.2558    0.0000 </r>
       <r>    8.2712    0.0000 </r>
       <r>    8.2890    0.0000 </r>
       <r>    8.4374    0.0000 </r>
       <r>    8.5705    0.0000 </r>
       <r>    8.5821    0.0000 </r>
       <r>    8.5992    0.0000 </r>
       <r>    8.6384    0.0000 </r>
       <r>    8.6415    0.0000 </r>
       <r>    8.6503    0.0000 </r>
       <r>    8.6672    0.0000 </r>
       <r>    8.6751    0.0000 </r>
       <r>    8.6849    0.0000 </r>
       <r>    8.6888    0.0000 </r>
       <r>    8.6893    0.0000 </r>
       <r>    8.7341    0.0000 </r>
       <r>    8.9030    0.0000 </r>
       <r>    8.9814    0.0000 </r>
       <r>    9.0019    0.0000 </r>
       <r>    9.0173    0.0000 </r>
       <r>    9.0410    0.0000 </r>
       <r>    9.0840    0.0000 </r>
       <r>    9.1267    0.0000 </r>
       <r>    9.2288    0.0000 </r>
       <r>    9.2510    0.0000 </r>
       <r>    9.2666    0.0000 </r>
       <r>    9.2683    0.0000 </r>
       <r>    9.2804    0.0000 </r>
       <r>    9.2856    0.0000 </r>
       <r>    9.2973    0.0000 </r>
       <r>    9.3009    0.0000 </r>
       <r>    9.3051    0.0000 </r>
       <r>    9.3217    0.0000 </r>
       <r>    9.3265    0.0000 </r>
       <r>    9.3291    0.0000 </r>
       <r>    9.3311    0.0000 </r>
       <r>    9.3975    0.0000 </r>
       <r>    9.4952    0.0000 </r>
       <r>    9.5286    0.0000 </r>
       <r>    9.6510    0.0000 </r>
       <r>    9.6843    0.0000 </r>
       <r>    9.6872    0.0000 </r>
       <r>    9.6904    0.0000 </r>
       <r>    9.6924    0.0000 </r>
       <r>    9.7473    0.0000 </r>
       <r>    9.9102    0.0000 </r>
       <r>   10.0794    0.0000 </r>
       <r>   10.0942    0.0000 </r>
       <r>   10.0962    0.0000 </r>
       <r>   10.1090    0.0000 </r>
       <r>   10.1504    0.0000 </r>
       <r>   10.1721    0.0000 </r>
       <r>   10.1775    0.0000 </r>
       <r>   10.1984    0.0000 </r>
       <r>   10.1994    0.0000 </r>
       <r>   10.2304    0.0000 </r>
       <r>   10.2416    0.0000 </r>
       <r>   10.2847    0.0000 </r>
       <r>   10.3116    0.0000 </r>
       <r>   10.3199    0.0000 </r>
       <r>   10.3780    0.0000 </r>
       <r>   10.3822    0.0000 </r>
       <r>   10.3910    0.0000 </r>
       <r>   10.3943    0.0000 </r>
       <r>   10.4235    0.0000 </r>
       <r>   10.4396    0.0000 </r>
       <r>   10.4474    0.0000 </r>
       <r>   10.4754    0.0000 </r>
       <r>   10.5168    0.0000 </r>
       <r>   10.5399    0.0000 </r>
       <r>   10.6310    0.0000 </r>
       <r>   10.6766    0.0000 </r>
       <r>   10.7222    0.0000 </r>
       <r>   10.7232    0.0000 </r>
       <r>   10.7271    0.0000 </r>
       <r>   10.7354    0.0000 </r>
       <r>   10.7529    0.0000 </r>
       <r>   10.7611    0.0000 </r>
       <r>   10.7696    0.0000 </r>
       <r>   10.7888    0.0000 </r>
       <r>   10.7923    0.0000 </r>
       <r>   10.7954    0.0000 </r>
       <r>   10.8160    0.0000 </r>
       <r>   10.8181    0.0000 </r>
       <r>   11.2459    0.0000 </r>
       <r>   11.2649    0.0000 </r>
       <r>   11.5467    0.0000 </r>
       <r>   11.5910    0.0000 </r>
       <r>   11.6294    0.0000 </r>
       <r>   11.6713    0.0000 </r>
       <r>   11.7408    0.0000 </r>
       <r>   11.7440    0.0000 </r>
       <r>   11.7895    0.0000 </r>
       <r>   11.8161    0.0000 </r>
       <r>   12.3878    0.0000 </r>
      </set>
      <set comment="kpoint 5">
       <r>  -17.1663    1.0000 </r>
       <r>  -15.6768    1.0000 </r>
       <r>  -15.6757    1.0000 </r>
       <r>  -15.5680    1.0000 </r>
       <r>  -15.3954    1.0000 </r>
       <r>  -15.3095    1.0000 </r>
       <r>  -15.1584    1.0000 </r>
       <r>  -15.1580    1.0000 </r>
       <r>  -15.1550    1.0000 </r>
       <r>  -15.0704    1.0000 </r>
       <r>  -14.8863    1.0000 </r>
       <r>  -14.8644    1.0000 </r>
       <r>  -14.8639    1.0000 </r>
       <r>  -14.8458    1.0000 </r>
       <r>  -14.8379    1.0000 </r>
       <r>  -14.8374    1.0000 </r>
       <r>  -14.8349    1.0000 </r>
       <r>  -14.8344    1.0000 </r>
       <r>  -14.8269    1.0000 </r>
       <r>  -14.7635    1.0000 </r>
       <r>  -14.7628    1.0000 </r>
       <r>  -14.7436    1.0000 </r>
       <r>  -14.7038    1.0000 </r>
       <r>  -14.7030    1.0000 </r>
       <r>  -14.6441    1.0000 </r>
       <r>  -14.6337    1.0000 </r>
       <r>  -14.6335    1.0000 </r>
       <r>  -14.6193    1.0000 </r>
       <r>  -14.6190    1.0000 </r>
       <r>  -14.6127    1.0000 </r>
       <r>  -14.5465    1.0000 </r>
       <r>  -14.2500    1.0000 </r>
       <r>  -14.2494    1.0000 </r>
       <r>  -14.2408    1.0000 </r>
       <r>  -13.9138    1.0000 </r>
       <r>  -13.9093    1.0000 </r>
       <r>  -13.8509    1.0000 </r>
       <r>  -13.8477    1.0000 </r>
       <r>  -13.8428    1.0000 </r>
       <r>  -13.8428    1.0000 </r>
       <r>  -13.8385    1.0000 </r>
       <r>  -13.8385    1.0000 </r>
       <r>  -13.8371    1.0000 </r>
       <r>  -13.8111    1.0000 </r>
       <r>  -13.7951    1.0000 </r>
       <r>  -13.7948    1.0000 </r>
       <r>  -13.7839    1.0000 </r>
       <r>  -13.7779    1.0000 </r>
       <r>  -13.7770    1.0000 </r>
       <r>  -13.7527    1.0000 </r>
       <r>  -13.7494    1.0000 </r>
       <r>  -13.7462    1.0000 </r>
       <r>  -13.6396    1.0000 </r>
       <r>  -13.6379    1.0000 </r>
       <r>  -13.6379    1.0000 </r>
       <r>  -13.6362    1.0000 </r>
       <r>  -13.6362    1.0000 </r>
       <r>  -13.6355    1.0000 </r>
       <r>  -13.3975    1.0000 </r>
       <r>  -13.3943    1.0000 </r>
       <r>  -13.3941    1.0000 </r>
       <r>  -13.3939    1.0000 </r>
       <r>  -13.3937    1.0000 </r>
       <r>  -13.3919    1.0000 </r>
       <r>  -13.3706    1.0000 </r>
       <r>  -13.3706    1.0000 </r>
       <r>  -13.3564    1.0000 </r>
       <r>  -13.3497    1.0000 </r>
       <r>  -13.3497    1.0000 </r>
       <r>  -13.3492    1.0000 </r>
       <r>  -13.2606    1.0000 </r>
       <r>  -13.2595    1.0000 </r>
       <r>  -13.2051    1.0000 </r>
       <r>  -13.2042    1.0000 </r>
       <r>  -13.2042    1.0000 </r>
       <r>  -13.2038    1.0000 </r>
       <r>  -13.2038    1.0000 </r>
       <r>  -13.2033    1.0000 </r>
       <r>  -12.8861    1.0000 </r>
       <r>  -12.8555    1.0000 </r>
       <r>  -12.8555    1.0000 </r>
       <r>  -12.7715    1.0000 </r>
       <r>  -12.6728    1.0000 </r>
       <r>  -12.5897    1.0000 </r>
       <r>  -12.5884    1.0000 </r>
       <r>  -12.5868    1.0000 </r>
       <r>  -12.5421    1.0000 </r>
       <r>  -12.5233    1.0000 </r>
       <r>  -12.4974    1.0000 </r>
       <r>  -12.4944    1.0000 </r>
       <r>  -12.4673    1.0000 </r>
       <r>  -12.3488    1.0000 </r>
       <r>  -12.3343    1.0000 </r>
       <r>  -12.3313    1.0000 </r>
       <r>  -12.3204    1.0000 </r>
       <r>  -12.3200    1.0000 </r>
       <r>  -12.3155    1.0000 </r>
       <r>  -12.3124    1.0000 </r>
       <r>  -12.3119    1.0000 </r>
       <r>  -12.3042    1.0000 </r>
       <r>  -12.3036    1.0000 </r>
       <r>  -12.2950    1.0000 </r>
       <r>  -12.2945    1.0000 </r>
       <r>  -12.2894    1.0000 </r>
       <r>  -12.2890    1.0000 </r>
       <r>  -12.2880    1.0000 </r>
       <r>  -12.2875    1.0000 </r>
       <r>  -12.2780    1.0000 </r>
       <r>  -12.2768    1.0000 </r>
       <r>  -12.2700    1.0000 </r>
       <r>  -12.2695    1.0000 </r>
       <r>  -12.2672    1.0000 </r>
       <r>  -12.2668    1.0000 </r>
       <r>  -12.2559    1.0000 </r>
       <r>  -12.2551    1.0000 </r>
       <r>  -12.1928    1.0000 </r>
       <r>  -12.1919    1.0000 </r>
       <r>  -12.1918    1.0000 </r>
       <r>  -12.1844    1.0000 </r>
       <r>  -12.1834    1.0000 </r>
       <r>  -12.1831    1.0000 </r>
       <r>  -12.1581    1.0000 </r>
       <r>  -12.1581    1.0000 </r>
       <r>  -12.1541    1.0000 </r>
       <r>  -12.1538    1.0000 </r>
       <r>  -12.1517    1.0000 </r>
       <r>  -12.1517    1.0000 </r>
       <r>  -12.1440    1.0000 </r>
       <r>  -12.1440    1.0000 </r>
       <r>  -12.1429    1.0000 </r>
       <r>  -12.1419    1.0000 </r>
       <r>  -12.1396    1.0000 </r>
       <r>  -12.1396    1.0000 </r>
       <r>  -12.0617    1.0000 </r>
       <r>  -12.0617    1.0000 </r>
       <r>  -12.0617    1.0000 </r>
       <r>  -11.9629    1.0000 </r>
       <r>  -11.9575    1.0000 </r>
       <r>  -11.5946    1.0000 </r>
       <r>  -11.5943    1.0000 </r>
       <r>  -11.5936    1.0000 </r>
       <r>  -11.5934    1.0000 </r>
       <r>  -11.4688    1.0000 </r>
       <r>  -11.4688    1.0000 </r>
       <r>   -8.1766    1.0000 </r>
       <r>   -7.2992    1.0000 </r>
       <r>   -7.2986    1.0000 </r>
       <r>   -6.5947    1.0000 </r>
       <r>   -6.5934    1.0000 </r>
       <r>   -6.5331    1.0000 </r>
       <r>   -6.5257    1.0000 </r>
       <r>   -6.5257    1.0000 </r>
       <r>   -6.5240    1.0000 </r>
       <r>   -6.5205    1.0000 </r>
       <r>   -6.5205    1.0000 </r>
       <r>   -6.5021    1.0000 </r>
       <r>   -6.4692    1.0000 </r>
       <r>   -6.3900    1.0000 </r>
       <r>   -6.3899    1.0000 </r>
       <r>   -6.3899    1.0000 </r>
       <r>   -6.3118    1.0000 </r>
       <r>   -6.3066    1.0000 </r>
       <r>   -6.0941    1.0000 </r>
       <r>   -6.0929    1.0000 </r>
       <r>   -6.0284    1.0000 </r>
       <r>   -6.0272    1.0000 </r>
       <r>   -6.0034    1.0000 </r>
       <r>   -5.9866    1.0000 </r>
       <r>   -5.9066    1.0000 </r>
       <r>   -5.9061    1.0000 </r>
       <r>   -5.7166    1.0000 </r>
       <r>   -5.7165    1.0000 </r>
       <r>   -5.7105    1.0000 </r>
       <r>   -5.7103    1.0000 </r>
       <r>   -5.7078    1.0000 </r>
       <r>   -5.7078    1.0000 </r>
       <r>   -5.7014    1.0000 </r>
       <r>   -5.7014    1.0000 </r>
       <r>   -5.6929    1.0000 </r>
       <r>   -5.6887    1.0000 </r>
       <r>   -5.6875    1.0000 </r>
       <r>   -5.6847    1.0000 </r>
       <r>   -5.6834    1.0000 </r>
       <r>   -5.6833    1.0000 </r>
       <r>   -5.6779    1.0000 </r>
       <r>   -5.6765    1.0000 </r>
       <r>   -5.6717    1.0000 </r>
       <r>   -5.6717    1.0000 </r>
       <r>   -5.6700    1.0000 </r>
       <r>   -5.6699    1.0000 </r>
       <r>   -5.6653    1.0000 </r>
       <r>   -5.6652    1.0000 </r>
       <r>   -5.6630    1.0000 </r>
       <r>   -5.6630    1.0000 </r>
       <r>   -5.5809    1.0000 </r>
       <r>   -5.5809    1.0000 </r>
       <r>   -5.5589    1.0000 </r>
       <r>   -5.5583    1.0000 </r>
       <r>   -5.5583    1.0000 </r>
       <r>   -5.5577    1.0000 </r>
       <r>   -5.5549    1.0000 </r>
       <r>   -5.5549    1.0000 </r>
       <r>   -5.5539    1.0000 </r>
       <r>   -5.5539    1.0000 </r>
       <r>   -5.5506    1.0000 </r>
       <r>   -5.5506    1.0000 </r>
       <r>   -5.5471    1.0000 </r>
       <r>   -5.5471    1.0000 </r>
       <r>   -5.5471    1.0000 </r>
       <r>   -5.5468    1.0000 </r>
       <r>   -5.4184    1.0000 </r>
       <r>   -5.4183    1.0000 </r>
       <r>   -5.3587    1.0000 </r>
       <r>   -5.2307    1.0000 </r>
       <r>   -5.1389    1.0000 </r>
       <r>   -5.1373    1.0000 </r>
       <r>   -4.9856    1.0000 </r>
       <r>   -4.9188    1.0000 </r>
       <r>   -4.9184    1.0000 </r>
       <r>   -4.8706    1.0000 </r>
       <r>   -4.7461    1.0000 </r>
       <r>   -4.7461    1.0000 </r>
       <r>   -4.7452    1.0000 </r>
       <r>   -4.7452    1.0000 </r>
       <r>   -4.6191    1.0000 </r>
       <r>   -4.6191    1.0000 </r>
       <r>   -4.4792    1.0000 </r>
       <r>   -4.4791    1.0000 </r>
       <r>   -4.4781    1.0000 </r>
       <r>   -4.4762    1.0000 </r>
       <r>   -4.4760    1.0000 </r>
       <r>   -4.4760    1.0000 </r>
       <r>   -4.4716    1.0000 </r>
       <r>   -4.4715    1.0000 </r>
       <r>   -4.4701    1.0000 </r>
       <r>   -4.4686    1.0000 </r>
       <r>   -4.4685    1.0000 </r>
       <r>   -4.4683    1.0000 </r>
       <r>   -4.3392    1.0000 </r>
       <r>   -4.3390    1.0000 </r>
       <r>   -4.3389    1.0000 </r>
       <r>   -4.3389    1.0000 </r>
       <r>   -4.3389    1.0000 </r>
       <r>   -4.3386    1.0000 </r>
       <r>   -4.0738    1.0000 </r>
       <r>   -4.0360    1.0000 </r>
       <r>   -3.9236    1.0000 </r>
       <r>   -3.9235    1.0000 </r>
       <r>   -3.6246    1.0000 </r>
       <r>   -3.6214    1.0000 </r>
       <r>   -3.5974    1.0000 </r>
       <r>   -3.5859    1.0000 </r>
       <r>   -3.5588    1.0000 </r>
       <r>   -3.5197    1.0000 </r>
       <r>   -3.5109    1.0000 </r>
       <r>   -3.4230    1.0000 </r>
       <r>   -3.3536    1.0000 </r>
       <r>   -3.3195    1.0000 </r>
       <r>   -3.3168    1.0000 </r>
       <r>   -3.3041    1.0000 </r>
       <r>   -3.3015    1.0000 </r>
       <r>   -3.2200    1.0000 </r>
       <r>   -3.2167    1.0000 </r>
       <r>   -3.2155    1.0000 </r>
       <r>   -3.1827    1.0000 </r>
       <r>   -3.1734    1.0000 </r>
       <r>   -3.1710    1.0000 </r>
       <r>   -3.0981    1.0000 </r>
       <r>   -3.0981    1.0000 </r>
       <r>   -3.0977    1.0000 </r>
       <r>   -3.0967    1.0000 </r>
       <r>   -3.0966    1.0000 </r>
       <r>   -3.0965    1.0000 </r>
       <r>   -3.0958    1.0000 </r>
       <r>   -3.0958    1.0000 </r>
       <r>   -3.0955    1.0000 </r>
       <r>   -3.0952    1.0000 </r>
       <r>   -3.0951    1.0000 </r>
       <r>   -3.0950    1.0000 </r>
       <r>   -3.0192    1.0000 </r>
       <r>   -3.0171    1.0000 </r>
       <r>   -2.9689    1.0000 </r>
       <r>   -2.9689    1.0000 </r>
       <r>   -2.9689    1.0000 </r>
       <r>   -2.9688    1.0000 </r>
       <r>   -2.9688    1.0000 </r>
       <r>   -2.9687    1.0000 </r>
       <r>   -2.9657    1.0000 </r>
       <r>   -2.9259    1.0000 </r>
       <r>   -2.9258    1.0000 </r>
       <r>   -2.9213    1.0000 </r>
       <r>   -2.9211    1.0000 </r>
       <r>   -2.9190    1.0000 </r>
       <r>   -2.9189    1.0000 </r>
       <r>   -2.9132    1.0000 </r>
       <r>   -2.9131    1.0000 </r>
       <r>   -2.9086    1.0000 </r>
       <r>   -2.9037    1.0000 </r>
       <r>   -2.9024    1.0000 </r>
       <r>   -2.8965    1.0000 </r>
       <r>   -2.8938    1.0000 </r>
       <r>   -2.8925    1.0000 </r>
       <r>   -2.8877    1.0000 </r>
       <r>   -2.8859    1.0000 </r>
       <r>   -2.8821    1.0000 </r>
       <r>   -2.8821    1.0000 </r>
       <r>   -2.8801    1.0000 </r>
       <r>   -2.8801    1.0000 </r>
       <r>   -2.8758    1.0000 </r>
       <r>   -2.8757    1.0000 </r>
       <r>   -2.8732    1.0000 </r>
       <r>   -2.8732    1.0000 </r>
       <r>   -2.8575    1.0000 </r>
       <r>   -2.8295    1.0000 </r>
       <r>   -2.8291    1.0000 </r>
       <r>   -2.8033    1.0000 </r>
       <r>   -2.8028    1.0000 </r>
       <r>   -2.7927    1.0000 </r>
       <r>   -2.7721    1.0000 </r>
       <r>   -2.7720    1.0000 </r>
       <r>   -2.7719    1.0000 </r>
       <r>   -2.7708    1.0000 </r>
       <r>   -2.7676    1.0000 </r>
       <r>   -2.7676    1.0000 </r>
       <r>   -2.7625    1.0000 </r>
       <r>   -2.7625    1.0000 </r>
       <r>   -2.7597    1.0000 </r>
       <r>   -2.7594    1.0000 </r>
       <r>   -2.7587    1.0000 </r>
       <r>   -2.7587    1.0000 </r>
       <r>   -2.3794    1.0000 </r>
       <r>   -2.2349    1.0000 </r>
       <r>   -2.2323    1.0000 </r>
       <r>   -2.2123    1.0000 </r>
       <r>   -2.1184    1.0000 </r>
       <r>   -2.0970    1.0000 </r>
       <r>   -2.0899    1.0000 </r>
       <r>   -2.0896    1.0000 </r>
       <r>   -1.9795    1.0000 </r>
       <r>   -1.9474    1.0000 </r>
       <r>   -1.9473    1.0000 </r>
       <r>   -1.9466    1.0000 </r>
       <r>   -1.9448    1.0000 </r>
       <r>   -1.8931    1.0000 </r>
       <r>   -1.7145    1.0000 </r>
       <r>   -1.7145    1.0000 </r>
       <r>   -1.7144    1.0000 </r>
       <r>   -1.7098    1.0000 </r>
       <r>   -1.7097    1.0000 </r>
       <r>   -1.7097    1.0000 </r>
       <r>   -1.6815    1.0000 </r>
       <r>   -1.6814    1.0000 </r>
       <r>   -1.6694    1.0000 </r>
       <r>   -1.6614    1.0000 </r>
       <r>   -1.6344    1.0000 </r>
       <r>   -1.6340    1.0000 </r>
       <r>   -1.5943    1.0000 </r>
       <r>   -1.5923    1.0000 </r>
       <r>   -1.5807    1.0000 </r>
       <r>   -1.5806    1.0000 </r>
       <r>   -1.5806    1.0000 </r>
       <r>   -1.5767    1.0000 </r>
       <r>   -1.5692    1.0000 </r>
       <r>   -1.5688    1.0000 </r>
       <r>   -1.5474    1.0000 </r>
       <r>   -1.5257    1.0000 </r>
       <r>   -1.5177    1.0000 </r>
       <r>   -1.5021    1.0000 </r>
       <r>   -1.5021    1.0000 </r>
       <r>   -1.5013    1.0000 </r>
       <r>   -1.5011    1.0000 </r>
       <r>   -1.4998    1.0000 </r>
       <r>   -1.4998    1.0000 </r>
       <r>   -1.4970    1.0000 </r>
       <r>   -1.4908    1.0000 </r>
       <r>   -1.4906    1.0000 </r>
       <r>   -1.4905    1.0000 </r>
       <r>   -1.4895    1.0000 </r>
       <r>   -1.4882    1.0000 </r>
       <r>   -1.4873    1.0000 </r>
       <r>   -1.4871    1.0000 </r>
       <r>   -1.4870    1.0000 </r>
       <r>   -1.4809    1.0000 </r>
       <r>   -1.4458    1.0000 </r>
       <r>   -1.4444    1.0000 </r>
       <r>   -1.4302    1.0000 </r>
       <r>   -1.4297    1.0000 </r>
       <r>   -1.4297    1.0000 </r>
       <r>   -1.3877    1.0000 </r>
       <r>   -1.3782    1.0000 </r>
       <r>   -1.3781    1.0000 </r>
       <r>   -1.3750    1.0000 </r>
       <r>   -1.3714    1.0000 </r>
       <r>   -1.3708    1.0000 </r>
       <r>   -1.3627    1.0000 </r>
       <r>   -1.3627    1.0000 </r>
       <r>   -1.3617    1.0000 </r>
       <r>   -1.3594    1.0000 </r>
       <r>   -1.3594    1.0000 </r>
       <r>   -1.3594    1.0000 </r>
       <r>   -1.2299    1.0000 </r>
       <r>   -1.2252    1.0000 </r>
       <r>   -1.2179    1.0000 </r>
       <r>   -1.1524    1.0000 </r>
       <r>   -1.1516    1.0000 </r>
       <r>   -1.1515    1.0000 </r>
       <r>   -1.1505    1.0000 </r>
       <r>   -1.1505    1.0000 </r>
       <r>   -1.1495    1.0000 </r>
       <r>   -1.1481    1.0000 </r>
       <r>   -1.1472    1.0000 </r>
       <r>   -1.1471    1.0000 </r>
       <r>   -1.1461    1.0000 </r>
       <r>   -1.1461    1.0000 </r>
       <r>   -1.1451    1.0000 </r>
       <r>   -1.1232    1.0000 </r>
       <r>   -1.1214    1.0000 </r>
       <r>   -1.1208    1.0000 </r>
       <r>   -1.0681    1.0000 </r>
       <r>   -1.0194    1.0000 </r>
       <r>   -1.0194    1.0000 </r>
       <r>   -1.0193    1.0000 </r>
       <r>   -1.0191    1.0000 </r>
       <r>   -1.0190    1.0000 </r>
       <r>   -1.0190    1.0000 </r>
       <r>   -1.0034    1.0000 </r>
       <r>   -1.0018    1.0000 </r>
       <r>   -0.9881    1.0000 </r>
       <r>   -0.8610    1.0000 </r>
       <r>   -0.8608    1.0000 </r>
       <r>   -0.8597    1.0000 </r>
       <r>   -0.8512    1.0000 </r>
       <r>   -0.8510    1.0000 </r>
       <r>   -0.8491    1.0000 </r>
       <r>   -0.8432    1.0000 </r>
       <r>   -0.8431    1.0000 </r>
       <r>   -0.8346    1.0000 </r>
       <r>   -0.8341    1.0000 </r>
       <r>   -0.8339    1.0000 </r>
       <r>   -0.8256    1.0000 </r>
       <r>   -0.7511    1.0000 </r>
       <r>   -0.7457    1.0000 </r>
       <r>   -0.7457    1.0000 </r>
       <r>   -0.7435    1.0000 </r>
       <r>   -0.7434    1.0000 </r>
       <r>   -0.7416    1.0000 </r>
       <r>   -0.7227    1.0000 </r>
       <r>   -0.7211    1.0000 </r>
       <r>   -0.7210    1.0000 </r>
       <r>   -0.7155    1.0000 </r>
       <r>   -0.7155    1.0000 </r>
       <r>   -0.7127    1.0000 </r>
       <r>   -0.4353    1.0000 </r>
       <r>   -0.4344    1.0000 </r>
       <r>   -0.4002    1.0000 </r>
       <r>   -0.3400    1.0000 </r>
       <r>   -0.3345    1.0000 </r>
       <r>   -0.3343    1.0000 </r>
       <r>   -0.3338    1.0000 </r>
       <r>   -0.2559    1.0000 </r>
       <r>   -0.2552    1.0000 </r>
       <r>   -0.1343    1.0000 </r>
       <r>   -0.1259    1.0000 </r>
       <r>   -0.1259    1.0000 </r>
       <r>   -0.1221    1.0000 </r>
       <r>   -0.1220    1.0000 </r>
       <r>   -0.1207    1.0000 </r>
       <r>   -0.0918    1.0000 </r>
       <r>   -0.0816    1.0000 </r>
       <r>   -0.0384    1.0000 </r>
       <r>    0.0428    1.0000 </r>
       <r>    0.0440    1.0000 </r>
       <r>    0.1764    1.0000 </r>
       <r>    0.2136    1.0000 </r>
       <r>    0.2161    1.0000 </r>
       <r>    0.2171    1.0000 </r>
       <r>    0.2174    1.0000 </r>
       <r>    0.2198    1.0000 </r>
       <r>    0.2201    1.0000 </r>
       <r>    0.2262    1.0000 </r>
       <r>    0.2271    1.0000 </r>
       <r>    0.2329    1.0000 </r>
       <r>    0.2362    1.0000 </r>
       <r>    0.2364    1.0000 </r>
       <r>    0.2393    1.0000 </r>
       <r>    0.2395    1.0000 </r>
       <r>    0.2446    1.0000 </r>
       <r>    0.2479    1.0000 </r>
       <r>    0.3537    1.0000 </r>
       <r>    0.3553    1.0000 </r>
       <r>    0.3553    1.0000 </r>
       <r>    0.3594    1.0000 </r>
       <r>    0.3601    1.0000 </r>
       <r>    0.3605    1.0000 </r>
       <r>    0.3605    1.0000 </r>
       <r>    0.3629    1.0000 </r>
       <r>    0.4299    1.0000 </r>
       <r>    0.4371    1.0000 </r>
       <r>    0.4371    1.0000 </r>
       <r>    0.4384    1.0000 </r>
       <r>    0.4384    1.0000 </r>
       <r>    0.4407    1.0000 </r>
       <r>    0.5064    1.0000 </r>
       <r>    0.5858    1.0000 </r>
       <r>    0.6411    1.0000 </r>
       <r>    0.6418    1.0000 </r>
       <r>    0.7203    1.0000 </r>
       <r>    0.7209    1.0000 </r>
       <r>    0.7413    1.0000 </r>
       <r>    0.7483    1.0000 </r>
       <r>    0.7499    1.0000 </r>
       <r>    0.7774    1.0000 </r>
       <r>    0.7815    1.0000 </r>
       <r>    0.7856    1.0000 </r>
       <r>    0.9069    1.0000 </r>
       <r>    0.9244    1.0000 </r>
       <r>    0.9259    1.0000 </r>
       <r>    0.9260    1.0000 </r>
       <r>    0.9421    1.0000 </r>
       <r>    0.9422    1.0000 </r>
       <r>    0.9450    1.0000 </r>
       <r>    0.9487    1.0000 </r>
       <r>    0.9519    1.0000 </r>
       <r>    0.9522    1.0000 </r>
       <r>    0.9523    1.0000 </r>
       <r>    0.9630    1.0000 </r>
       <r>    0.9631    1.0000 </r>
       <r>    0.9648    1.0000 </r>
       <r>    0.9666    1.0000 </r>
       <r>    1.1331    1.0000 </r>
       <r>    1.1332    1.0000 </r>
       <r>    1.1349    1.0000 </r>
       <r>    1.1350    1.0000 </r>
       <r>    1.1812    1.0000 </r>
       <r>    1.1827    1.0000 </r>
       <r>    1.1827    1.0000 </r>
       <r>    1.2614    1.0000 </r>
       <r>    1.2614    1.0000 </r>
       <r>    1.4233    1.0000 </r>
       <r>    1.4234    1.0000 </r>
       <r>    1.5022    1.0000 </r>
       <r>    1.5463    1.0000 </r>
       <r>    1.5855    1.0000 </r>
       <r>    1.5857    1.0000 </r>
       <r>    1.6193    1.0000 </r>
       <r>    1.6196    1.0000 </r>
       <r>    1.6486    1.0000 </r>
       <r>    1.6663    1.0000 </r>
       <r>    1.6665    1.0000 </r>
       <r>    1.6687    1.0000 </r>
       <r>    1.7231    1.0000 </r>
       <r>    1.7260    1.0000 </r>
       <r>    1.7265    1.0000 </r>
       <r>    1.7692    1.0000 </r>
       <r>    1.7880    1.0000 </r>
       <r>    1.7904    1.0000 </r>
       <r>    1.7905    1.0000 </r>
       <r>    1.8046    1.0000 </r>
       <r>    1.8047    1.0000 </r>
       <r>    1.8134    1.0000 </r>
       <r>    1.8134    1.0000 </r>
       <r>    1.8233    1.0000 </r>
       <r>    1.8233    1.0000 </r>
       <r>    1.8252    1.0000 </r>
       <r>    1.8270    1.0000 </r>
       <r>    1.8935    1.0000 </r>
       <r>    1.8942    1.0000 </r>
       <r>    1.8943    1.0000 </r>
       <r>    2.0482    1.0000 </r>
       <r>    2.0507    1.0000 </r>
       <r>    2.3688    1.0000 </r>
       <r>    2.3730    1.0000 </r>
       <r>    2.3770    1.0000 </r>
       <r>    2.3788    1.0000 </r>
       <r>    2.5007    1.0000 </r>
       <r>    2.5007    1.0000 </r>
       <r>    5.5460    0.0000 </r>
       <r>    6.5230    0.0000 </r>
       <r>    6.5240    0.0000 </r>
       <r>    6.7450    0.0000 </r>
       <r>    6.7666    0.0000 </r>
       <r>    6.7841    0.0000 </r>
       <r>    6.8618    0.0000 </r>
       <r>    6.8619    0.0000 </r>
       <r>    6.8691    0.0000 </r>
       <r>    7.1393    0.0000 </r>
       <r>    7.1847    0.0000 </r>
       <r>    7.1848    0.0000 </r>
       <r>    7.1895    0.0000 </r>
       <r>    7.1896    0.0000 </r>
       <r>    7.2982    0.0000 </r>
       <r>    7.2997    0.0000 </r>
       <r>    7.3168    0.0000 </r>
       <r>    7.3170    0.0000 </r>
       <r>    7.3681    0.0000 </r>
       <r>    7.4367    0.0000 </r>
       <r>    7.4382    0.0000 </r>
       <r>    7.5251    0.0000 </r>
       <r>    7.5259    0.0000 </r>
       <r>    7.5762    0.0000 </r>
       <r>    7.5849    0.0000 </r>
       <r>    7.5855    0.0000 </r>
       <r>    7.5991    0.0000 </r>
       <r>    7.6329    0.0000 </r>
       <r>    7.6338    0.0000 </r>
       <r>    7.6406    0.0000 </r>
       <r>    7.6964    0.0000 </r>
       <r>    7.6965    0.0000 </r>
       <r>    7.7167    0.0000 </r>
       <r>    7.7223    0.0000 </r>
       <r>    7.7278    0.0000 </r>
       <r>    7.7278    0.0000 </r>
       <r>    7.7430    0.0000 </r>
       <r>    7.7430    0.0000 </r>
       <r>    7.7500    0.0000 </r>
       <r>    7.7535    0.0000 </r>
       <r>    7.7567    0.0000 </r>
       <r>    7.7569    0.0000 </r>
       <r>    7.8180    0.0000 </r>
       <r>    7.8180    0.0000 </r>
       <r>    7.8200    0.0000 </r>
       <r>    8.0311    0.0000 </r>
       <r>    8.0921    0.0000 </r>
       <r>    8.0930    0.0000 </r>
       <r>    8.1020    0.0000 </r>
       <r>    8.1534    0.0000 </r>
       <r>    8.1539    0.0000 </r>
       <r>    8.1891    0.0000 </r>
       <r>    8.1892    0.0000 </r>
       <r>    8.2167    0.0000 </r>
       <r>    8.2236    0.0000 </r>
       <r>    8.2245    0.0000 </r>
       <r>    8.2289    0.0000 </r>
       <r>    8.3216    0.0000 </r>
       <r>    8.3217    0.0000 </r>
       <r>    8.3243    0.0000 </r>
       <r>    8.3311    0.0000 </r>
       <r>    8.3402    0.0000 </r>
       <r>    8.3441    0.0000 </r>
       <r>    8.3442    0.0000 </r>
       <r>    8.3484    0.0000 </r>
       <r>    8.3484    0.0000 </r>
       <r>    8.3632    0.0000 </r>
       <r>    8.3632    0.0000 </r>
       <r>    8.3633    0.0000 </r>
       <r>    8.3655    0.0000 </r>
       <r>    8.3694    0.0000 </r>
       <r>    8.8680    0.0000 </r>
       <r>    8.9245    0.0000 </r>
       <r>    8.9254    0.0000 </r>
       <r>    9.0867    0.0000 </r>
       <r>    9.0883    0.0000 </r>
       <r>    9.1079    0.0000 </r>
       <r>    9.1088    0.0000 </r>
       <r>    9.1331    0.0000 </r>
       <r>    9.1427    0.0000 </r>
       <r>    9.1437    0.0000 </r>
       <r>    9.1700    0.0000 </r>
       <r>    9.1764    0.0000 </r>
       <r>    9.2000    0.0000 </r>
       <r>    9.2004    0.0000 </r>
       <r>    9.2268    0.0000 </r>
       <r>    9.2275    0.0000 </r>
       <r>    9.2406    0.0000 </r>
       <r>    9.2752    0.0000 </r>
       <r>    9.3182    0.0000 </r>
       <r>    9.3188    0.0000 </r>
       <r>    9.3905    0.0000 </r>
       <r>    9.3907    0.0000 </r>
       <r>    9.3912    0.0000 </r>
       <r>    9.4642    0.0000 </r>
       <r>    9.6127    0.0000 </r>
       <r>    9.6130    0.0000 </r>
       <r>    9.6853    0.0000 </r>
       <r>    9.7762    0.0000 </r>
       <r>    9.7767    0.0000 </r>
       <r>    9.7942    0.0000 </r>
       <r>    9.7947    0.0000 </r>
       <r>    9.8026    0.0000 </r>
       <r>    9.9520    0.0000 </r>
       <r>    9.9528    0.0000 </r>
       <r>    9.9529    0.0000 </r>
       <r>    9.9756    0.0000 </r>
       <r>    9.9803    0.0000 </r>
       <r>    9.9804    0.0000 </r>
       <r>   10.0847    0.0000 </r>
       <r>   10.1341    0.0000 </r>
       <r>   10.1357    0.0000 </r>
       <r>   10.1499    0.0000 </r>
       <r>   10.1502    0.0000 </r>
       <r>   10.1708    0.0000 </r>
       <r>   10.1856    0.0000 </r>
       <r>   10.1858    0.0000 </r>
       <r>   10.1925    0.0000 </r>
       <r>   10.2061    0.0000 </r>
       <r>   10.2066    0.0000 </r>
       <r>   10.2977    0.0000 </r>
       <r>   10.5560    0.0000 </r>
       <r>   10.6247    0.0000 </r>
       <r>   10.6256    0.0000 </r>
       <r>   10.6451    0.0000 </r>
       <r>   10.6454    0.0000 </r>
       <r>   10.6650    0.0000 </r>
       <r>   10.8080    0.0000 </r>
       <r>   10.8150    0.0000 </r>
       <r>   10.8152    0.0000 </r>
       <r>   10.8196    0.0000 </r>
       <r>   10.8200    0.0000 </r>
       <r>   10.8214    0.0000 </r>
       <r>   11.3050    0.0000 </r>
       <r>   11.3515    0.0000 </r>
       <r>   11.3722    0.0000 </r>
       <r>   11.4322    0.0000 </r>
       <r>   11.4825    0.0000 </r>
       <r>   11.4909    0.0000 </r>
       <r>   11.5020    0.0000 </r>
       <r>   11.5239    0.0000 </r>
       <r>   11.5674    0.0000 </r>
       <r>   11.5823    0.0000 </r>
       <r>   11.6465    0.0000 </r>
       <r>   11.7003    0.0000 </r>
       <r>   11.7161    0.0000 </r>
       <r>   11.7488    0.0000 </r>
       <r>   11.7681    0.0000 </r>
       <r>   11.8089    0.0000 </r>
       <r>   11.8241    0.0000 </r>
       <r>   11.8401    0.0000 </r>
       <r>   11.8793    0.0000 </r>
      </set>
      <set comment="kpoint 6">
       <r>  -17.1660    1.0000 </r>
       <r>  -15.7421    1.0000 </r>
       <r>  -15.6890    1.0000 </r>
       <r>  -15.4150    1.0000 </r>
       <r>  -15.2826    1.0000 </r>
       <r>  -15.2749    1.0000 </r>
       <r>  -15.2418    1.0000 </r>
       <r>  -15.2047    1.0000 </r>
       <r>  -15.1412    1.0000 </r>
       <r>  -15.0812    1.0000 </r>
       <r>  -15.0459    1.0000 </r>
       <r>  -15.0340    1.0000 </r>
       <r>  -15.0149    1.0000 </r>
       <r>  -14.9844    1.0000 </r>
       <r>  -14.9839    1.0000 </r>
       <r>  -14.9061    1.0000 </r>
       <r>  -14.8986    1.0000 </r>
       <r>  -14.8517    1.0000 </r>
       <r>  -14.7581    1.0000 </r>
       <r>  -14.7572    1.0000 </r>
       <r>  -14.6164    1.0000 </r>
       <r>  -14.5664    1.0000 </r>
       <r>  -14.5401    1.0000 </r>
       <r>  -14.4661    1.0000 </r>
       <r>  -14.4630    1.0000 </r>
       <r>  -14.4596    1.0000 </r>
       <r>  -14.4585    1.0000 </r>
       <r>  -14.4224    1.0000 </r>
       <r>  -14.4026    1.0000 </r>
       <r>  -14.3957    1.0000 </r>
       <r>  -14.3847    1.0000 </r>
       <r>  -14.3361    1.0000 </r>
       <r>  -14.2471    1.0000 </r>
       <r>  -14.2456    1.0000 </r>
       <r>  -14.2433    1.0000 </r>
       <r>  -14.2427    1.0000 </r>
       <r>  -14.2073    1.0000 </r>
       <r>  -14.2066    1.0000 </r>
       <r>  -14.1689    1.0000 </r>
       <r>  -14.1494    1.0000 </r>
       <r>  -14.1054    1.0000 </r>
       <r>  -14.0321    1.0000 </r>
       <r>  -13.9976    1.0000 </r>
       <r>  -13.9973    1.0000 </r>
       <r>  -13.9382    1.0000 </r>
       <r>  -13.7785    1.0000 </r>
       <r>  -13.7418    1.0000 </r>
       <r>  -13.7402    1.0000 </r>
       <r>  -13.7115    1.0000 </r>
       <r>  -13.7112    1.0000 </r>
       <r>  -13.7024    1.0000 </r>
       <r>  -13.6804    1.0000 </r>
       <r>  -13.6569    1.0000 </r>
       <r>  -13.6547    1.0000 </r>
       <r>  -13.5962    1.0000 </r>
       <r>  -13.5330    1.0000 </r>
       <r>  -13.5326    1.0000 </r>
       <r>  -13.5184    1.0000 </r>
       <r>  -13.5183    1.0000 </r>
       <r>  -13.5004    1.0000 </r>
       <r>  -13.3570    1.0000 </r>
       <r>  -13.3349    1.0000 </r>
       <r>  -13.2542    1.0000 </r>
       <r>  -13.2221    1.0000 </r>
       <r>  -13.1088    1.0000 </r>
       <r>  -13.0681    1.0000 </r>
       <r>  -13.0641    1.0000 </r>
       <r>  -13.0616    1.0000 </r>
       <r>  -13.0603    1.0000 </r>
       <r>  -13.0327    1.0000 </r>
       <r>  -13.0261    1.0000 </r>
       <r>  -13.0228    1.0000 </r>
       <r>  -13.0166    1.0000 </r>
       <r>  -12.9721    1.0000 </r>
       <r>  -12.9239    1.0000 </r>
       <r>  -12.8938    1.0000 </r>
       <r>  -12.8918    1.0000 </r>
       <r>  -12.8889    1.0000 </r>
       <r>  -12.8887    1.0000 </r>
       <r>  -12.8786    1.0000 </r>
       <r>  -12.8779    1.0000 </r>
       <r>  -12.8771    1.0000 </r>
       <r>  -12.8769    1.0000 </r>
       <r>  -12.8647    1.0000 </r>
       <r>  -12.8598    1.0000 </r>
       <r>  -12.8561    1.0000 </r>
       <r>  -12.8504    1.0000 </r>
       <r>  -12.8493    1.0000 </r>
       <r>  -12.7154    1.0000 </r>
       <r>  -12.7152    1.0000 </r>
       <r>  -12.7146    1.0000 </r>
       <r>  -12.7145    1.0000 </r>
       <r>  -12.6890    1.0000 </r>
       <r>  -12.6075    1.0000 </r>
       <r>  -12.5985    1.0000 </r>
       <r>  -12.5766    1.0000 </r>
       <r>  -12.5727    1.0000 </r>
       <r>  -12.5509    1.0000 </r>
       <r>  -12.5260    1.0000 </r>
       <r>  -12.4960    1.0000 </r>
       <r>  -12.4345    1.0000 </r>
       <r>  -12.4293    1.0000 </r>
       <r>  -12.4227    1.0000 </r>
       <r>  -12.4211    1.0000 </r>
       <r>  -12.3419    1.0000 </r>
       <r>  -12.3384    1.0000 </r>
       <r>  -12.3214    1.0000 </r>
       <r>  -12.3172    1.0000 </r>
       <r>  -12.2466    1.0000 </r>
       <r>  -12.2449    1.0000 </r>
       <r>  -12.2370    1.0000 </r>
       <r>  -12.2324    1.0000 </r>
       <r>  -12.2188    1.0000 </r>
       <r>  -12.2177    1.0000 </r>
       <r>  -12.2078    1.0000 </r>
       <r>  -12.2047    1.0000 </r>
       <r>  -12.1781    1.0000 </r>
       <r>  -12.1764    1.0000 </r>
       <r>  -12.1763    1.0000 </r>
       <r>  -12.1691    1.0000 </r>
       <r>  -12.0958    1.0000 </r>
       <r>  -12.0957    1.0000 </r>
       <r>  -12.0875    1.0000 </r>
       <r>  -12.0871    1.0000 </r>
       <r>  -12.0871    1.0000 </r>
       <r>  -12.0804    1.0000 </r>
       <r>  -11.9508    1.0000 </r>
       <r>  -11.9477    1.0000 </r>
       <r>  -11.9464    1.0000 </r>
       <r>  -11.9432    1.0000 </r>
       <r>  -11.8160    1.0000 </r>
       <r>  -11.8153    1.0000 </r>
       <r>  -11.8081    1.0000 </r>
       <r>  -11.8075    1.0000 </r>
       <r>  -11.8044    1.0000 </r>
       <r>  -11.8038    1.0000 </r>
       <r>  -11.7848    1.0000 </r>
       <r>  -11.7846    1.0000 </r>
       <r>  -11.7793    1.0000 </r>
       <r>  -11.7790    1.0000 </r>
       <r>  -11.6685    1.0000 </r>
       <r>  -11.6685    1.0000 </r>
       <r>  -11.6612    1.0000 </r>
       <r>  -11.6612    1.0000 </r>
       <r>   -8.1623    1.0000 </r>
       <r>   -7.2500    1.0000 </r>
       <r>   -7.2352    1.0000 </r>
       <r>   -6.7824    1.0000 </r>
       <r>   -6.6969    1.0000 </r>
       <r>   -6.6795    1.0000 </r>
       <r>   -6.4273    1.0000 </r>
       <r>   -6.4010    1.0000 </r>
       <r>   -6.3184    1.0000 </r>
       <r>   -6.3089    1.0000 </r>
       <r>   -6.3059    1.0000 </r>
       <r>   -6.3040    1.0000 </r>
       <r>   -6.2982    1.0000 </r>
       <r>   -6.2863    1.0000 </r>
       <r>   -6.2752    1.0000 </r>
       <r>   -6.2744    1.0000 </r>
       <r>   -6.2683    1.0000 </r>
       <r>   -6.2680    1.0000 </r>
       <r>   -6.2155    1.0000 </r>
       <r>   -6.2144    1.0000 </r>
       <r>   -6.2107    1.0000 </r>
       <r>   -6.2071    1.0000 </r>
       <r>   -6.1955    1.0000 </r>
       <r>   -6.1912    1.0000 </r>
       <r>   -6.1590    1.0000 </r>
       <r>   -6.1588    1.0000 </r>
       <r>   -6.1491    1.0000 </r>
       <r>   -6.1490    1.0000 </r>
       <r>   -6.0725    1.0000 </r>
       <r>   -6.0712    1.0000 </r>
       <r>   -5.9353    1.0000 </r>
       <r>   -5.9280    1.0000 </r>
       <r>   -5.9105    1.0000 </r>
       <r>   -5.9031    1.0000 </r>
       <r>   -5.8347    1.0000 </r>
       <r>   -5.7896    1.0000 </r>
       <r>   -5.7818    1.0000 </r>
       <r>   -5.7694    1.0000 </r>
       <r>   -5.7686    1.0000 </r>
       <r>   -5.7636    1.0000 </r>
       <r>   -5.7615    1.0000 </r>
       <r>   -5.7596    1.0000 </r>
       <r>   -5.7585    1.0000 </r>
       <r>   -5.7580    1.0000 </r>
       <r>   -5.7553    1.0000 </r>
       <r>   -5.7504    1.0000 </r>
       <r>   -5.7309    1.0000 </r>
       <r>   -5.6819    1.0000 </r>
       <r>   -5.6517    1.0000 </r>
       <r>   -5.6396    1.0000 </r>
       <r>   -5.6232    1.0000 </r>
       <r>   -5.6232    1.0000 </r>
       <r>   -5.6200    1.0000 </r>
       <r>   -5.6199    1.0000 </r>
       <r>   -5.2292    1.0000 </r>
       <r>   -5.2269    1.0000 </r>
       <r>   -5.2244    1.0000 </r>
       <r>   -5.2241    1.0000 </r>
       <r>   -5.2236    1.0000 </r>
       <r>   -5.2196    1.0000 </r>
       <r>   -5.2190    1.0000 </r>
       <r>   -5.2190    1.0000 </r>
       <r>   -5.2179    1.0000 </r>
       <r>   -5.2173    1.0000 </r>
       <r>   -5.2171    1.0000 </r>
       <r>   -5.2166    1.0000 </r>
       <r>   -5.1095    1.0000 </r>
       <r>   -5.0934    1.0000 </r>
       <r>   -5.0908    1.0000 </r>
       <r>   -5.0907    1.0000 </r>
       <r>   -5.0879    1.0000 </r>
       <r>   -5.0879    1.0000 </r>
       <r>   -5.0875    1.0000 </r>
       <r>   -5.0875    1.0000 </r>
       <r>   -5.0076    1.0000 </r>
       <r>   -4.9192    1.0000 </r>
       <r>   -4.8274    1.0000 </r>
       <r>   -4.5993    1.0000 </r>
       <r>   -4.5411    1.0000 </r>
       <r>   -4.5334    1.0000 </r>
       <r>   -4.4752    1.0000 </r>
       <r>   -4.4726    1.0000 </r>
       <r>   -4.4718    1.0000 </r>
       <r>   -4.4709    1.0000 </r>
       <r>   -4.4705    1.0000 </r>
       <r>   -4.4694    1.0000 </r>
       <r>   -4.4679    1.0000 </r>
       <r>   -4.4677    1.0000 </r>
       <r>   -4.3414    1.0000 </r>
       <r>   -4.3411    1.0000 </r>
       <r>   -4.3408    1.0000 </r>
       <r>   -4.3407    1.0000 </r>
       <r>   -4.3149    1.0000 </r>
       <r>   -4.1919    1.0000 </r>
       <r>   -4.0910    1.0000 </r>
       <r>   -4.0877    1.0000 </r>
       <r>   -4.0875    1.0000 </r>
       <r>   -4.0842    1.0000 </r>
       <r>   -4.0827    1.0000 </r>
       <r>   -4.0745    1.0000 </r>
       <r>   -4.0743    1.0000 </r>
       <r>   -4.0711    1.0000 </r>
       <r>   -4.0699    1.0000 </r>
       <r>   -4.0357    1.0000 </r>
       <r>   -4.0232    1.0000 </r>
       <r>   -3.9502    1.0000 </r>
       <r>   -3.9501    1.0000 </r>
       <r>   -3.9466    1.0000 </r>
       <r>   -3.9466    1.0000 </r>
       <r>   -3.9061    1.0000 </r>
       <r>   -3.8644    1.0000 </r>
       <r>   -3.7745    1.0000 </r>
       <r>   -3.6226    1.0000 </r>
       <r>   -3.6203    1.0000 </r>
       <r>   -3.6154    1.0000 </r>
       <r>   -3.6140    1.0000 </r>
       <r>   -3.6043    1.0000 </r>
       <r>   -3.6033    1.0000 </r>
       <r>   -3.5980    1.0000 </r>
       <r>   -3.5975    1.0000 </r>
       <r>   -3.5935    1.0000 </r>
       <r>   -3.4796    1.0000 </r>
       <r>   -3.4796    1.0000 </r>
       <r>   -3.4741    1.0000 </r>
       <r>   -3.4740    1.0000 </r>
       <r>   -3.4692    1.0000 </r>
       <r>   -3.4680    1.0000 </r>
       <r>   -3.4674    1.0000 </r>
       <r>   -3.4655    1.0000 </r>
       <r>   -3.4650    1.0000 </r>
       <r>   -3.3894    1.0000 </r>
       <r>   -3.3572    1.0000 </r>
       <r>   -3.3420    1.0000 </r>
       <r>   -3.3384    1.0000 </r>
       <r>   -3.3383    1.0000 </r>
       <r>   -3.3145    1.0000 </r>
       <r>   -3.3087    1.0000 </r>
       <r>   -3.1461    1.0000 </r>
       <r>   -3.0897    1.0000 </r>
       <r>   -3.0774    1.0000 </r>
       <r>   -3.0727    1.0000 </r>
       <r>   -3.0722    1.0000 </r>
       <r>   -3.0659    1.0000 </r>
       <r>   -3.0030    1.0000 </r>
       <r>   -2.9990    1.0000 </r>
       <r>   -2.9829    1.0000 </r>
       <r>   -2.9384    1.0000 </r>
       <r>   -2.9376    1.0000 </r>
       <r>   -2.8462    1.0000 </r>
       <r>   -2.7634    1.0000 </r>
       <r>   -2.7595    1.0000 </r>
       <r>   -2.7507    1.0000 </r>
       <r>   -2.7270    1.0000 </r>
       <r>   -2.7236    1.0000 </r>
       <r>   -2.6736    1.0000 </r>
       <r>   -2.6722    1.0000 </r>
       <r>   -2.6684    1.0000 </r>
       <r>   -2.6500    1.0000 </r>
       <r>   -2.6125    1.0000 </r>
       <r>   -2.5455    1.0000 </r>
       <r>   -2.5452    1.0000 </r>
       <r>   -2.5421    1.0000 </r>
       <r>   -2.5158    1.0000 </r>
       <r>   -2.4620    1.0000 </r>
       <r>   -2.3879    1.0000 </r>
       <r>   -2.3850    1.0000 </r>
       <r>   -2.3771    1.0000 </r>
       <r>   -2.3748    1.0000 </r>
       <r>   -2.3729    1.0000 </r>
       <r>   -2.3717    1.0000 </r>
       <r>   -2.3716    1.0000 </r>
       <r>   -2.3708    1.0000 </r>
       <r>   -2.3695    1.0000 </r>
       <r>   -2.3679    1.0000 </r>
       <r>   -2.3660    1.0000 </r>
       <r>   -2.3425    1.0000 </r>
       <r>   -2.2709    1.0000 </r>
       <r>   -2.2628    1.0000 </r>
       <r>   -2.2568    1.0000 </r>
       <r>   -2.2410    1.0000 </r>
       <r>   -2.2407    1.0000 </r>
       <r>   -2.2404    1.0000 </r>
       <r>   -2.2402    1.0000 </r>
       <r>   -2.2350    1.0000 </r>
       <r>   -2.2047    1.0000 </r>
       <r>   -2.1946    1.0000 </r>
       <r>   -2.1935    1.0000 </r>
       <r>   -2.1640    1.0000 </r>
       <r>   -2.1499    1.0000 </r>
       <r>   -2.1448    1.0000 </r>
       <r>   -2.1315    1.0000 </r>
       <r>   -2.0962    1.0000 </r>
       <r>   -2.0913    1.0000 </r>
       <r>   -2.0910    1.0000 </r>
       <r>   -2.0858    1.0000 </r>
       <r>   -2.0855    1.0000 </r>
       <r>   -2.0574    1.0000 </r>
       <r>   -2.0570    1.0000 </r>
       <r>   -2.0507    1.0000 </r>
       <r>   -2.0504    1.0000 </r>
       <r>   -2.0111    1.0000 </r>
       <r>   -1.9631    1.0000 </r>
       <r>   -1.9431    1.0000 </r>
       <r>   -1.9430    1.0000 </r>
       <r>   -1.9330    1.0000 </r>
       <r>   -1.9330    1.0000 </r>
       <r>   -1.9308    1.0000 </r>
       <r>   -1.9063    1.0000 </r>
       <r>   -1.9050    1.0000 </r>
       <r>   -1.8976    1.0000 </r>
       <r>   -1.8925    1.0000 </r>
       <r>   -1.8629    1.0000 </r>
       <r>   -1.8603    1.0000 </r>
       <r>   -1.8598    1.0000 </r>
       <r>   -1.8591    1.0000 </r>
       <r>   -1.8581    1.0000 </r>
       <r>   -1.8576    1.0000 </r>
       <r>   -1.8564    1.0000 </r>
       <r>   -1.8550    1.0000 </r>
       <r>   -1.8519    1.0000 </r>
       <r>   -1.7786    1.0000 </r>
       <r>   -1.7785    1.0000 </r>
       <r>   -1.7776    1.0000 </r>
       <r>   -1.7775    1.0000 </r>
       <r>   -1.7742    1.0000 </r>
       <r>   -1.7739    1.0000 </r>
       <r>   -1.7727    1.0000 </r>
       <r>   -1.7726    1.0000 </r>
       <r>   -1.7445    1.0000 </r>
       <r>   -1.7429    1.0000 </r>
       <r>   -1.7410    1.0000 </r>
       <r>   -1.7403    1.0000 </r>
       <r>   -1.7132    1.0000 </r>
       <r>   -1.7046    1.0000 </r>
       <r>   -1.6634    1.0000 </r>
       <r>   -1.6452    1.0000 </r>
       <r>   -1.6451    1.0000 </r>
       <r>   -1.6449    1.0000 </r>
       <r>   -1.6448    1.0000 </r>
       <r>   -1.6249    1.0000 </r>
       <r>   -1.6086    1.0000 </r>
       <r>   -1.6080    1.0000 </r>
       <r>   -1.5840    1.0000 </r>
       <r>   -1.5832    1.0000 </r>
       <r>   -1.5797    1.0000 </r>
       <r>   -1.5570    1.0000 </r>
       <r>   -1.5548    1.0000 </r>
       <r>   -1.5497    1.0000 </r>
       <r>   -1.4506    1.0000 </r>
       <r>   -1.4431    1.0000 </r>
       <r>   -1.4411    1.0000 </r>
       <r>   -1.4315    1.0000 </r>
       <r>   -1.2550    1.0000 </r>
       <r>   -1.2524    1.0000 </r>
       <r>   -1.2350    1.0000 </r>
       <r>   -1.2348    1.0000 </r>
       <r>   -1.2266    1.0000 </r>
       <r>   -1.2240    1.0000 </r>
       <r>   -1.2210    1.0000 </r>
       <r>   -1.2066    1.0000 </r>
       <r>   -1.2065    1.0000 </r>
       <r>   -1.2061    1.0000 </r>
       <r>   -1.2058    1.0000 </r>
       <r>   -1.1904    1.0000 </r>
       <r>   -1.1879    1.0000 </r>
       <r>   -1.1803    1.0000 </r>
       <r>   -1.1704    1.0000 </r>
       <r>   -1.1486    1.0000 </r>
       <r>   -1.1156    1.0000 </r>
       <r>   -1.0878    1.0000 </r>
       <r>   -1.0877    1.0000 </r>
       <r>   -1.0824    1.0000 </r>
       <r>   -1.0823    1.0000 </r>
       <r>   -1.0537    1.0000 </r>
       <r>   -1.0101    1.0000 </r>
       <r>   -0.9291    1.0000 </r>
       <r>   -0.9153    1.0000 </r>
       <r>   -0.9097    1.0000 </r>
       <r>   -0.9084    1.0000 </r>
       <r>   -0.9013    1.0000 </r>
       <r>   -0.8570    1.0000 </r>
       <r>   -0.8439    1.0000 </r>
       <r>   -0.8214    1.0000 </r>
       <r>   -0.7776    1.0000 </r>
       <r>   -0.7016    1.0000 </r>
       <r>   -0.6850    1.0000 </r>
       <r>   -0.6838    1.0000 </r>
       <r>   -0.6526    1.0000 </r>
       <r>   -0.5968    1.0000 </r>
       <r>   -0.5947    1.0000 </r>
       <r>   -0.5911    1.0000 </r>
       <r>   -0.5223    1.0000 </r>
       <r>   -0.5178    1.0000 </r>
       <r>   -0.5174    1.0000 </r>
       <r>   -0.5149    1.0000 </r>
       <r>   -0.5139    1.0000 </r>
       <r>   -0.4617    1.0000 </r>
       <r>   -0.4579    1.0000 </r>
       <r>   -0.4576    1.0000 </r>
       <r>   -0.4566    1.0000 </r>
       <r>   -0.4534    1.0000 </r>
       <r>   -0.4529    1.0000 </r>
       <r>   -0.4528    1.0000 </r>
       <r>   -0.4488    1.0000 </r>
       <r>   -0.4031    1.0000 </r>
       <r>   -0.3835    1.0000 </r>
       <r>   -0.3834    1.0000 </r>
       <r>   -0.3556    1.0000 </r>
       <r>   -0.3520    1.0000 </r>
       <r>   -0.3491    1.0000 </r>
       <r>   -0.3463    1.0000 </r>
       <r>   -0.3448    1.0000 </r>
       <r>   -0.3265    1.0000 </r>
       <r>   -0.3260    1.0000 </r>
       <r>   -0.3258    1.0000 </r>
       <r>   -0.3254    1.0000 </r>
       <r>   -0.2751    1.0000 </r>
       <r>   -0.2626    1.0000 </r>
       <r>   -0.2583    1.0000 </r>
       <r>   -0.2573    1.0000 </r>
       <r>   -0.2554    1.0000 </r>
       <r>   -0.2541    1.0000 </r>
       <r>   -0.2462    1.0000 </r>
       <r>   -0.2248    1.0000 </r>
       <r>   -0.2241    1.0000 </r>
       <r>   -0.2152    1.0000 </r>
       <r>   -0.2102    1.0000 </r>
       <r>   -0.1396    1.0000 </r>
       <r>   -0.1378    1.0000 </r>
       <r>   -0.0445    1.0000 </r>
       <r>   -0.0065    1.0000 </r>
       <r>    0.0008    1.0000 </r>
       <r>    0.0097    1.0000 </r>
       <r>    0.0115    1.0000 </r>
       <r>    0.0182    1.0000 </r>
       <r>    0.0184    1.0000 </r>
       <r>    0.0352    1.0000 </r>
       <r>    0.0352    1.0000 </r>
       <r>    0.0735    1.0000 </r>
       <r>    0.1805    1.0000 </r>
       <r>    0.2899    1.0000 </r>
       <r>    0.3178    1.0000 </r>
       <r>    0.3433    1.0000 </r>
       <r>    0.3456    1.0000 </r>
       <r>    0.3488    1.0000 </r>
       <r>    0.3509    1.0000 </r>
       <r>    0.3732    1.0000 </r>
       <r>    0.3967    1.0000 </r>
       <r>    0.4523    1.0000 </r>
       <r>    0.4766    1.0000 </r>
       <r>    0.4774    1.0000 </r>
       <r>    0.4888    1.0000 </r>
       <r>    0.5106    1.0000 </r>
       <r>    0.5567    1.0000 </r>
       <r>    0.5585    1.0000 </r>
       <r>    0.5712    1.0000 </r>
       <r>    0.5870    1.0000 </r>
       <r>    0.5891    1.0000 </r>
       <r>    0.5964    1.0000 </r>
       <r>    0.6204    1.0000 </r>
       <r>    0.6350    1.0000 </r>
       <r>    0.6566    1.0000 </r>
       <r>    0.6940    1.0000 </r>
       <r>    0.7034    1.0000 </r>
       <r>    0.7344    1.0000 </r>
       <r>    0.7359    1.0000 </r>
       <r>    0.8549    1.0000 </r>
       <r>    0.8560    1.0000 </r>
       <r>    0.8568    1.0000 </r>
       <r>    0.8623    1.0000 </r>
       <r>    0.8650    1.0000 </r>
       <r>    0.8664    1.0000 </r>
       <r>    0.8692    1.0000 </r>
       <r>    0.8745    1.0000 </r>
       <r>    0.8758    1.0000 </r>
       <r>    0.8775    1.0000 </r>
       <r>    0.8837    1.0000 </r>
       <r>    0.8861    1.0000 </r>
       <r>    0.8929    1.0000 </r>
       <r>    0.8993    1.0000 </r>
       <r>    0.9061    1.0000 </r>
       <r>    0.9082    1.0000 </r>
       <r>    0.9937    1.0000 </r>
       <r>    1.0028    1.0000 </r>
       <r>    1.0602    1.0000 </r>
       <r>    1.0656    1.0000 </r>
       <r>    1.0780    1.0000 </r>
       <r>    1.0785    1.0000 </r>
       <r>    1.0942    1.0000 </r>
       <r>    1.0943    1.0000 </r>
       <r>    1.1090    1.0000 </r>
       <r>    1.1094    1.0000 </r>
       <r>    1.1186    1.0000 </r>
       <r>    1.2579    1.0000 </r>
       <r>    1.2646    1.0000 </r>
       <r>    1.3109    1.0000 </r>
       <r>    1.4348    1.0000 </r>
       <r>    1.4535    1.0000 </r>
       <r>    1.4566    1.0000 </r>
       <r>    1.4701    1.0000 </r>
       <r>    1.5992    1.0000 </r>
       <r>    1.6021    1.0000 </r>
       <r>    1.6059    1.0000 </r>
       <r>    1.6078    1.0000 </r>
       <r>    1.6152    1.0000 </r>
       <r>    1.6250    1.0000 </r>
       <r>    1.6561    1.0000 </r>
       <r>    1.6681    1.0000 </r>
       <r>    1.7147    1.0000 </r>
       <r>    1.7160    1.0000 </r>
       <r>    1.7690    1.0000 </r>
       <r>    1.7733    1.0000 </r>
       <r>    1.8451    1.0000 </r>
       <r>    1.8516    1.0000 </r>
       <r>    1.8538    1.0000 </r>
       <r>    1.8626    1.0000 </r>
       <r>    1.8661    1.0000 </r>
       <r>    1.8707    1.0000 </r>
       <r>    1.8787    1.0000 </r>
       <r>    1.8790    1.0000 </r>
       <r>    1.9904    1.0000 </r>
       <r>    2.0038    1.0000 </r>
       <r>    2.1889    1.0000 </r>
       <r>    2.1897    1.0000 </r>
       <r>    2.1964    1.0000 </r>
       <r>    2.2001    1.0000 </r>
       <r>    2.2082    1.0000 </r>
       <r>    2.2114    1.0000 </r>
       <r>    2.3797    1.0000 </r>
       <r>    2.3814    1.0000 </r>
       <r>    2.3893    1.0000 </r>
       <r>    2.3895    1.0000 </r>
       <r>    5.5465    0.0000 </r>
       <r>    6.6590    0.0000 </r>
       <r>    6.6747    0.0000 </r>
       <r>    6.6830    0.0000 </r>
       <r>    6.7934    0.0000 </r>
       <r>    6.8863    0.0000 </r>
       <r>    6.9430    0.0000 </r>
       <r>    7.0073    0.0000 </r>
       <r>    7.0215    0.0000 </r>
       <r>    7.0451    0.0000 </r>
       <r>    7.0551    0.0000 </r>
       <r>    7.0780    0.0000 </r>
       <r>    7.0870    0.0000 </r>
       <r>    7.1077    0.0000 </r>
       <r>    7.1168    0.0000 </r>
       <r>    7.1463    0.0000 </r>
       <r>    7.1470    0.0000 </r>
       <r>    7.2561    0.0000 </r>
       <r>    7.2655    0.0000 </r>
       <r>    7.2657    0.0000 </r>
       <r>    7.2867    0.0000 </r>
       <r>    7.2869    0.0000 </r>
       <r>    7.4422    0.0000 </r>
       <r>    7.4580    0.0000 </r>
       <r>    7.4648    0.0000 </r>
       <r>    7.4814    0.0000 </r>
       <r>    7.4899    0.0000 </r>
       <r>    7.5692    0.0000 </r>
       <r>    7.5753    0.0000 </r>
       <r>    7.6360    0.0000 </r>
       <r>    7.6479    0.0000 </r>
       <r>    7.6612    0.0000 </r>
       <r>    7.6651    0.0000 </r>
       <r>    7.6659    0.0000 </r>
       <r>    7.6673    0.0000 </r>
       <r>    7.6834    0.0000 </r>
       <r>    7.7162    0.0000 </r>
       <r>    7.7326    0.0000 </r>
       <r>    7.7356    0.0000 </r>
       <r>    7.7948    0.0000 </r>
       <r>    7.8493    0.0000 </r>
       <r>    7.8824    0.0000 </r>
       <r>    7.9011    0.0000 </r>
       <r>    7.9709    0.0000 </r>
       <r>    7.9778    0.0000 </r>
       <r>    8.0060    0.0000 </r>
       <r>    8.0066    0.0000 </r>
       <r>    8.0972    0.0000 </r>
       <r>    8.0995    0.0000 </r>
       <r>    8.1135    0.0000 </r>
       <r>    8.2074    0.0000 </r>
       <r>    8.2300    0.0000 </r>
       <r>    8.2540    0.0000 </r>
       <r>    8.2874    0.0000 </r>
       <r>    8.3393    0.0000 </r>
       <r>    8.3415    0.0000 </r>
       <r>    8.3686    0.0000 </r>
       <r>    8.4747    0.0000 </r>
       <r>    8.4830    0.0000 </r>
       <r>    8.4915    0.0000 </r>
       <r>    8.4953    0.0000 </r>
       <r>    8.4977    0.0000 </r>
       <r>    8.5089    0.0000 </r>
       <r>    8.5106    0.0000 </r>
       <r>    8.5108    0.0000 </r>
       <r>    8.5336    0.0000 </r>
       <r>    8.5696    0.0000 </r>
       <r>    8.5996    0.0000 </r>
       <r>    8.6277    0.0000 </r>
       <r>    8.7874    0.0000 </r>
       <r>    8.8300    0.0000 </r>
       <r>    8.9014    0.0000 </r>
       <r>    8.9113    0.0000 </r>
       <r>    8.9304    0.0000 </r>
       <r>    9.0000    0.0000 </r>
       <r>    9.0087    0.0000 </r>
       <r>    9.0102    0.0000 </r>
       <r>    9.0196    0.0000 </r>
       <r>    9.0201    0.0000 </r>
       <r>    9.0245    0.0000 </r>
       <r>    9.0312    0.0000 </r>
       <r>    9.1314    0.0000 </r>
       <r>    9.1447    0.0000 </r>
       <r>    9.1635    0.0000 </r>
       <r>    9.1666    0.0000 </r>
       <r>    9.1844    0.0000 </r>
       <r>    9.2088    0.0000 </r>
       <r>    9.2091    0.0000 </r>
       <r>    9.2132    0.0000 </r>
       <r>    9.3693    0.0000 </r>
       <r>    9.4070    0.0000 </r>
       <r>    9.4134    0.0000 </r>
       <r>    9.4314    0.0000 </r>
       <r>    9.4448    0.0000 </r>
       <r>    9.4494    0.0000 </r>
       <r>    9.5850    0.0000 </r>
       <r>    9.6016    0.0000 </r>
       <r>    9.6034    0.0000 </r>
       <r>    9.6068    0.0000 </r>
       <r>    9.6079    0.0000 </r>
       <r>    9.6393    0.0000 </r>
       <r>    9.6650    0.0000 </r>
       <r>    9.7113    0.0000 </r>
       <r>    9.7129    0.0000 </r>
       <r>    9.7144    0.0000 </r>
       <r>    9.7299    0.0000 </r>
       <r>    9.7693    0.0000 </r>
       <r>    9.7869    0.0000 </r>
       <r>    9.8353    0.0000 </r>
       <r>    9.8358    0.0000 </r>
       <r>    9.9240    0.0000 </r>
       <r>    9.9265    0.0000 </r>
       <r>    9.9643    0.0000 </r>
       <r>    9.9709    0.0000 </r>
       <r>    9.9740    0.0000 </r>
       <r>   10.0347    0.0000 </r>
       <r>   10.0725    0.0000 </r>
       <r>   10.1154    0.0000 </r>
       <r>   10.1335    0.0000 </r>
       <r>   10.3108    0.0000 </r>
       <r>   10.3469    0.0000 </r>
       <r>   10.4285    0.0000 </r>
       <r>   10.4287    0.0000 </r>
       <r>   10.5259    0.0000 </r>
       <r>   10.5267    0.0000 </r>
       <r>   10.5500    0.0000 </r>
       <r>   10.5549    0.0000 </r>
       <r>   10.8975    0.0000 </r>
       <r>   11.0001    0.0000 </r>
       <r>   11.2072    0.0000 </r>
       <r>   11.2111    0.0000 </r>
       <r>   11.2909    0.0000 </r>
       <r>   11.4113    0.0000 </r>
       <r>   11.4168    0.0000 </r>
       <r>   11.4359    0.0000 </r>
       <r>   11.4415    0.0000 </r>
       <r>   11.5064    0.0000 </r>
       <r>   11.5363    0.0000 </r>
       <r>   11.5542    0.0000 </r>
       <r>   11.5847    0.0000 </r>
       <r>   11.5932    0.0000 </r>
       <r>   11.5971    0.0000 </r>
       <r>   11.6108    0.0000 </r>
       <r>   11.6249    0.0000 </r>
       <r>   11.6642    0.0000 </r>
       <r>   11.7313    0.0000 </r>
       <r>   11.8116    0.0000 </r>
       <r>   11.8824    0.0000 </r>
       <r>   11.9138    0.0000 </r>
       <r>   11.9490    0.0000 </r>
       <r>   11.9767    0.0000 </r>
       <r>   12.0019    0.0000 </r>
      </set>
      <set comment="kpoint 7">
       <r>  -17.1660    1.0000 </r>
       <r>  -15.7430    1.0000 </r>
       <r>  -15.6886    1.0000 </r>
       <r>  -15.4121    1.0000 </r>
       <r>  -15.2834    1.0000 </r>
       <r>  -15.2748    1.0000 </r>
       <r>  -15.2420    1.0000 </r>
       <r>  -15.2043    1.0000 </r>
       <r>  -15.1417    1.0000 </r>
       <r>  -15.0835    1.0000 </r>
       <r>  -15.0469    1.0000 </r>
       <r>  -15.0339    1.0000 </r>
       <r>  -15.0150    1.0000 </r>
       <r>  -14.9844    1.0000 </r>
       <r>  -14.9838    1.0000 </r>
       <r>  -14.9062    1.0000 </r>
       <r>  -14.8988    1.0000 </r>
       <r>  -14.8523    1.0000 </r>
       <r>  -14.7581    1.0000 </r>
       <r>  -14.7572    1.0000 </r>
       <r>  -14.6145    1.0000 </r>
       <r>  -14.5662    1.0000 </r>
       <r>  -14.5389    1.0000 </r>
       <r>  -14.4662    1.0000 </r>
       <r>  -14.4630    1.0000 </r>
       <r>  -14.4597    1.0000 </r>
       <r>  -14.4585    1.0000 </r>
       <r>  -14.4217    1.0000 </r>
       <r>  -14.4023    1.0000 </r>
       <r>  -14.3958    1.0000 </r>
       <r>  -14.3846    1.0000 </r>
       <r>  -14.3350    1.0000 </r>
       <r>  -14.2471    1.0000 </r>
       <r>  -14.2456    1.0000 </r>
       <r>  -14.2434    1.0000 </r>
       <r>  -14.2427    1.0000 </r>
       <r>  -14.2073    1.0000 </r>
       <r>  -14.2066    1.0000 </r>
       <r>  -14.1682    1.0000 </r>
       <r>  -14.1493    1.0000 </r>
       <r>  -14.1060    1.0000 </r>
       <r>  -14.0338    1.0000 </r>
       <r>  -13.9976    1.0000 </r>
       <r>  -13.9973    1.0000 </r>
       <r>  -13.9392    1.0000 </r>
       <r>  -13.7793    1.0000 </r>
       <r>  -13.7415    1.0000 </r>
       <r>  -13.7400    1.0000 </r>
       <r>  -13.7117    1.0000 </r>
       <r>  -13.7114    1.0000 </r>
       <r>  -13.7021    1.0000 </r>
       <r>  -13.6803    1.0000 </r>
       <r>  -13.6572    1.0000 </r>
       <r>  -13.6551    1.0000 </r>
       <r>  -13.5965    1.0000 </r>
       <r>  -13.5329    1.0000 </r>
       <r>  -13.5325    1.0000 </r>
       <r>  -13.5185    1.0000 </r>
       <r>  -13.5184    1.0000 </r>
       <r>  -13.5019    1.0000 </r>
       <r>  -13.3579    1.0000 </r>
       <r>  -13.3332    1.0000 </r>
       <r>  -13.2537    1.0000 </r>
       <r>  -13.2219    1.0000 </r>
       <r>  -13.1077    1.0000 </r>
       <r>  -13.0682    1.0000 </r>
       <r>  -13.0641    1.0000 </r>
       <r>  -13.0617    1.0000 </r>
       <r>  -13.0604    1.0000 </r>
       <r>  -13.0327    1.0000 </r>
       <r>  -13.0262    1.0000 </r>
       <r>  -13.0228    1.0000 </r>
       <r>  -13.0163    1.0000 </r>
       <r>  -12.9709    1.0000 </r>
       <r>  -12.9229    1.0000 </r>
       <r>  -12.8938    1.0000 </r>
       <r>  -12.8918    1.0000 </r>
       <r>  -12.8889    1.0000 </r>
       <r>  -12.8887    1.0000 </r>
       <r>  -12.8786    1.0000 </r>
       <r>  -12.8779    1.0000 </r>
       <r>  -12.8770    1.0000 </r>
       <r>  -12.8769    1.0000 </r>
       <r>  -12.8657    1.0000 </r>
       <r>  -12.8598    1.0000 </r>
       <r>  -12.8560    1.0000 </r>
       <r>  -12.8506    1.0000 </r>
       <r>  -12.8499    1.0000 </r>
       <r>  -12.7154    1.0000 </r>
       <r>  -12.7152    1.0000 </r>
       <r>  -12.7146    1.0000 </r>
       <r>  -12.7145    1.0000 </r>
       <r>  -12.6816    1.0000 </r>
       <r>  -12.6086    1.0000 </r>
       <r>  -12.5983    1.0000 </r>
       <r>  -12.5764    1.0000 </r>
       <r>  -12.5729    1.0000 </r>
       <r>  -12.5513    1.0000 </r>
       <r>  -12.5328    1.0000 </r>
       <r>  -12.4981    1.0000 </r>
       <r>  -12.4352    1.0000 </r>
       <r>  -12.4292    1.0000 </r>
       <r>  -12.4228    1.0000 </r>
       <r>  -12.4215    1.0000 </r>
       <r>  -12.3418    1.0000 </r>
       <r>  -12.3383    1.0000 </r>
       <r>  -12.3213    1.0000 </r>
       <r>  -12.3170    1.0000 </r>
       <r>  -12.2463    1.0000 </r>
       <r>  -12.2448    1.0000 </r>
       <r>  -12.2367    1.0000 </r>
       <r>  -12.2323    1.0000 </r>
       <r>  -12.2190    1.0000 </r>
       <r>  -12.2180    1.0000 </r>
       <r>  -12.2081    1.0000 </r>
       <r>  -12.2052    1.0000 </r>
       <r>  -12.1764    1.0000 </r>
       <r>  -12.1763    1.0000 </r>
       <r>  -12.1736    1.0000 </r>
       <r>  -12.1662    1.0000 </r>
       <r>  -12.0958    1.0000 </r>
       <r>  -12.0957    1.0000 </r>
       <r>  -12.0889    1.0000 </r>
       <r>  -12.0872    1.0000 </r>
       <r>  -12.0871    1.0000 </r>
       <r>  -12.0826    1.0000 </r>
       <r>  -11.9509    1.0000 </r>
       <r>  -11.9478    1.0000 </r>
       <r>  -11.9464    1.0000 </r>
       <r>  -11.9433    1.0000 </r>
       <r>  -11.8160    1.0000 </r>
       <r>  -11.8153    1.0000 </r>
       <r>  -11.8078    1.0000 </r>
       <r>  -11.8073    1.0000 </r>
       <r>  -11.8041    1.0000 </r>
       <r>  -11.8035    1.0000 </r>
       <r>  -11.7850    1.0000 </r>
       <r>  -11.7848    1.0000 </r>
       <r>  -11.7795    1.0000 </r>
       <r>  -11.7792    1.0000 </r>
       <r>  -11.6684    1.0000 </r>
       <r>  -11.6684    1.0000 </r>
       <r>  -11.6613    1.0000 </r>
       <r>  -11.6613    1.0000 </r>
       <r>   -8.1623    1.0000 </r>
       <r>   -7.2498    1.0000 </r>
       <r>   -7.2352    1.0000 </r>
       <r>   -6.7831    1.0000 </r>
       <r>   -6.6995    1.0000 </r>
       <r>   -6.6787    1.0000 </r>
       <r>   -6.4266    1.0000 </r>
       <r>   -6.4014    1.0000 </r>
       <r>   -6.3172    1.0000 </r>
       <r>   -6.3087    1.0000 </r>
       <r>   -6.3057    1.0000 </r>
       <r>   -6.3037    1.0000 </r>
       <r>   -6.2979    1.0000 </r>
       <r>   -6.2835    1.0000 </r>
       <r>   -6.2754    1.0000 </r>
       <r>   -6.2746    1.0000 </r>
       <r>   -6.2685    1.0000 </r>
       <r>   -6.2683    1.0000 </r>
       <r>   -6.2156    1.0000 </r>
       <r>   -6.2130    1.0000 </r>
       <r>   -6.2109    1.0000 </r>
       <r>   -6.2071    1.0000 </r>
       <r>   -6.1950    1.0000 </r>
       <r>   -6.1919    1.0000 </r>
       <r>   -6.1589    1.0000 </r>
       <r>   -6.1587    1.0000 </r>
       <r>   -6.1492    1.0000 </r>
       <r>   -6.1491    1.0000 </r>
       <r>   -6.0726    1.0000 </r>
       <r>   -6.0712    1.0000 </r>
       <r>   -5.9351    1.0000 </r>
       <r>   -5.9277    1.0000 </r>
       <r>   -5.9108    1.0000 </r>
       <r>   -5.9033    1.0000 </r>
       <r>   -5.8367    1.0000 </r>
       <r>   -5.7895    1.0000 </r>
       <r>   -5.7819    1.0000 </r>
       <r>   -5.7693    1.0000 </r>
       <r>   -5.7685    1.0000 </r>
       <r>   -5.7655    1.0000 </r>
       <r>   -5.7614    1.0000 </r>
       <r>   -5.7588    1.0000 </r>
       <r>   -5.7585    1.0000 </r>
       <r>   -5.7581    1.0000 </r>
       <r>   -5.7560    1.0000 </r>
       <r>   -5.7504    1.0000 </r>
       <r>   -5.7348    1.0000 </r>
       <r>   -5.6802    1.0000 </r>
       <r>   -5.6516    1.0000 </r>
       <r>   -5.6390    1.0000 </r>
       <r>   -5.6232    1.0000 </r>
       <r>   -5.6231    1.0000 </r>
       <r>   -5.6200    1.0000 </r>
       <r>   -5.6199    1.0000 </r>
       <r>   -5.2292    1.0000 </r>
       <r>   -5.2268    1.0000 </r>
       <r>   -5.2244    1.0000 </r>
       <r>   -5.2241    1.0000 </r>
       <r>   -5.2236    1.0000 </r>
       <r>   -5.2196    1.0000 </r>
       <r>   -5.2190    1.0000 </r>
       <r>   -5.2190    1.0000 </r>
       <r>   -5.2179    1.0000 </r>
       <r>   -5.2173    1.0000 </r>
       <r>   -5.2171    1.0000 </r>
       <r>   -5.2166    1.0000 </r>
       <r>   -5.1064    1.0000 </r>
       <r>   -5.0950    1.0000 </r>
       <r>   -5.0908    1.0000 </r>
       <r>   -5.0907    1.0000 </r>
       <r>   -5.0879    1.0000 </r>
       <r>   -5.0879    1.0000 </r>
       <r>   -5.0875    1.0000 </r>
       <r>   -5.0875    1.0000 </r>
       <r>   -5.0084    1.0000 </r>
       <r>   -4.9190    1.0000 </r>
       <r>   -4.8269    1.0000 </r>
       <r>   -4.5974    1.0000 </r>
       <r>   -4.5429    1.0000 </r>
       <r>   -4.5346    1.0000 </r>
       <r>   -4.4752    1.0000 </r>
       <r>   -4.4725    1.0000 </r>
       <r>   -4.4718    1.0000 </r>
       <r>   -4.4709    1.0000 </r>
       <r>   -4.4705    1.0000 </r>
       <r>   -4.4693    1.0000 </r>
       <r>   -4.4679    1.0000 </r>
       <r>   -4.4677    1.0000 </r>
       <r>   -4.3414    1.0000 </r>
       <r>   -4.3411    1.0000 </r>
       <r>   -4.3408    1.0000 </r>
       <r>   -4.3407    1.0000 </r>
       <r>   -4.3119    1.0000 </r>
       <r>   -4.1905    1.0000 </r>
       <r>   -4.0919    1.0000 </r>
       <r>   -4.0876    1.0000 </r>
       <r>   -4.0874    1.0000 </r>
       <r>   -4.0841    1.0000 </r>
       <r>   -4.0828    1.0000 </r>
       <r>   -4.0746    1.0000 </r>
       <r>   -4.0745    1.0000 </r>
       <r>   -4.0712    1.0000 </r>
       <r>   -4.0701    1.0000 </r>
       <r>   -4.0356    1.0000 </r>
       <r>   -4.0246    1.0000 </r>
       <r>   -3.9501    1.0000 </r>
       <r>   -3.9501    1.0000 </r>
       <r>   -3.9467    1.0000 </r>
       <r>   -3.9466    1.0000 </r>
       <r>   -3.9074    1.0000 </r>
       <r>   -3.8631    1.0000 </r>
       <r>   -3.7743    1.0000 </r>
       <r>   -3.6225    1.0000 </r>
       <r>   -3.6201    1.0000 </r>
       <r>   -3.6153    1.0000 </r>
       <r>   -3.6139    1.0000 </r>
       <r>   -3.6045    1.0000 </r>
       <r>   -3.6034    1.0000 </r>
       <r>   -3.5981    1.0000 </r>
       <r>   -3.5976    1.0000 </r>
       <r>   -3.5945    1.0000 </r>
       <r>   -3.4796    1.0000 </r>
       <r>   -3.4796    1.0000 </r>
       <r>   -3.4741    1.0000 </r>
       <r>   -3.4741    1.0000 </r>
       <r>   -3.4688    1.0000 </r>
       <r>   -3.4680    1.0000 </r>
       <r>   -3.4674    1.0000 </r>
       <r>   -3.4655    1.0000 </r>
       <r>   -3.4650    1.0000 </r>
       <r>   -3.3893    1.0000 </r>
       <r>   -3.3574    1.0000 </r>
       <r>   -3.3421    1.0000 </r>
       <r>   -3.3384    1.0000 </r>
       <r>   -3.3383    1.0000 </r>
       <r>   -3.3144    1.0000 </r>
       <r>   -3.3068    1.0000 </r>
       <r>   -3.1464    1.0000 </r>
       <r>   -3.0895    1.0000 </r>
       <r>   -3.0773    1.0000 </r>
       <r>   -3.0727    1.0000 </r>
       <r>   -3.0722    1.0000 </r>
       <r>   -3.0659    1.0000 </r>
       <r>   -3.0029    1.0000 </r>
       <r>   -2.9990    1.0000 </r>
       <r>   -2.9864    1.0000 </r>
       <r>   -2.9384    1.0000 </r>
       <r>   -2.9376    1.0000 </r>
       <r>   -2.8454    1.0000 </r>
       <r>   -2.7637    1.0000 </r>
       <r>   -2.7602    1.0000 </r>
       <r>   -2.7515    1.0000 </r>
       <r>   -2.7277    1.0000 </r>
       <r>   -2.7234    1.0000 </r>
       <r>   -2.6736    1.0000 </r>
       <r>   -2.6722    1.0000 </r>
       <r>   -2.6688    1.0000 </r>
       <r>   -2.6496    1.0000 </r>
       <r>   -2.6131    1.0000 </r>
       <r>   -2.5455    1.0000 </r>
       <r>   -2.5451    1.0000 </r>
       <r>   -2.5424    1.0000 </r>
       <r>   -2.5146    1.0000 </r>
       <r>   -2.4622    1.0000 </r>
       <r>   -2.3922    1.0000 </r>
       <r>   -2.3861    1.0000 </r>
       <r>   -2.3771    1.0000 </r>
       <r>   -2.3748    1.0000 </r>
       <r>   -2.3729    1.0000 </r>
       <r>   -2.3718    1.0000 </r>
       <r>   -2.3716    1.0000 </r>
       <r>   -2.3704    1.0000 </r>
       <r>   -2.3689    1.0000 </r>
       <r>   -2.3678    1.0000 </r>
       <r>   -2.3654    1.0000 </r>
       <r>   -2.3422    1.0000 </r>
       <r>   -2.2704    1.0000 </r>
       <r>   -2.2625    1.0000 </r>
       <r>   -2.2566    1.0000 </r>
       <r>   -2.2410    1.0000 </r>
       <r>   -2.2407    1.0000 </r>
       <r>   -2.2404    1.0000 </r>
       <r>   -2.2402    1.0000 </r>
       <r>   -2.2358    1.0000 </r>
       <r>   -2.2067    1.0000 </r>
       <r>   -2.1936    1.0000 </r>
       <r>   -2.1932    1.0000 </r>
       <r>   -2.1630    1.0000 </r>
       <r>   -2.1501    1.0000 </r>
       <r>   -2.1432    1.0000 </r>
       <r>   -2.1237    1.0000 </r>
       <r>   -2.0976    1.0000 </r>
       <r>   -2.0911    1.0000 </r>
       <r>   -2.0908    1.0000 </r>
       <r>   -2.0855    1.0000 </r>
       <r>   -2.0853    1.0000 </r>
       <r>   -2.0576    1.0000 </r>
       <r>   -2.0572    1.0000 </r>
       <r>   -2.0509    1.0000 </r>
       <r>   -2.0507    1.0000 </r>
       <r>   -2.0079    1.0000 </r>
       <r>   -1.9629    1.0000 </r>
       <r>   -1.9430    1.0000 </r>
       <r>   -1.9430    1.0000 </r>
       <r>   -1.9331    1.0000 </r>
       <r>   -1.9331    1.0000 </r>
       <r>   -1.9309    1.0000 </r>
       <r>   -1.9063    1.0000 </r>
       <r>   -1.9051    1.0000 </r>
       <r>   -1.8975    1.0000 </r>
       <r>   -1.8956    1.0000 </r>
       <r>   -1.8629    1.0000 </r>
       <r>   -1.8603    1.0000 </r>
       <r>   -1.8597    1.0000 </r>
       <r>   -1.8590    1.0000 </r>
       <r>   -1.8582    1.0000 </r>
       <r>   -1.8576    1.0000 </r>
       <r>   -1.8564    1.0000 </r>
       <r>   -1.8550    1.0000 </r>
       <r>   -1.8518    1.0000 </r>
       <r>   -1.7786    1.0000 </r>
       <r>   -1.7784    1.0000 </r>
       <r>   -1.7776    1.0000 </r>
       <r>   -1.7775    1.0000 </r>
       <r>   -1.7742    1.0000 </r>
       <r>   -1.7738    1.0000 </r>
       <r>   -1.7726    1.0000 </r>
       <r>   -1.7726    1.0000 </r>
       <r>   -1.7443    1.0000 </r>
       <r>   -1.7430    1.0000 </r>
       <r>   -1.7411    1.0000 </r>
       <r>   -1.7404    1.0000 </r>
       <r>   -1.7112    1.0000 </r>
       <r>   -1.7052    1.0000 </r>
       <r>   -1.6626    1.0000 </r>
       <r>   -1.6452    1.0000 </r>
       <r>   -1.6451    1.0000 </r>
       <r>   -1.6449    1.0000 </r>
       <r>   -1.6448    1.0000 </r>
       <r>   -1.6229    1.0000 </r>
       <r>   -1.6090    1.0000 </r>
       <r>   -1.6079    1.0000 </r>
       <r>   -1.5850    1.0000 </r>
       <r>   -1.5837    1.0000 </r>
       <r>   -1.5794    1.0000 </r>
       <r>   -1.5571    1.0000 </r>
       <r>   -1.5550    1.0000 </r>
       <r>   -1.5499    1.0000 </r>
       <r>   -1.4511    1.0000 </r>
       <r>   -1.4440    1.0000 </r>
       <r>   -1.4410    1.0000 </r>
       <r>   -1.4316    1.0000 </r>
       <r>   -1.2550    1.0000 </r>
       <r>   -1.2522    1.0000 </r>
       <r>   -1.2351    1.0000 </r>
       <r>   -1.2349    1.0000 </r>
       <r>   -1.2263    1.0000 </r>
       <r>   -1.2239    1.0000 </r>
       <r>   -1.2206    1.0000 </r>
       <r>   -1.2067    1.0000 </r>
       <r>   -1.2064    1.0000 </r>
       <r>   -1.2061    1.0000 </r>
       <r>   -1.2059    1.0000 </r>
       <r>   -1.1913    1.0000 </r>
       <r>   -1.1880    1.0000 </r>
       <r>   -1.1830    1.0000 </r>
       <r>   -1.1712    1.0000 </r>
       <r>   -1.1487    1.0000 </r>
       <r>   -1.1159    1.0000 </r>
       <r>   -1.0878    1.0000 </r>
       <r>   -1.0876    1.0000 </r>
       <r>   -1.0825    1.0000 </r>
       <r>   -1.0823    1.0000 </r>
       <r>   -1.0538    1.0000 </r>
       <r>   -1.0092    1.0000 </r>
       <r>   -0.9286    1.0000 </r>
       <r>   -0.9153    1.0000 </r>
       <r>   -0.9098    1.0000 </r>
       <r>   -0.9084    1.0000 </r>
       <r>   -0.9005    1.0000 </r>
       <r>   -0.8551    1.0000 </r>
       <r>   -0.8438    1.0000 </r>
       <r>   -0.8217    1.0000 </r>
       <r>   -0.7759    1.0000 </r>
       <r>   -0.7082    1.0000 </r>
       <r>   -0.6867    1.0000 </r>
       <r>   -0.6840    1.0000 </r>
       <r>   -0.6523    1.0000 </r>
       <r>   -0.5968    1.0000 </r>
       <r>   -0.5947    1.0000 </r>
       <r>   -0.5912    1.0000 </r>
       <r>   -0.5227    1.0000 </r>
       <r>   -0.5179    1.0000 </r>
       <r>   -0.5174    1.0000 </r>
       <r>   -0.5149    1.0000 </r>
       <r>   -0.5139    1.0000 </r>
       <r>   -0.4616    1.0000 </r>
       <r>   -0.4578    1.0000 </r>
       <r>   -0.4575    1.0000 </r>
       <r>   -0.4566    1.0000 </r>
       <r>   -0.4533    1.0000 </r>
       <r>   -0.4528    1.0000 </r>
       <r>   -0.4528    1.0000 </r>
       <r>   -0.4487    1.0000 </r>
       <r>   -0.4030    1.0000 </r>
       <r>   -0.3835    1.0000 </r>
       <r>   -0.3834    1.0000 </r>
       <r>   -0.3547    1.0000 </r>
       <r>   -0.3520    1.0000 </r>
       <r>   -0.3492    1.0000 </r>
       <r>   -0.3463    1.0000 </r>
       <r>   -0.3445    1.0000 </r>
       <r>   -0.3265    1.0000 </r>
       <r>   -0.3260    1.0000 </r>
       <r>   -0.3258    1.0000 </r>
       <r>   -0.3254    1.0000 </r>
       <r>   -0.2756    1.0000 </r>
       <r>   -0.2626    1.0000 </r>
       <r>   -0.2582    1.0000 </r>
       <r>   -0.2564    1.0000 </r>
       <r>   -0.2554    1.0000 </r>
       <r>   -0.2541    1.0000 </r>
       <r>   -0.2460    1.0000 </r>
       <r>   -0.2248    1.0000 </r>
       <r>   -0.2241    1.0000 </r>
       <r>   -0.2155    1.0000 </r>
       <r>   -0.2089    1.0000 </r>
       <r>   -0.1415    1.0000 </r>
       <r>   -0.1386    1.0000 </r>
       <r>   -0.0450    1.0000 </r>
       <r>   -0.0063    1.0000 </r>
       <r>    0.0011    1.0000 </r>
       <r>    0.0098    1.0000 </r>
       <r>    0.0115    1.0000 </r>
       <r>    0.0181    1.0000 </r>
       <r>    0.0184    1.0000 </r>
       <r>    0.0349    1.0000 </r>
       <r>    0.0350    1.0000 </r>
       <r>    0.0744    1.0000 </r>
       <r>    0.1872    1.0000 </r>
       <r>    0.2884    1.0000 </r>
       <r>    0.3191    1.0000 </r>
       <r>    0.3433    1.0000 </r>
       <r>    0.3455    1.0000 </r>
       <r>    0.3488    1.0000 </r>
       <r>    0.3509    1.0000 </r>
       <r>    0.3746    1.0000 </r>
       <r>    0.3971    1.0000 </r>
       <r>    0.4529    1.0000 </r>
       <r>    0.4766    1.0000 </r>
       <r>    0.4773    1.0000 </r>
       <r>    0.4889    1.0000 </r>
       <r>    0.5105    1.0000 </r>
       <r>    0.5570    1.0000 </r>
       <r>    0.5588    1.0000 </r>
       <r>    0.5664    1.0000 </r>
       <r>    0.5867    1.0000 </r>
       <r>    0.5889    1.0000 </r>
       <r>    0.5967    1.0000 </r>
       <r>    0.6203    1.0000 </r>
       <r>    0.6358    1.0000 </r>
       <r>    0.6562    1.0000 </r>
       <r>    0.6941    1.0000 </r>
       <r>    0.7033    1.0000 </r>
       <r>    0.7340    1.0000 </r>
       <r>    0.7363    1.0000 </r>
       <r>    0.8552    1.0000 </r>
       <r>    0.8560    1.0000 </r>
       <r>    0.8570    1.0000 </r>
       <r>    0.8623    1.0000 </r>
       <r>    0.8649    1.0000 </r>
       <r>    0.8664    1.0000 </r>
       <r>    0.8682    1.0000 </r>
       <r>    0.8745    1.0000 </r>
       <r>    0.8758    1.0000 </r>
       <r>    0.8776    1.0000 </r>
       <r>    0.8835    1.0000 </r>
       <r>    0.8859    1.0000 </r>
       <r>    0.8938    1.0000 </r>
       <r>    0.8985    1.0000 </r>
       <r>    0.9059    1.0000 </r>
       <r>    0.9091    1.0000 </r>
       <r>    0.9937    1.0000 </r>
       <r>    1.0028    1.0000 </r>
       <r>    1.0602    1.0000 </r>
       <r>    1.0656    1.0000 </r>
       <r>    1.0780    1.0000 </r>
       <r>    1.0785    1.0000 </r>
       <r>    1.0944    1.0000 </r>
       <r>    1.0945    1.0000 </r>
       <r>    1.1088    1.0000 </r>
       <r>    1.1092    1.0000 </r>
       <r>    1.1181    1.0000 </r>
       <r>    1.2572    1.0000 </r>
       <r>    1.2633    1.0000 </r>
       <r>    1.3109    1.0000 </r>
       <r>    1.4349    1.0000 </r>
       <r>    1.4538    1.0000 </r>
       <r>    1.4565    1.0000 </r>
       <r>    1.4709    1.0000 </r>
       <r>    1.6000    1.0000 </r>
       <r>    1.6021    1.0000 </r>
       <r>    1.6058    1.0000 </r>
       <r>    1.6068    1.0000 </r>
       <r>    1.6161    1.0000 </r>
       <r>    1.6260    1.0000 </r>
       <r>    1.6571    1.0000 </r>
       <r>    1.6680    1.0000 </r>
       <r>    1.7136    1.0000 </r>
       <r>    1.7149    1.0000 </r>
       <r>    1.7691    1.0000 </r>
       <r>    1.7734    1.0000 </r>
       <r>    1.8452    1.0000 </r>
       <r>    1.8516    1.0000 </r>
       <r>    1.8539    1.0000 </r>
       <r>    1.8627    1.0000 </r>
       <r>    1.8660    1.0000 </r>
       <r>    1.8708    1.0000 </r>
       <r>    1.8785    1.0000 </r>
       <r>    1.8789    1.0000 </r>
       <r>    1.9904    1.0000 </r>
       <r>    2.0036    1.0000 </r>
       <r>    2.1889    1.0000 </r>
       <r>    2.1906    1.0000 </r>
       <r>    2.1964    1.0000 </r>
       <r>    2.2001    1.0000 </r>
       <r>    2.2080    1.0000 </r>
       <r>    2.2110    1.0000 </r>
       <r>    2.3798    1.0000 </r>
       <r>    2.3814    1.0000 </r>
       <r>    2.3893    1.0000 </r>
       <r>    2.3895    1.0000 </r>
       <r>    5.5465    0.0000 </r>
       <r>    6.6591    0.0000 </r>
       <r>    6.6755    0.0000 </r>
       <r>    6.6833    0.0000 </r>
       <r>    6.7934    0.0000 </r>
       <r>    6.8858    0.0000 </r>
       <r>    6.9412    0.0000 </r>
       <r>    7.0091    0.0000 </r>
       <r>    7.0222    0.0000 </r>
       <r>    7.0451    0.0000 </r>
       <r>    7.0550    0.0000 </r>
       <r>    7.0762    0.0000 </r>
       <r>    7.0868    0.0000 </r>
       <r>    7.1079    0.0000 </r>
       <r>    7.1170    0.0000 </r>
       <r>    7.1461    0.0000 </r>
       <r>    7.1468    0.0000 </r>
       <r>    7.2568    0.0000 </r>
       <r>    7.2657    0.0000 </r>
       <r>    7.2659    0.0000 </r>
       <r>    7.2865    0.0000 </r>
       <r>    7.2868    0.0000 </r>
       <r>    7.4419    0.0000 </r>
       <r>    7.4578    0.0000 </r>
       <r>    7.4659    0.0000 </r>
       <r>    7.4812    0.0000 </r>
       <r>    7.4893    0.0000 </r>
       <r>    7.5706    0.0000 </r>
       <r>    7.5754    0.0000 </r>
       <r>    7.6365    0.0000 </r>
       <r>    7.6480    0.0000 </r>
       <r>    7.6612    0.0000 </r>
       <r>    7.6651    0.0000 </r>
       <r>    7.6659    0.0000 </r>
       <r>    7.6672    0.0000 </r>
       <r>    7.6833    0.0000 </r>
       <r>    7.7171    0.0000 </r>
       <r>    7.7327    0.0000 </r>
       <r>    7.7356    0.0000 </r>
       <r>    7.7952    0.0000 </r>
       <r>    7.8469    0.0000 </r>
       <r>    7.8814    0.0000 </r>
       <r>    7.8995    0.0000 </r>
       <r>    7.9712    0.0000 </r>
       <r>    7.9780    0.0000 </r>
       <r>    8.0059    0.0000 </r>
       <r>    8.0064    0.0000 </r>
       <r>    8.0971    0.0000 </r>
       <r>    8.0995    0.0000 </r>
       <r>    8.1131    0.0000 </r>
       <r>    8.2081    0.0000 </r>
       <r>    8.2297    0.0000 </r>
       <r>    8.2534    0.0000 </r>
       <r>    8.2891    0.0000 </r>
       <r>    8.3390    0.0000 </r>
       <r>    8.3413    0.0000 </r>
       <r>    8.3683    0.0000 </r>
       <r>    8.4744    0.0000 </r>
       <r>    8.4830    0.0000 </r>
       <r>    8.4913    0.0000 </r>
       <r>    8.4951    0.0000 </r>
       <r>    8.4977    0.0000 </r>
       <r>    8.5091    0.0000 </r>
       <r>    8.5106    0.0000 </r>
       <r>    8.5108    0.0000 </r>
       <r>    8.5335    0.0000 </r>
       <r>    8.5698    0.0000 </r>
       <r>    8.6006    0.0000 </r>
       <r>    8.6274    0.0000 </r>
       <r>    8.7872    0.0000 </r>
       <r>    8.8300    0.0000 </r>
       <r>    8.9032    0.0000 </r>
       <r>    8.9110    0.0000 </r>
       <r>    8.9301    0.0000 </r>
       <r>    8.9997    0.0000 </r>
       <r>    9.0081    0.0000 </r>
       <r>    9.0121    0.0000 </r>
       <r>    9.0197    0.0000 </r>
       <r>    9.0206    0.0000 </r>
       <r>    9.0244    0.0000 </r>
       <r>    9.0312    0.0000 </r>
       <r>    9.1313    0.0000 </r>
       <r>    9.1447    0.0000 </r>
       <r>    9.1635    0.0000 </r>
       <r>    9.1666    0.0000 </r>
       <r>    9.1845    0.0000 </r>
       <r>    9.2089    0.0000 </r>
       <r>    9.2091    0.0000 </r>
       <r>    9.2132    0.0000 </r>
       <r>    9.3690    0.0000 </r>
       <r>    9.4070    0.0000 </r>
       <r>    9.4130    0.0000 </r>
       <r>    9.4321    0.0000 </r>
       <r>    9.4448    0.0000 </r>
       <r>    9.4493    0.0000 </r>
       <r>    9.5848    0.0000 </r>
       <r>    9.6016    0.0000 </r>
       <r>    9.6034    0.0000 </r>
       <r>    9.6068    0.0000 </r>
       <r>    9.6079    0.0000 </r>
       <r>    9.6388    0.0000 </r>
       <r>    9.6655    0.0000 </r>
       <r>    9.7116    0.0000 </r>
       <r>    9.7127    0.0000 </r>
       <r>    9.7142    0.0000 </r>
       <r>    9.7299    0.0000 </r>
       <r>    9.7694    0.0000 </r>
       <r>    9.7871    0.0000 </r>
       <r>    9.8361    0.0000 </r>
       <r>    9.8365    0.0000 </r>
       <r>    9.9242    0.0000 </r>
       <r>    9.9268    0.0000 </r>
       <r>    9.9639    0.0000 </r>
       <r>    9.9696    0.0000 </r>
       <r>    9.9731    0.0000 </r>
       <r>   10.0348    0.0000 </r>
       <r>   10.0722    0.0000 </r>
       <r>   10.1149    0.0000 </r>
       <r>   10.1334    0.0000 </r>
       <r>   10.3110    0.0000 </r>
       <r>   10.3471    0.0000 </r>
       <r>   10.4275    0.0000 </r>
       <r>   10.4281    0.0000 </r>
       <r>   10.5261    0.0000 </r>
       <r>   10.5265    0.0000 </r>
       <r>   10.5499    0.0000 </r>
       <r>   10.5543    0.0000 </r>
       <r>   10.8978    0.0000 </r>
       <r>   10.9992    0.0000 </r>
       <r>   11.2079    0.0000 </r>
       <r>   11.2115    0.0000 </r>
       <r>   11.2941    0.0000 </r>
       <r>   11.4155    0.0000 </r>
       <r>   11.4215    0.0000 </r>
       <r>   11.4357    0.0000 </r>
       <r>   11.4704    0.0000 </r>
       <r>   11.5052    0.0000 </r>
       <r>   11.5220    0.0000 </r>
       <r>   11.5575    0.0000 </r>
       <r>   11.5700    0.0000 </r>
       <r>   11.5917    0.0000 </r>
       <r>   11.5912    0.0000 </r>
       <r>   11.6086    0.0000 </r>
       <r>   11.6408    0.0000 </r>
       <r>   11.6680    0.0000 </r>
       <r>   11.7399    0.0000 </r>
       <r>   11.7929    0.0000 </r>
       <r>   11.8513    0.0000 </r>
       <r>   11.8936    0.0000 </r>
       <r>   11.9504    0.0000 </r>
       <r>   12.0092    0.0000 </r>
       <r>   12.0566    0.0000 </r>
      </set>
      <set comment="kpoint 8">
       <r>  -17.1660    1.0000 </r>
       <r>  -15.7438    1.0000 </r>
       <r>  -15.6883    1.0000 </r>
       <r>  -15.4092    1.0000 </r>
       <r>  -15.2842    1.0000 </r>
       <r>  -15.2746    1.0000 </r>
       <r>  -15.2423    1.0000 </r>
       <r>  -15.2039    1.0000 </r>
       <r>  -15.1422    1.0000 </r>
       <r>  -15.0856    1.0000 </r>
       <r>  -15.0481    1.0000 </r>
       <r>  -15.0339    1.0000 </r>
       <r>  -15.0152    1.0000 </r>
       <r>  -14.9844    1.0000 </r>
       <r>  -14.9837    1.0000 </r>
       <r>  -14.9063    1.0000 </r>
       <r>  -14.8990    1.0000 </r>
       <r>  -14.8529    1.0000 </r>
       <r>  -14.7581    1.0000 </r>
       <r>  -14.7572    1.0000 </r>
       <r>  -14.6130    1.0000 </r>
       <r>  -14.5657    1.0000 </r>
       <r>  -14.5377    1.0000 </r>
       <r>  -14.4662    1.0000 </r>
       <r>  -14.4629    1.0000 </r>
       <r>  -14.4597    1.0000 </r>
       <r>  -14.4585    1.0000 </r>
       <r>  -14.4211    1.0000 </r>
       <r>  -14.4021    1.0000 </r>
       <r>  -14.3958    1.0000 </r>
       <r>  -14.3845    1.0000 </r>
       <r>  -14.3338    1.0000 </r>
       <r>  -14.2471    1.0000 </r>
       <r>  -14.2456    1.0000 </r>
       <r>  -14.2434    1.0000 </r>
       <r>  -14.2428    1.0000 </r>
       <r>  -14.2072    1.0000 </r>
       <r>  -14.2065    1.0000 </r>
       <r>  -14.1675    1.0000 </r>
       <r>  -14.1493    1.0000 </r>
       <r>  -14.1063    1.0000 </r>
       <r>  -14.0359    1.0000 </r>
       <r>  -13.9976    1.0000 </r>
       <r>  -13.9973    1.0000 </r>
       <r>  -13.9402    1.0000 </r>
       <r>  -13.7801    1.0000 </r>
       <r>  -13.7413    1.0000 </r>
       <r>  -13.7397    1.0000 </r>
       <r>  -13.7120    1.0000 </r>
       <r>  -13.7116    1.0000 </r>
       <r>  -13.7018    1.0000 </r>
       <r>  -13.6802    1.0000 </r>
       <r>  -13.6575    1.0000 </r>
       <r>  -13.6555    1.0000 </r>
       <r>  -13.5968    1.0000 </r>
       <r>  -13.5328    1.0000 </r>
       <r>  -13.5324    1.0000 </r>
       <r>  -13.5186    1.0000 </r>
       <r>  -13.5185    1.0000 </r>
       <r>  -13.5034    1.0000 </r>
       <r>  -13.3582    1.0000 </r>
       <r>  -13.3321    1.0000 </r>
       <r>  -13.2532    1.0000 </r>
       <r>  -13.2217    1.0000 </r>
       <r>  -13.1068    1.0000 </r>
       <r>  -13.0682    1.0000 </r>
       <r>  -13.0641    1.0000 </r>
       <r>  -13.0617    1.0000 </r>
       <r>  -13.0604    1.0000 </r>
       <r>  -13.0327    1.0000 </r>
       <r>  -13.0263    1.0000 </r>
       <r>  -13.0229    1.0000 </r>
       <r>  -13.0161    1.0000 </r>
       <r>  -12.9697    1.0000 </r>
       <r>  -12.9220    1.0000 </r>
       <r>  -12.8938    1.0000 </r>
       <r>  -12.8918    1.0000 </r>
       <r>  -12.8889    1.0000 </r>
       <r>  -12.8887    1.0000 </r>
       <r>  -12.8786    1.0000 </r>
       <r>  -12.8778    1.0000 </r>
       <r>  -12.8770    1.0000 </r>
       <r>  -12.8769    1.0000 </r>
       <r>  -12.8666    1.0000 </r>
       <r>  -12.8597    1.0000 </r>
       <r>  -12.8560    1.0000 </r>
       <r>  -12.8506    1.0000 </r>
       <r>  -12.8503    1.0000 </r>
       <r>  -12.7154    1.0000 </r>
       <r>  -12.7152    1.0000 </r>
       <r>  -12.7146    1.0000 </r>
       <r>  -12.7145    1.0000 </r>
       <r>  -12.6742    1.0000 </r>
       <r>  -12.6099    1.0000 </r>
       <r>  -12.5981    1.0000 </r>
       <r>  -12.5762    1.0000 </r>
       <r>  -12.5730    1.0000 </r>
       <r>  -12.5515    1.0000 </r>
       <r>  -12.5396    1.0000 </r>
       <r>  -12.5003    1.0000 </r>
       <r>  -12.4357    1.0000 </r>
       <r>  -12.4292    1.0000 </r>
       <r>  -12.4228    1.0000 </r>
       <r>  -12.4222    1.0000 </r>
       <r>  -12.3416    1.0000 </r>
       <r>  -12.3382    1.0000 </r>
       <r>  -12.3212    1.0000 </r>
       <r>  -12.3169    1.0000 </r>
       <r>  -12.2460    1.0000 </r>
       <r>  -12.2448    1.0000 </r>
       <r>  -12.2364    1.0000 </r>
       <r>  -12.2323    1.0000 </r>
       <r>  -12.2192    1.0000 </r>
       <r>  -12.2184    1.0000 </r>
       <r>  -12.2083    1.0000 </r>
       <r>  -12.2058    1.0000 </r>
       <r>  -12.1764    1.0000 </r>
       <r>  -12.1763    1.0000 </r>
       <r>  -12.1705    1.0000 </r>
       <r>  -12.1616    1.0000 </r>
       <r>  -12.0957    1.0000 </r>
       <r>  -12.0956    1.0000 </r>
       <r>  -12.0891    1.0000 </r>
       <r>  -12.0873    1.0000 </r>
       <r>  -12.0872    1.0000 </r>
       <r>  -12.0865    1.0000 </r>
       <r>  -11.9509    1.0000 </r>
       <r>  -11.9479    1.0000 </r>
       <r>  -11.9464    1.0000 </r>
       <r>  -11.9434    1.0000 </r>
       <r>  -11.8159    1.0000 </r>
       <r>  -11.8153    1.0000 </r>
       <r>  -11.8076    1.0000 </r>
       <r>  -11.8070    1.0000 </r>
       <r>  -11.8038    1.0000 </r>
       <r>  -11.8032    1.0000 </r>
       <r>  -11.7853    1.0000 </r>
       <r>  -11.7850    1.0000 </r>
       <r>  -11.7798    1.0000 </r>
       <r>  -11.7794    1.0000 </r>
       <r>  -11.6684    1.0000 </r>
       <r>  -11.6684    1.0000 </r>
       <r>  -11.6614    1.0000 </r>
       <r>  -11.6613    1.0000 </r>
       <r>   -8.1623    1.0000 </r>
       <r>   -7.2495    1.0000 </r>
       <r>   -7.2351    1.0000 </r>
       <r>   -6.7837    1.0000 </r>
       <r>   -6.7021    1.0000 </r>
       <r>   -6.6778    1.0000 </r>
       <r>   -6.4249    1.0000 </r>
       <r>   -6.4029    1.0000 </r>
       <r>   -6.3161    1.0000 </r>
       <r>   -6.3085    1.0000 </r>
       <r>   -6.3054    1.0000 </r>
       <r>   -6.3035    1.0000 </r>
       <r>   -6.2976    1.0000 </r>
       <r>   -6.2805    1.0000 </r>
       <r>   -6.2757    1.0000 </r>
       <r>   -6.2748    1.0000 </r>
       <r>   -6.2686    1.0000 </r>
       <r>   -6.2685    1.0000 </r>
       <r>   -6.2156    1.0000 </r>
       <r>   -6.2118    1.0000 </r>
       <r>   -6.2110    1.0000 </r>
       <r>   -6.2071    1.0000 </r>
       <r>   -6.1944    1.0000 </r>
       <r>   -6.1925    1.0000 </r>
       <r>   -6.1588    1.0000 </r>
       <r>   -6.1586    1.0000 </r>
       <r>   -6.1493    1.0000 </r>
       <r>   -6.1492    1.0000 </r>
       <r>   -6.0726    1.0000 </r>
       <r>   -6.0712    1.0000 </r>
       <r>   -5.9348    1.0000 </r>
       <r>   -5.9274    1.0000 </r>
       <r>   -5.9110    1.0000 </r>
       <r>   -5.9035    1.0000 </r>
       <r>   -5.8386    1.0000 </r>
       <r>   -5.7895    1.0000 </r>
       <r>   -5.7819    1.0000 </r>
       <r>   -5.7692    1.0000 </r>
       <r>   -5.7685    1.0000 </r>
       <r>   -5.7681    1.0000 </r>
       <r>   -5.7612    1.0000 </r>
       <r>   -5.7587    1.0000 </r>
       <r>   -5.7581    1.0000 </r>
       <r>   -5.7579    1.0000 </r>
       <r>   -5.7566    1.0000 </r>
       <r>   -5.7505    1.0000 </r>
       <r>   -5.7378    1.0000 </r>
       <r>   -5.6787    1.0000 </r>
       <r>   -5.6513    1.0000 </r>
       <r>   -5.6385    1.0000 </r>
       <r>   -5.6231    1.0000 </r>
       <r>   -5.6231    1.0000 </r>
       <r>   -5.6200    1.0000 </r>
       <r>   -5.6200    1.0000 </r>
       <r>   -5.2292    1.0000 </r>
       <r>   -5.2268    1.0000 </r>
       <r>   -5.2245    1.0000 </r>
       <r>   -5.2241    1.0000 </r>
       <r>   -5.2236    1.0000 </r>
       <r>   -5.2196    1.0000 </r>
       <r>   -5.2190    1.0000 </r>
       <r>   -5.2190    1.0000 </r>
       <r>   -5.2179    1.0000 </r>
       <r>   -5.2173    1.0000 </r>
       <r>   -5.2171    1.0000 </r>
       <r>   -5.2166    1.0000 </r>
       <r>   -5.1033    1.0000 </r>
       <r>   -5.0964    1.0000 </r>
       <r>   -5.0908    1.0000 </r>
       <r>   -5.0907    1.0000 </r>
       <r>   -5.0879    1.0000 </r>
       <r>   -5.0878    1.0000 </r>
       <r>   -5.0875    1.0000 </r>
       <r>   -5.0875    1.0000 </r>
       <r>   -5.0092    1.0000 </r>
       <r>   -4.9188    1.0000 </r>
       <r>   -4.8264    1.0000 </r>
       <r>   -4.5955    1.0000 </r>
       <r>   -4.5446    1.0000 </r>
       <r>   -4.5359    1.0000 </r>
       <r>   -4.4752    1.0000 </r>
       <r>   -4.4725    1.0000 </r>
       <r>   -4.4718    1.0000 </r>
       <r>   -4.4710    1.0000 </r>
       <r>   -4.4706    1.0000 </r>
       <r>   -4.4693    1.0000 </r>
       <r>   -4.4679    1.0000 </r>
       <r>   -4.4677    1.0000 </r>
       <r>   -4.3414    1.0000 </r>
       <r>   -4.3411    1.0000 </r>
       <r>   -4.3409    1.0000 </r>
       <r>   -4.3407    1.0000 </r>
       <r>   -4.3087    1.0000 </r>
       <r>   -4.1891    1.0000 </r>
       <r>   -4.0928    1.0000 </r>
       <r>   -4.0875    1.0000 </r>
       <r>   -4.0873    1.0000 </r>
       <r>   -4.0840    1.0000 </r>
       <r>   -4.0828    1.0000 </r>
       <r>   -4.0747    1.0000 </r>
       <r>   -4.0746    1.0000 </r>
       <r>   -4.0714    1.0000 </r>
       <r>   -4.0702    1.0000 </r>
       <r>   -4.0355    1.0000 </r>
       <r>   -4.0260    1.0000 </r>
       <r>   -3.9501    1.0000 </r>
       <r>   -3.9501    1.0000 </r>
       <r>   -3.9467    1.0000 </r>
       <r>   -3.9466    1.0000 </r>
       <r>   -3.9087    1.0000 </r>
       <r>   -3.8619    1.0000 </r>
       <r>   -3.7740    1.0000 </r>
       <r>   -3.6223    1.0000 </r>
       <r>   -3.6200    1.0000 </r>
       <r>   -3.6152    1.0000 </r>
       <r>   -3.6138    1.0000 </r>
       <r>   -3.6047    1.0000 </r>
       <r>   -3.6036    1.0000 </r>
       <r>   -3.5983    1.0000 </r>
       <r>   -3.5978    1.0000 </r>
       <r>   -3.5955    1.0000 </r>
       <r>   -3.4795    1.0000 </r>
       <r>   -3.4795    1.0000 </r>
       <r>   -3.4742    1.0000 </r>
       <r>   -3.4741    1.0000 </r>
       <r>   -3.4685    1.0000 </r>
       <r>   -3.4679    1.0000 </r>
       <r>   -3.4673    1.0000 </r>
       <r>   -3.4655    1.0000 </r>
       <r>   -3.4649    1.0000 </r>
       <r>   -3.3891    1.0000 </r>
       <r>   -3.3576    1.0000 </r>
       <r>   -3.3423    1.0000 </r>
       <r>   -3.3384    1.0000 </r>
       <r>   -3.3383    1.0000 </r>
       <r>   -3.3143    1.0000 </r>
       <r>   -3.3051    1.0000 </r>
       <r>   -3.1467    1.0000 </r>
       <r>   -3.0894    1.0000 </r>
       <r>   -3.0773    1.0000 </r>
       <r>   -3.0726    1.0000 </r>
       <r>   -3.0722    1.0000 </r>
       <r>   -3.0659    1.0000 </r>
       <r>   -3.0028    1.0000 </r>
       <r>   -2.9991    1.0000 </r>
       <r>   -2.9899    1.0000 </r>
       <r>   -2.9384    1.0000 </r>
       <r>   -2.9376    1.0000 </r>
       <r>   -2.8447    1.0000 </r>
       <r>   -2.7639    1.0000 </r>
       <r>   -2.7609    1.0000 </r>
       <r>   -2.7524    1.0000 </r>
       <r>   -2.7283    1.0000 </r>
       <r>   -2.7231    1.0000 </r>
       <r>   -2.6736    1.0000 </r>
       <r>   -2.6722    1.0000 </r>
       <r>   -2.6692    1.0000 </r>
       <r>   -2.6491    1.0000 </r>
       <r>   -2.6136    1.0000 </r>
       <r>   -2.5455    1.0000 </r>
       <r>   -2.5451    1.0000 </r>
       <r>   -2.5427    1.0000 </r>
       <r>   -2.5134    1.0000 </r>
       <r>   -2.4624    1.0000 </r>
       <r>   -2.3949    1.0000 </r>
       <r>   -2.3868    1.0000 </r>
       <r>   -2.3772    1.0000 </r>
       <r>   -2.3747    1.0000 </r>
       <r>   -2.3729    1.0000 </r>
       <r>   -2.3717    1.0000 </r>
       <r>   -2.3716    1.0000 </r>
       <r>   -2.3702    1.0000 </r>
       <r>   -2.3693    1.0000 </r>
       <r>   -2.3679    1.0000 </r>
       <r>   -2.3656    1.0000 </r>
       <r>   -2.3419    1.0000 </r>
       <r>   -2.2699    1.0000 </r>
       <r>   -2.2622    1.0000 </r>
       <r>   -2.2564    1.0000 </r>
       <r>   -2.2410    1.0000 </r>
       <r>   -2.2406    1.0000 </r>
       <r>   -2.2404    1.0000 </r>
       <r>   -2.2402    1.0000 </r>
       <r>   -2.2366    1.0000 </r>
       <r>   -2.2076    1.0000 </r>
       <r>   -2.1949    1.0000 </r>
       <r>   -2.1919    1.0000 </r>
       <r>   -2.1624    1.0000 </r>
       <r>   -2.1503    1.0000 </r>
       <r>   -2.1411    1.0000 </r>
       <r>   -2.1162    1.0000 </r>
       <r>   -2.0989    1.0000 </r>
       <r>   -2.0910    1.0000 </r>
       <r>   -2.0906    1.0000 </r>
       <r>   -2.0851    1.0000 </r>
       <r>   -2.0850    1.0000 </r>
       <r>   -2.0579    1.0000 </r>
       <r>   -2.0575    1.0000 </r>
       <r>   -2.0512    1.0000 </r>
       <r>   -2.0509    1.0000 </r>
       <r>   -2.0047    1.0000 </r>
       <r>   -1.9627    1.0000 </r>
       <r>   -1.9429    1.0000 </r>
       <r>   -1.9429    1.0000 </r>
       <r>   -1.9332    1.0000 </r>
       <r>   -1.9332    1.0000 </r>
       <r>   -1.9311    1.0000 </r>
       <r>   -1.9063    1.0000 </r>
       <r>   -1.9052    1.0000 </r>
       <r>   -1.8988    1.0000 </r>
       <r>   -1.8974    1.0000 </r>
       <r>   -1.8629    1.0000 </r>
       <r>   -1.8603    1.0000 </r>
       <r>   -1.8597    1.0000 </r>
       <r>   -1.8589    1.0000 </r>
       <r>   -1.8582    1.0000 </r>
       <r>   -1.8576    1.0000 </r>
       <r>   -1.8564    1.0000 </r>
       <r>   -1.8550    1.0000 </r>
       <r>   -1.8515    1.0000 </r>
       <r>   -1.7785    1.0000 </r>
       <r>   -1.7783    1.0000 </r>
       <r>   -1.7776    1.0000 </r>
       <r>   -1.7775    1.0000 </r>
       <r>   -1.7741    1.0000 </r>
       <r>   -1.7738    1.0000 </r>
       <r>   -1.7726    1.0000 </r>
       <r>   -1.7725    1.0000 </r>
       <r>   -1.7442    1.0000 </r>
       <r>   -1.7430    1.0000 </r>
       <r>   -1.7412    1.0000 </r>
       <r>   -1.7406    1.0000 </r>
       <r>   -1.7089    1.0000 </r>
       <r>   -1.7058    1.0000 </r>
       <r>   -1.6617    1.0000 </r>
       <r>   -1.6452    1.0000 </r>
       <r>   -1.6451    1.0000 </r>
       <r>   -1.6449    1.0000 </r>
       <r>   -1.6449    1.0000 </r>
       <r>   -1.6209    1.0000 </r>
       <r>   -1.6093    1.0000 </r>
       <r>   -1.6079    1.0000 </r>
       <r>   -1.5863    1.0000 </r>
       <r>   -1.5835    1.0000 </r>
       <r>   -1.5792    1.0000 </r>
       <r>   -1.5575    1.0000 </r>
       <r>   -1.5552    1.0000 </r>
       <r>   -1.5501    1.0000 </r>
       <r>   -1.4513    1.0000 </r>
       <r>   -1.4452    1.0000 </r>
       <r>   -1.4409    1.0000 </r>
       <r>   -1.4317    1.0000 </r>
       <r>   -1.2550    1.0000 </r>
       <r>   -1.2520    1.0000 </r>
       <r>   -1.2352    1.0000 </r>
       <r>   -1.2350    1.0000 </r>
       <r>   -1.2261    1.0000 </r>
       <r>   -1.2237    1.0000 </r>
       <r>   -1.2203    1.0000 </r>
       <r>   -1.2069    1.0000 </r>
       <r>   -1.2064    1.0000 </r>
       <r>   -1.2061    1.0000 </r>
       <r>   -1.2060    1.0000 </r>
       <r>   -1.1928    1.0000 </r>
       <r>   -1.1882    1.0000 </r>
       <r>   -1.1851    1.0000 </r>
       <r>   -1.1720    1.0000 </r>
       <r>   -1.1487    1.0000 </r>
       <r>   -1.1162    1.0000 </r>
       <r>   -1.0877    1.0000 </r>
       <r>   -1.0876    1.0000 </r>
       <r>   -1.0825    1.0000 </r>
       <r>   -1.0824    1.0000 </r>
       <r>   -1.0539    1.0000 </r>
       <r>   -1.0085    1.0000 </r>
       <r>   -0.9281    1.0000 </r>
       <r>   -0.9153    1.0000 </r>
       <r>   -0.9099    1.0000 </r>
       <r>   -0.9084    1.0000 </r>
       <r>   -0.8998    1.0000 </r>
       <r>   -0.8527    1.0000 </r>
       <r>   -0.8443    1.0000 </r>
       <r>   -0.8221    1.0000 </r>
       <r>   -0.7740    1.0000 </r>
       <r>   -0.7143    1.0000 </r>
       <r>   -0.6874    1.0000 </r>
       <r>   -0.6849    1.0000 </r>
       <r>   -0.6525    1.0000 </r>
       <r>   -0.5968    1.0000 </r>
       <r>   -0.5946    1.0000 </r>
       <r>   -0.5912    1.0000 </r>
       <r>   -0.5232    1.0000 </r>
       <r>   -0.5180    1.0000 </r>
       <r>   -0.5174    1.0000 </r>
       <r>   -0.5150    1.0000 </r>
       <r>   -0.5139    1.0000 </r>
       <r>   -0.4615    1.0000 </r>
       <r>   -0.4577    1.0000 </r>
       <r>   -0.4574    1.0000 </r>
       <r>   -0.4566    1.0000 </r>
       <r>   -0.4532    1.0000 </r>
       <r>   -0.4528    1.0000 </r>
       <r>   -0.4527    1.0000 </r>
       <r>   -0.4486    1.0000 </r>
       <r>   -0.4029    1.0000 </r>
       <r>   -0.3835    1.0000 </r>
       <r>   -0.3834    1.0000 </r>
       <r>   -0.3540    1.0000 </r>
       <r>   -0.3521    1.0000 </r>
       <r>   -0.3492    1.0000 </r>
       <r>   -0.3463    1.0000 </r>
       <r>   -0.3440    1.0000 </r>
       <r>   -0.3265    1.0000 </r>
       <r>   -0.3260    1.0000 </r>
       <r>   -0.3257    1.0000 </r>
       <r>   -0.3254    1.0000 </r>
       <r>   -0.2760    1.0000 </r>
       <r>   -0.2626    1.0000 </r>
       <r>   -0.2582    1.0000 </r>
       <r>   -0.2556    1.0000 </r>
       <r>   -0.2555    1.0000 </r>
       <r>   -0.2541    1.0000 </r>
       <r>   -0.2457    1.0000 </r>
       <r>   -0.2248    1.0000 </r>
       <r>   -0.2241    1.0000 </r>
       <r>   -0.2155    1.0000 </r>
       <r>   -0.2077    1.0000 </r>
       <r>   -0.1423    1.0000 </r>
       <r>   -0.1407    1.0000 </r>
       <r>   -0.0455    1.0000 </r>
       <r>   -0.0061    1.0000 </r>
       <r>    0.0013    1.0000 </r>
       <r>    0.0098    1.0000 </r>
       <r>    0.0116    1.0000 </r>
       <r>    0.0181    1.0000 </r>
       <r>    0.0184    1.0000 </r>
       <r>    0.0347    1.0000 </r>
       <r>    0.0347    1.0000 </r>
       <r>    0.0753    1.0000 </r>
       <r>    0.1938    1.0000 </r>
       <r>    0.2869    1.0000 </r>
       <r>    0.3209    1.0000 </r>
       <r>    0.3432    1.0000 </r>
       <r>    0.3455    1.0000 </r>
       <r>    0.3487    1.0000 </r>
       <r>    0.3508    1.0000 </r>
       <r>    0.3760    1.0000 </r>
       <r>    0.3971    1.0000 </r>
       <r>    0.4536    1.0000 </r>
       <r>    0.4766    1.0000 </r>
       <r>    0.4773    1.0000 </r>
       <r>    0.4891    1.0000 </r>
       <r>    0.5104    1.0000 </r>
       <r>    0.5573    1.0000 </r>
       <r>    0.5590    1.0000 </r>
       <r>    0.5616    1.0000 </r>
       <r>    0.5865    1.0000 </r>
       <r>    0.5886    1.0000 </r>
       <r>    0.5970    1.0000 </r>
       <r>    0.6202    1.0000 </r>
       <r>    0.6367    1.0000 </r>
       <r>    0.6558    1.0000 </r>
       <r>    0.6941    1.0000 </r>
       <r>    0.7032    1.0000 </r>
       <r>    0.7337    1.0000 </r>
       <r>    0.7366    1.0000 </r>
       <r>    0.8554    1.0000 </r>
       <r>    0.8560    1.0000 </r>
       <r>    0.8572    1.0000 </r>
       <r>    0.8623    1.0000 </r>
       <r>    0.8649    1.0000 </r>
       <r>    0.8664    1.0000 </r>
       <r>    0.8679    1.0000 </r>
       <r>    0.8746    1.0000 </r>
       <r>    0.8759    1.0000 </r>
       <r>    0.8773    1.0000 </r>
       <r>    0.8833    1.0000 </r>
       <r>    0.8857    1.0000 </r>
       <r>    0.8936    1.0000 </r>
       <r>    0.8974    1.0000 </r>
       <r>    0.9058    1.0000 </r>
       <r>    0.9110    1.0000 </r>
       <r>    0.9938    1.0000 </r>
       <r>    1.0027    1.0000 </r>
       <r>    1.0601    1.0000 </r>
       <r>    1.0656    1.0000 </r>
       <r>    1.0780    1.0000 </r>
       <r>    1.0785    1.0000 </r>
       <r>    1.0946    1.0000 </r>
       <r>    1.0947    1.0000 </r>
       <r>    1.1085    1.0000 </r>
       <r>    1.1091    1.0000 </r>
       <r>    1.1176    1.0000 </r>
       <r>    1.2569    1.0000 </r>
       <r>    1.2617    1.0000 </r>
       <r>    1.3109    1.0000 </r>
       <r>    1.4350    1.0000 </r>
       <r>    1.4541    1.0000 </r>
       <r>    1.4564    1.0000 </r>
       <r>    1.4717    1.0000 </r>
       <r>    1.6010    1.0000 </r>
       <r>    1.6021    1.0000 </r>
       <r>    1.6051    1.0000 </r>
       <r>    1.6058    1.0000 </r>
       <r>    1.6171    1.0000 </r>
       <r>    1.6271    1.0000 </r>
       <r>    1.6583    1.0000 </r>
       <r>    1.6678    1.0000 </r>
       <r>    1.7117    1.0000 </r>
       <r>    1.7147    1.0000 </r>
       <r>    1.7691    1.0000 </r>
       <r>    1.7735    1.0000 </r>
       <r>    1.8452    1.0000 </r>
       <r>    1.8516    1.0000 </r>
       <r>    1.8540    1.0000 </r>
       <r>    1.8628    1.0000 </r>
       <r>    1.8660    1.0000 </r>
       <r>    1.8708    1.0000 </r>
       <r>    1.8783    1.0000 </r>
       <r>    1.8788    1.0000 </r>
       <r>    1.9904    1.0000 </r>
       <r>    2.0034    1.0000 </r>
       <r>    2.1889    1.0000 </r>
       <r>    2.1914    1.0000 </r>
       <r>    2.1964    1.0000 </r>
       <r>    2.2001    1.0000 </r>
       <r>    2.2079    1.0000 </r>
       <r>    2.2104    1.0000 </r>
       <r>    2.3798    1.0000 </r>
       <r>    2.3815    1.0000 </r>
       <r>    2.3892    1.0000 </r>
       <r>    2.3894    1.0000 </r>
       <r>    5.5464    0.0000 </r>
       <r>    6.6592    0.0000 </r>
       <r>    6.6763    0.0000 </r>
       <r>    6.6835    0.0000 </r>
       <r>    6.7934    0.0000 </r>
       <r>    6.8854    0.0000 </r>
       <r>    6.9394    0.0000 </r>
       <r>    7.0109    0.0000 </r>
       <r>    7.0231    0.0000 </r>
       <r>    7.0450    0.0000 </r>
       <r>    7.0550    0.0000 </r>
       <r>    7.0742    0.0000 </r>
       <r>    7.0866    0.0000 </r>
       <r>    7.1080    0.0000 </r>
       <r>    7.1172    0.0000 </r>
       <r>    7.1459    0.0000 </r>
       <r>    7.1466    0.0000 </r>
       <r>    7.2575    0.0000 </r>
       <r>    7.2659    0.0000 </r>
       <r>    7.2661    0.0000 </r>
       <r>    7.2864    0.0000 </r>
       <r>    7.2867    0.0000 </r>
       <r>    7.4416    0.0000 </r>
       <r>    7.4576    0.0000 </r>
       <r>    7.4669    0.0000 </r>
       <r>    7.4811    0.0000 </r>
       <r>    7.4887    0.0000 </r>
       <r>    7.5720    0.0000 </r>
       <r>    7.5754    0.0000 </r>
       <r>    7.6371    0.0000 </r>
       <r>    7.6482    0.0000 </r>
       <r>    7.6611    0.0000 </r>
       <r>    7.6651    0.0000 </r>
       <r>    7.6658    0.0000 </r>
       <r>    7.6672    0.0000 </r>
       <r>    7.6831    0.0000 </r>
       <r>    7.7180    0.0000 </r>
       <r>    7.7328    0.0000 </r>
       <r>    7.7356    0.0000 </r>
       <r>    7.7956    0.0000 </r>
       <r>    7.8446    0.0000 </r>
       <r>    7.8806    0.0000 </r>
       <r>    7.8978    0.0000 </r>
       <r>    7.9714    0.0000 </r>
       <r>    7.9781    0.0000 </r>
       <r>    8.0058    0.0000 </r>
       <r>    8.0062    0.0000 </r>
       <r>    8.0970    0.0000 </r>
       <r>    8.0995    0.0000 </r>
       <r>    8.1127    0.0000 </r>
       <r>    8.2090    0.0000 </r>
       <r>    8.2292    0.0000 </r>
       <r>    8.2528    0.0000 </r>
       <r>    8.2908    0.0000 </r>
       <r>    8.3387    0.0000 </r>
       <r>    8.3411    0.0000 </r>
       <r>    8.3680    0.0000 </r>
       <r>    8.4742    0.0000 </r>
       <r>    8.4830    0.0000 </r>
       <r>    8.4912    0.0000 </r>
       <r>    8.4949    0.0000 </r>
       <r>    8.4977    0.0000 </r>
       <r>    8.5093    0.0000 </r>
       <r>    8.5106    0.0000 </r>
       <r>    8.5108    0.0000 </r>
       <r>    8.5333    0.0000 </r>
       <r>    8.5700    0.0000 </r>
       <r>    8.6015    0.0000 </r>
       <r>    8.6272    0.0000 </r>
       <r>    8.7870    0.0000 </r>
       <r>    8.8301    0.0000 </r>
       <r>    8.9050    0.0000 </r>
       <r>    8.9107    0.0000 </r>
       <r>    8.9299    0.0000 </r>
       <r>    8.9995    0.0000 </r>
       <r>    9.0078    0.0000 </r>
       <r>    9.0140    0.0000 </r>
       <r>    9.0199    0.0000 </r>
       <r>    9.0209    0.0000 </r>
       <r>    9.0241    0.0000 </r>
       <r>    9.0312    0.0000 </r>
       <r>    9.1312    0.0000 </r>
       <r>    9.1447    0.0000 </r>
       <r>    9.1634    0.0000 </r>
       <r>    9.1665    0.0000 </r>
       <r>    9.1846    0.0000 </r>
       <r>    9.2090    0.0000 </r>
       <r>    9.2091    0.0000 </r>
       <r>    9.2132    0.0000 </r>
       <r>    9.3688    0.0000 </r>
       <r>    9.4070    0.0000 </r>
       <r>    9.4126    0.0000 </r>
       <r>    9.4329    0.0000 </r>
       <r>    9.4448    0.0000 </r>
       <r>    9.4492    0.0000 </r>
       <r>    9.5846    0.0000 </r>
       <r>    9.6015    0.0000 </r>
       <r>    9.6034    0.0000 </r>
       <r>    9.6067    0.0000 </r>
       <r>    9.6079    0.0000 </r>
       <r>    9.6382    0.0000 </r>
       <r>    9.6661    0.0000 </r>
       <r>    9.7120    0.0000 </r>
       <r>    9.7128    0.0000 </r>
       <r>    9.7139    0.0000 </r>
       <r>    9.7299    0.0000 </r>
       <r>    9.7695    0.0000 </r>
       <r>    9.7873    0.0000 </r>
       <r>    9.8369    0.0000 </r>
       <r>    9.8371    0.0000 </r>
       <r>    9.9243    0.0000 </r>
       <r>    9.9270    0.0000 </r>
       <r>    9.9634    0.0000 </r>
       <r>    9.9686    0.0000 </r>
       <r>    9.9718    0.0000 </r>
       <r>   10.0348    0.0000 </r>
       <r>   10.0720    0.0000 </r>
       <r>   10.1147    0.0000 </r>
       <r>   10.1337    0.0000 </r>
       <r>   10.3110    0.0000 </r>
       <r>   10.3475    0.0000 </r>
       <r>   10.4270    0.0000 </r>
       <r>   10.4272    0.0000 </r>
       <r>   10.5261    0.0000 </r>
       <r>   10.5266    0.0000 </r>
       <r>   10.5497    0.0000 </r>
       <r>   10.5548    0.0000 </r>
       <r>   10.8986    0.0000 </r>
       <r>   11.0002    0.0000 </r>
       <r>   11.2082    0.0000 </r>
       <r>   11.2114    0.0000 </r>
       <r>   11.2976    0.0000 </r>
       <r>   11.4126    0.0000 </r>
       <r>   11.4182    0.0000 </r>
       <r>   11.4332    0.0000 </r>
       <r>   11.4488    0.0000 </r>
       <r>   11.5169    0.0000 </r>
       <r>   11.5392    0.0000 </r>
       <r>   11.5650    0.0000 </r>
       <r>   11.5831    0.0000 </r>
       <r>   11.5865    0.0000 </r>
       <r>   11.5959    0.0000 </r>
       <r>   11.6142    0.0000 </r>
       <r>   11.6459    0.0000 </r>
       <r>   11.6650    0.0000 </r>
       <r>   11.7430    0.0000 </r>
       <r>   11.8137    0.0000 </r>
       <r>   11.8856    0.0000 </r>
       <r>   11.9345    0.0000 </r>
       <r>   11.9525    0.0000 </r>
       <r>   11.9806    0.0000 </r>
       <r>   12.0281    0.0000 </r>
      </set>
     </set>
    </set>
   </array>
  </eigenvalues>
  <separator name="orbital magnetization" >
   <v name="MAGDIPOLOUT">      0.00000000      0.00000000      0.00000000</v>
  </separator>
  <dos>
   <i name="efermi">      2.78847138 </i>
   <total>
    <array>
     <dimension dim="1">gridpoints</dimension>
     <dimension dim="2">spin</dimension>
     <field>energy</field>
     <field>total</field>
     <field>integrated</field>
     <set>
      <set comment="spin 1">
       <r>   -18.7782     0.0000     0.0000 </r>
       <r>   -18.6693     0.0000     0.0000 </r>
       <r>   -18.5605     0.0000     0.0000 </r>
       <r>   -18.4516     0.0000     0.0000 </r>
       <r>   -18.3428     0.0000     0.0000 </r>
       <r>   -18.2339     0.0000     0.0000 </r>
       <r>   -18.1251     0.0000     0.0000 </r>
       <r>   -18.0162     0.0000     0.0000 </r>
       <r>   -17.9074     0.0000     0.0000 </r>
       <r>   -17.7985     0.0000     0.0000 </r>
       <r>   -17.6897     0.0000     0.0000 </r>
       <r>   -17.5808     0.0000     0.0000 </r>
       <r>   -17.4720     0.0000     0.0000 </r>
       <r>   -17.3631     0.4553     0.0496 </r>
       <r>   -17.2542    15.4854     1.7352 </r>
       <r>   -17.1454     2.4322     2.0000 </r>
       <r>   -17.0365     0.0003     2.0000 </r>
       <r>   -16.9277     0.0000     2.0000 </r>
       <r>   -16.8188     0.0000     2.0000 </r>
       <r>   -16.7100     0.0000     2.0000 </r>
       <r>   -16.6011     0.0000     2.0000 </r>
       <r>   -16.4923     0.0000     2.0000 </r>
       <r>   -16.3834     0.0000     2.0000 </r>
       <r>   -16.2746     0.0000     2.0000 </r>
       <r>   -16.1657     0.0000     2.0000 </r>
       <r>   -16.0569     0.0000     2.0000 </r>
       <r>   -15.9480     0.0000     2.0000 </r>
       <r>   -15.8391     0.5089     2.0554 </r>
       <r>   -15.7303    22.2963     4.4824 </r>
       <r>   -15.6214    14.3381     6.0432 </r>
       <r>   -15.5126     4.0754     6.4868 </r>
       <r>   -15.4037    10.6774     7.6491 </r>
       <r>   -15.2949    23.8779    10.2483 </r>
       <r>   -15.1860    44.9984    15.1465 </r>
       <r>   -15.0772    44.3673    19.9761 </r>
       <r>   -14.9683    56.1373    26.0869 </r>
       <r>   -14.8595    60.5876    32.6820 </r>
       <r>   -14.7506    62.0064    39.4317 </r>
       <r>   -14.6418    36.5634    43.4117 </r>
       <r>   -14.5329    54.1208    49.3030 </r>
       <r>   -14.4240    69.8022    56.9012 </r>
       <r>   -14.3152    59.6019    63.3891 </r>
       <r>   -14.2063    76.0513    71.6676 </r>
       <r>   -14.0975    58.3056    78.0144 </r>
       <r>   -13.9886    35.1431    81.8399 </r>
       <r>   -13.8798    36.5142    85.8146 </r>
       <r>   -13.7709    69.1234    93.3389 </r>
       <r>   -13.6621   111.2495   105.4489 </r>
       <r>   -13.5532    67.3205   112.7770 </r>
       <r>   -13.4444    58.2290   119.1154 </r>
       <r>   -13.3355    64.0186   126.0841 </r>
       <r>   -13.2267    50.0681   131.5342 </r>
       <r>   -13.1178    40.7569   135.9707 </r>
       <r>   -13.0089    97.6877   146.6044 </r>
       <r>   -12.9001    87.9618   156.1794 </r>
       <r>   -12.7912   149.4488   172.4475 </r>
       <r>   -12.6824    59.6833   178.9442 </r>
       <r>   -12.5735    71.6484   186.7434 </r>
       <r>   -12.4647    82.1986   195.6911 </r>
       <r>   -12.3558    74.5446   203.8055 </r>
       <r>   -12.2470   164.5632   221.7189 </r>
       <r>   -12.1381   201.3789   243.6398 </r>
       <r>   -12.0293   117.3818   256.4172 </r>
       <r>   -11.9204    56.2665   262.5420 </r>
       <r>   -11.8116    63.7365   269.4800 </r>
       <r>   -11.7027    94.5861   279.7761 </r>
       <r>   -11.5938    55.9789   285.8696 </r>
       <r>   -11.4850    13.3352   287.3212 </r>
       <r>   -11.3761     6.1958   287.9956 </r>
       <r>   -11.2673     0.0404   288.0000 </r>
       <r>   -11.1584     0.0000   288.0000 </r>
       <r>   -11.0496     0.0000   288.0000 </r>
       <r>   -10.9407     0.0000   288.0000 </r>
       <r>   -10.8319     0.0000   288.0000 </r>
       <r>   -10.7230     0.0000   288.0000 </r>
       <r>   -10.6142     0.0000   288.0000 </r>
       <r>   -10.5053     0.0000   288.0000 </r>
       <r>   -10.3965     0.0000   288.0000 </r>
       <r>   -10.2876     0.0000   288.0000 </r>
       <r>   -10.1787     0.0000   288.0000 </r>
       <r>   -10.0699     0.0000   288.0000 </r>
       <r>    -9.9610     0.0000   288.0000 </r>
       <r>    -9.8522     0.0000   288.0000 </r>
       <r>    -9.7433     0.0000   288.0000 </r>
       <r>    -9.6345     0.0000   288.0000 </r>
       <r>    -9.5256     0.0000   288.0000 </r>
       <r>    -9.4168     0.0000   288.0000 </r>
       <r>    -9.3079     0.0000   288.0000 </r>
       <r>    -9.1991     0.0000   288.0000 </r>
       <r>    -9.0902     0.0000   288.0000 </r>
       <r>    -8.9814     0.0000   288.0000 </r>
       <r>    -8.8725     0.0000   288.0000 </r>
       <r>    -8.7636     0.0000   288.0000 </r>
       <r>    -8.6548     0.0000   288.0000 </r>
       <r>    -8.5459     0.0000   288.0000 </r>
       <r>    -8.4371     0.4127   288.0449 </r>
       <r>    -8.3282    15.2580   289.7058 </r>
       <r>    -8.2194     2.7022   290.0000 </r>
       <r>    -8.1105     0.0004   290.0000 </r>
       <r>    -8.0017     0.0000   290.0000 </r>
       <r>    -7.8928     0.0000   290.0000 </r>
       <r>    -7.7840     0.0000   290.0000 </r>
       <r>    -7.6751     0.0000   290.0000 </r>
       <r>    -7.5663     0.0000   290.0000 </r>
       <r>    -7.4574     0.0013   290.0001 </r>
       <r>    -7.3485     3.3166   290.3612 </r>
       <r>    -7.2397    29.3044   293.5511 </r>
       <r>    -7.1308     4.1236   293.9999 </r>
       <r>    -7.0220     0.0006   294.0000 </r>
       <r>    -6.9131     0.0050   294.0005 </r>
       <r>    -6.8043     5.2927   294.5767 </r>
       <r>    -6.6954    21.8014   296.9498 </r>
       <r>    -6.5866    22.3912   299.3872 </r>
       <r>    -6.4777    34.9356   303.1901 </r>
       <r>    -6.3689    42.1804   307.7816 </r>
       <r>    -6.2600   124.8045   321.3670 </r>
       <r>    -6.1512   131.8440   335.7187 </r>
       <r>    -6.0423    64.9991   342.7941 </r>
       <r>    -5.9334    41.5660   347.3188 </r>
       <r>    -5.8246    61.4070   354.0032 </r>
       <r>    -5.7157   174.2254   372.9683 </r>
       <r>    -5.6069   174.7586   391.9914 </r>
       <r>    -5.4980    88.0185   401.5726 </r>
       <r>    -5.3892    12.5402   402.9376 </r>
       <r>    -5.2803    14.0424   404.4662 </r>
       <r>    -5.1715   152.2170   421.0356 </r>
       <r>    -5.0626   109.0954   432.9110 </r>
       <r>    -4.9538    40.9578   437.3695 </r>
       <r>    -4.8449    27.8271   440.3985 </r>
       <r>    -4.7361    21.2778   442.7147 </r>
       <r>    -4.6272    15.8948   444.4449 </r>
       <r>    -4.5183    51.9136   450.0959 </r>
       <r>    -4.4095   151.0463   466.5379 </r>
       <r>    -4.3006    95.7440   476.9600 </r>
       <r>    -4.1918    31.8922   480.4316 </r>
       <r>    -4.0829    66.7239   487.6947 </r>
       <r>    -3.9741    94.8045   498.0146 </r>
       <r>    -3.8652    69.1361   505.5403 </r>
       <r>    -3.7564    22.8920   508.0322 </r>
       <r>    -3.6475    30.0983   511.3085 </r>
       <r>    -3.5387   121.5522   524.5399 </r>
       <r>    -3.4298   129.3602   538.6213 </r>
       <r>    -3.3210    81.9071   547.5372 </r>
       <r>    -3.2121    39.8668   551.8768 </r>
       <r>    -3.1032    77.1564   560.2756 </r>
       <r>    -2.9944   116.4634   572.9531 </r>
       <r>    -2.8855   141.9562   588.4056 </r>
       <r>    -2.7767   120.8983   601.5658 </r>
       <r>    -2.6678   126.1594   615.2988 </r>
       <r>    -2.5590    51.9511   620.9539 </r>
       <r>    -2.4501    63.9600   627.9161 </r>
       <r>    -2.3413   152.8262   644.5519 </r>
       <r>    -2.2324   125.1362   658.1734 </r>
       <r>    -2.1236   114.2842   670.6137 </r>
       <r>    -2.0147   148.9303   686.8253 </r>
       <r>    -1.9059   132.0441   701.1988 </r>
       <r>    -1.7970   180.5901   720.8568 </r>
       <r>    -1.6881   192.3699   741.7970 </r>
       <r>    -1.5793   188.8323   762.3521 </r>
       <r>    -1.4704   168.6697   780.7124 </r>
       <r>    -1.3616   101.6877   791.7815 </r>
       <r>    -1.2527    78.3881   800.3144 </r>
       <r>    -1.1439   191.5220   821.1623 </r>
       <r>    -1.0350   129.6506   835.2753 </r>
       <r>    -0.9262    83.0745   844.3182 </r>
       <r>    -0.8173   110.9885   856.3998 </r>
       <r>    -0.7085   111.4976   868.5367 </r>
       <r>    -0.5996   101.1426   879.5465 </r>
       <r>    -0.4908    80.2475   888.2817 </r>
       <r>    -0.3819   173.4223   907.1594 </r>
       <r>    -0.2730   180.8873   926.8497 </r>
       <r>    -0.1642    97.3139   937.4427 </r>
       <r>    -0.0553    46.8658   942.5442 </r>
       <r>     0.0535    82.8927   951.5674 </r>
       <r>     0.1624    50.9298   957.1113 </r>
       <r>     0.2712   126.6683   970.8997 </r>
       <r>     0.3801   129.3759   984.9827 </r>
       <r>     0.4889   110.7997   997.0437 </r>
       <r>     0.5978   100.9021  1008.0273 </r>
       <r>     0.7066    95.9299  1018.4696 </r>
       <r>     0.8155    70.8956  1026.1869 </r>
       <r>     0.9243   154.8364  1043.0414 </r>
       <r>     1.0332    91.1115  1052.9592 </r>
       <r>     1.1421    93.8402  1063.1741 </r>
       <r>     1.2509    81.8127  1072.0797 </r>
       <r>     1.3598    87.5162  1081.6062 </r>
       <r>     1.4686    70.3789  1089.2672 </r>
       <r>     1.5775    57.7791  1095.5567 </r>
       <r>     1.6863    73.5062  1103.5581 </r>
       <r>     1.7952    59.2252  1110.0050 </r>
       <r>     1.9040   116.3661  1122.6719 </r>
       <r>     2.0129    80.6209  1131.4478 </r>
       <r>     2.1217    47.4297  1136.6107 </r>
       <r>     2.2306    44.7508  1141.4820 </r>
       <r>     2.3394    22.0737  1143.8848 </r>
       <r>     2.4483    61.3860  1150.5669 </r>
       <r>     2.5572    12.6130  1151.9399 </r>
       <r>     2.6660     0.5521  1152.0000 </r>
       <r>     2.7749     0.0000  1152.0000 </r>
       <r>     2.8837     0.0000  1152.0000 </r>
       <r>     2.9926     0.0000  1152.0000 </r>
       <r>     3.1014     0.0000  1152.0000 </r>
       <r>     3.2103     0.0000  1152.0000 </r>
       <r>     3.3191     0.0000  1152.0000 </r>
       <r>     3.4280     0.0000  1152.0000 </r>
       <r>     3.5368     0.0000  1152.0000 </r>
       <r>     3.6457     0.0000  1152.0000 </r>
       <r>     3.7545     0.0000  1152.0000 </r>
       <r>     3.8634     0.0000  1152.0000 </r>
       <r>     3.9723     0.0000  1152.0000 </r>
       <r>     4.0811     0.0000  1152.0000 </r>
       <r>     4.1900     0.0000  1152.0000 </r>
       <r>     4.2988     0.0000  1152.0000 </r>
       <r>     4.4077     0.0000  1152.0000 </r>
       <r>     4.5165     0.0005  1152.0001 </r>
       <r>     4.6254     3.0301  1152.3299 </r>
       <r>     4.7342    15.0080  1153.9636 </r>
       <r>     4.8431     0.3347  1154.0000 </r>
       <r>     4.9519     0.0000  1154.0000 </r>
       <r>     5.0608     0.0000  1154.0000 </r>
       <r>     5.1696     0.0000  1154.0000 </r>
       <r>     5.2785     0.0000  1154.0000 </r>
       <r>     5.3874     0.0000  1154.0000 </r>
       <r>     5.4962     0.0000  1154.0000 </r>
       <r>     5.6051     0.0000  1154.0000 </r>
       <r>     5.7139     0.0000  1154.0000 </r>
       <r>     5.8228     0.4264  1154.0464 </r>
       <r>     5.9316    13.8495  1155.5540 </r>
       <r>     6.0405     4.0946  1155.9997 </r>
       <r>     6.1493     0.0028  1156.0000 </r>
       <r>     6.2582     0.0000  1156.0000 </r>
       <r>     6.3670     0.0038  1156.0004 </r>
       <r>     6.4759     3.6161  1156.3940 </r>
       <r>     6.5847    11.3913  1157.6340 </r>
       <r>     6.6936    37.9229  1161.7621 </r>
       <r>     6.8025     7.1717  1162.5427 </r>
       <r>     6.9113    21.6195  1164.8961 </r>
       <r>     7.0202    38.8174  1169.1215 </r>
       <r>     7.1290    69.8746  1176.7276 </r>
       <r>     7.2379    65.9288  1183.9042 </r>
       <r>     7.3467   101.4889  1194.9517 </r>
       <r>     7.4556    94.7175  1205.2621 </r>
       <r>     7.5644    46.6149  1210.3363 </r>
       <r>     7.6733    67.3148  1217.6638 </r>
       <r>     7.7821    92.6636  1227.7505 </r>
       <r>     7.8910    87.6460  1237.2912 </r>
       <r>     7.9998    82.9221  1246.3175 </r>
       <r>     8.1087    49.9820  1251.7583 </r>
       <r>     8.2176    75.8865  1260.0188 </r>
       <r>     8.3264    73.2092  1267.9879 </r>
       <r>     8.4353    56.3536  1274.1222 </r>
       <r>     8.5441    84.1628  1283.2837 </r>
       <r>     8.6530    66.8303  1290.5584 </r>
       <r>     8.7618    46.0077  1295.5665 </r>
       <r>     8.8707    23.3925  1298.1129 </r>
       <r>     8.9795    46.4452  1303.1686 </r>
       <r>     9.0884    69.8336  1310.7703 </r>
       <r>     9.1972    70.9212  1318.4903 </r>
       <r>     9.3061    99.7259  1329.3459 </r>
       <r>     9.4149    67.8872  1336.7356 </r>
       <r>     9.5238    42.2713  1341.3370 </r>
       <r>     9.6327    67.1902  1348.6510 </r>
       <r>     9.7415    70.9293  1356.3719 </r>
       <r>     9.8504    39.5066  1360.6723 </r>
       <r>     9.9592    40.0207  1365.0287 </r>
       <r>    10.0681    45.2651  1369.9560 </r>
       <r>    10.1769    85.6717  1379.2817 </r>
       <r>    10.2858    61.9760  1386.0280 </r>
       <r>    10.3946    57.0824  1392.2417 </r>
       <r>    10.5035    72.9280  1400.1802 </r>
       <r>    10.6123    64.1744  1407.1658 </r>
       <r>    10.7212    43.1044  1411.8579 </r>
       <r>    10.8300    73.1892  1419.8248 </r>
       <r>    10.9389    35.7484  1423.7162 </r>
       <r>    11.0478    13.7920  1425.2175 </r>
       <r>    11.1566     1.3449  1425.3639 </r>
       <r>    11.2655    24.0330  1427.9800 </r>
       <r>    11.3743    18.5482  1429.9990 </r>
       <r>    11.4832    34.7388  1433.7804 </r>
       <r>    11.5920    49.9198  1439.2144 </r>
       <r>    11.7009    53.0108  1444.9848 </r>
       <r>    11.8097    46.3078  1450.0256 </r>
       <r>    11.9186    27.7376  1453.0450 </r>
       <r>    12.0274    14.2543  1454.5966 </r>
       <r>    12.1363     7.3489  1455.3966 </r>
       <r>    12.2451     1.8442  1455.5973 </r>
       <r>    12.3540     1.6987  1455.7822 </r>
       <r>    12.4629     1.9432  1455.9937 </r>
       <r>    12.5717     0.0575  1456.0000 </r>
       <r>    12.6806     0.0000  1456.0000 </r>
       <r>    12.7894     0.0000  1456.0000 </r>
       <r>    12.8983     0.0000  1456.0000 </r>
       <r>    13.0071     0.0000  1456.0000 </r>
       <r>    13.1160     0.0000  1456.0000 </r>
       <r>    13.2248     0.0000  1456.0000 </r>
       <r>    13.3337     0.0000  1456.0000 </r>
       <r>    13.4425     0.0000  1456.0000 </r>
       <r>    13.5514     0.0000  1456.0000 </r>
       <r>    13.6602     0.0000  1456.0000 </r>
       <r>    13.7691     0.0000  1456.0000 </r>
       <r>    13.8780     0.0000  1456.0000 </r>
      </set>
      <set comment="spin 2">
       <r>   -18.7782     0.0000     0.0000 </r>
       <r>   -18.6693     0.0000     0.0000 </r>
       <r>   -18.5605     0.0000     0.0000 </r>
       <r>   -18.4516     0.0000     0.0000 </r>
       <r>   -18.3428     0.0000     0.0000 </r>
       <r>   -18.2339     0.0000     0.0000 </r>
       <r>   -18.1251     0.0000     0.0000 </r>
       <r>   -18.0162     0.0000     0.0000 </r>
       <r>   -17.9074     0.0000     0.0000 </r>
       <r>   -17.7985     0.0000     0.0000 </r>
       <r>   -17.6897     0.0000     0.0000 </r>
       <r>   -17.5808     0.0000     0.0000 </r>
       <r>   -17.4720     0.0000     0.0000 </r>
       <r>   -17.3631     0.0000     0.0000 </r>
       <r>   -17.2542     0.1158     0.0126 </r>
       <r>   -17.1454    13.1201     1.4408 </r>
       <r>   -17.0365     5.1351     1.9998 </r>
       <r>   -16.9277     0.0023     2.0000 </r>
       <r>   -16.8188     0.0000     2.0000 </r>
       <r>   -16.7100     0.0000     2.0000 </r>
       <r>   -16.6011     0.0000     2.0000 </r>
       <r>   -16.4923     0.0000     2.0000 </r>
       <r>   -16.3834     0.0000     2.0000 </r>
       <r>   -16.2746     0.0000     2.0000 </r>
       <r>   -16.1657     0.0000     2.0000 </r>
       <r>   -16.0569     0.0000     2.0000 </r>
       <r>   -15.9480     0.0000     2.0000 </r>
       <r>   -15.8391     0.0457     2.0050 </r>
       <r>   -15.7303    11.0203     3.2046 </r>
       <r>   -15.6214    25.0531     5.9317 </r>
       <r>   -15.5126     5.0113     6.4772 </r>
       <r>   -15.4037     9.9910     7.5648 </r>
       <r>   -15.2949    21.5381     9.9093 </r>
       <r>   -15.1860    47.2685    15.0546 </r>
       <r>   -15.0772    42.1924    19.6474 </r>
       <r>   -14.9683    58.7238    26.0397 </r>
       <r>   -14.8595    59.7305    32.5416 </r>
       <r>   -14.7506    61.8497    39.2742 </r>
       <r>   -14.6418    37.1019    43.3129 </r>
       <r>   -14.5329    52.4042    49.0173 </r>
       <r>   -14.4240    71.6269    56.8142 </r>
       <r>   -14.3152    59.2815    63.2672 </r>
       <r>   -14.2063    76.5140    71.5960 </r>
       <r>   -14.0975    57.9556    77.9047 </r>
       <r>   -13.9886    35.3251    81.7500 </r>
       <r>   -13.8798    36.5517    85.7288 </r>
       <r>   -13.7709    68.2249    93.1553 </r>
       <r>   -13.6621   112.2401   105.3731 </r>
       <r>   -13.5532    67.2584   112.6944 </r>
       <r>   -13.4444    58.7549   119.0901 </r>
       <r>   -13.3355    62.9741   125.9451 </r>
       <r>   -13.2267    50.5029   131.4425 </r>
       <r>   -13.1178    41.1832   135.9255 </r>
       <r>   -13.0089    97.4811   146.5367 </r>
       <r>   -12.9001    86.8869   155.9947 </r>
       <r>   -12.7912   150.9169   172.4225 </r>
       <r>   -12.6824    59.3450   178.8825 </r>
       <r>   -12.5735    71.7305   186.6906 </r>
       <r>   -12.4647    82.0123   195.6180 </r>
       <r>   -12.3558    74.7380   203.7535 </r>
       <r>   -12.2470   164.8131   221.6940 </r>
       <r>   -12.1381   201.3004   243.6063 </r>
       <r>   -12.0293   117.5708   256.4044 </r>
       <r>   -11.9204    56.2206   262.5242 </r>
       <r>   -11.8116    63.7378   269.4623 </r>
       <r>   -11.7027    94.7362   279.7747 </r>
       <r>   -11.5938    55.9574   285.8659 </r>
       <r>   -11.4850    13.3667   287.3209 </r>
       <r>   -11.3761     6.1981   287.9956 </r>
       <r>   -11.2673     0.0405   288.0000 </r>
       <r>   -11.1584     0.0000   288.0000 </r>
       <r>   -11.0496     0.0000   288.0000 </r>
       <r>   -10.9407     0.0000   288.0000 </r>
       <r>   -10.8319     0.0000   288.0000 </r>
       <r>   -10.7230     0.0000   288.0000 </r>
       <r>   -10.6142     0.0000   288.0000 </r>
       <r>   -10.5053     0.0000   288.0000 </r>
       <r>   -10.3965     0.0000   288.0000 </r>
       <r>   -10.2876     0.0000   288.0000 </r>
       <r>   -10.1787     0.0000   288.0000 </r>
       <r>   -10.0699     0.0000   288.0000 </r>
       <r>    -9.9610     0.0000   288.0000 </r>
       <r>    -9.8522     0.0000   288.0000 </r>
       <r>    -9.7433     0.0000   288.0000 </r>
       <r>    -9.6345     0.0000   288.0000 </r>
       <r>    -9.5256     0.0000   288.0000 </r>
       <r>    -9.4168     0.0000   288.0000 </r>
       <r>    -9.3079     0.0000   288.0000 </r>
       <r>    -9.1991     0.0000   288.0000 </r>
       <r>    -9.0902     0.0000   288.0000 </r>
       <r>    -8.9814     0.0000   288.0000 </r>
       <r>    -8.8725     0.0000   288.0000 </r>
       <r>    -8.7636     0.0000   288.0000 </r>
       <r>    -8.6548     0.0000   288.0000 </r>
       <r>    -8.5459     0.0000   288.0000 </r>
       <r>    -8.4371     0.0000   288.0000 </r>
       <r>    -8.3282     0.0001   288.0000 </r>
       <r>    -8.2194     1.2547   288.1366 </r>
       <r>    -8.1105    15.9924   289.8774 </r>
       <r>    -8.0017     1.1260   290.0000 </r>
       <r>    -7.8928     0.0000   290.0000 </r>
       <r>    -7.7840     0.0000   290.0000 </r>
       <r>    -7.6751     0.0000   290.0000 </r>
       <r>    -7.5663     0.0000   290.0000 </r>
       <r>    -7.4574     0.0000   290.0000 </r>
       <r>    -7.3485     0.7800   290.0849 </r>
       <r>    -7.2397    22.5969   292.5447 </r>
       <r>    -7.1308    13.3425   293.9970 </r>
       <r>    -7.0220     0.0271   294.0000 </r>
       <r>    -6.9131     0.0016   294.0002 </r>
       <r>    -6.8043     3.8036   294.4142 </r>
       <r>    -6.6954    21.8134   296.7887 </r>
       <r>    -6.5866    22.2014   299.2054 </r>
       <r>    -6.4777    34.3667   302.9463 </r>
       <r>    -6.3689    43.0306   307.6304 </r>
       <r>    -6.2600   124.7051   321.2050 </r>
       <r>    -6.1512   132.8071   335.6616 </r>
       <r>    -6.0423    65.1567   342.7541 </r>
       <r>    -5.9334    41.7184   347.2954 </r>
       <r>    -5.8246    60.0206   353.8288 </r>
       <r>    -5.7157   173.5759   372.7232 </r>
       <r>    -5.6069   176.4614   391.9317 </r>
       <r>    -5.4980    88.5607   401.5719 </r>
       <r>    -5.3892    12.1072   402.8898 </r>
       <r>    -5.2803    13.8854   404.4013 </r>
       <r>    -5.1715   151.1851   420.8584 </r>
       <r>    -5.0626   107.6010   432.5712 </r>
       <r>    -4.9538    42.7447   437.2241 </r>
       <r>    -4.8449    28.2532   440.2996 </r>
       <r>    -4.7361    22.1078   442.7061 </r>
       <r>    -4.6272    13.9764   444.2275 </r>
       <r>    -4.5183    51.4303   449.8259 </r>
       <r>    -4.4095   153.3112   466.5144 </r>
       <r>    -4.3006    84.8961   475.7556 </r>
       <r>    -4.1918    23.0428   478.2639 </r>
       <r>    -4.0829    74.1594   486.3365 </r>
       <r>    -3.9741   105.6394   497.8357 </r>
       <r>    -3.8652    69.8606   505.4403 </r>
       <r>    -3.7564    21.8097   507.8144 </r>
       <r>    -3.6475    28.2643   510.8911 </r>
       <r>    -3.5387   121.7704   524.1463 </r>
       <r>    -3.4298   128.6970   538.1554 </r>
       <r>    -3.3210    78.9894   546.7537 </r>
       <r>    -3.2121    44.9358   551.6452 </r>
       <r>    -3.1032    72.8513   559.5753 </r>
       <r>    -2.9944   121.2761   572.7767 </r>
       <r>    -2.8855   139.9375   588.0094 </r>
       <r>    -2.7767   111.5629   600.1535 </r>
       <r>    -2.6678   134.5172   614.7962 </r>
       <r>    -2.5590    53.9467   620.6685 </r>
       <r>    -2.4501    63.6931   627.6017 </r>
       <r>    -2.3413   151.7223   644.1173 </r>
       <r>    -2.2324   125.1346   657.7387 </r>
       <r>    -2.1236   116.1143   670.3782 </r>
       <r>    -2.0147   141.6817   685.8008 </r>
       <r>    -1.9059   131.7294   700.1400 </r>
       <r>    -1.7970   184.9907   720.2770 </r>
       <r>    -1.6881   191.2384   741.0940 </r>
       <r>    -1.5793   192.8618   762.0877 </r>
       <r>    -1.4704   167.8389   780.3577 </r>
       <r>    -1.3616   101.9049   791.4504 </r>
       <r>    -1.2527    76.7536   799.8053 </r>
       <r>    -1.1439   191.2824   820.6271 </r>
       <r>    -1.0350   129.8830   834.7654 </r>
       <r>    -0.9262    77.7086   843.2243 </r>
       <r>    -0.8173   118.5858   856.1328 </r>
       <r>    -0.7085   105.9877   867.6700 </r>
       <r>    -0.5996   104.9761   879.0970 </r>
       <r>    -0.4908    81.6775   887.9879 </r>
       <r>    -0.3819   169.3698   906.4245 </r>
       <r>    -0.2730   184.9541   926.5575 </r>
       <r>    -0.1642    98.7754   937.3096 </r>
       <r>    -0.0553    46.4475   942.3656 </r>
       <r>     0.0535    77.0860   950.7567 </r>
       <r>     0.1624    54.9973   956.7433 </r>
       <r>     0.2712   126.9131   970.5583 </r>
       <r>     0.3801   126.2760   984.3039 </r>
       <r>     0.4889   112.8475   996.5878 </r>
       <r>     0.5978   101.8482  1007.6744 </r>
       <r>     0.7066    95.6716  1018.0886 </r>
       <r>     0.8155    73.0732  1026.0429 </r>
       <r>     0.9243   154.6952  1042.8821 </r>
       <r>     1.0332    90.6501  1052.7497 </r>
       <r>     1.1421    93.6583  1062.9448 </r>
       <r>     1.2509    80.1131  1071.6654 </r>
       <r>     1.3598    90.3308  1081.4982 </r>
       <r>     1.4686    69.0847  1089.0184 </r>
       <r>     1.5775    57.5731  1095.2854 </r>
       <r>     1.6863    75.1588  1103.4668 </r>
       <r>     1.7952    59.1114  1109.9013 </r>
       <r>     1.9040   116.6272  1122.5966 </r>
       <r>     2.0129    80.1924  1131.3258 </r>
       <r>     2.1217    48.3476  1136.5887 </r>
       <r>     2.2306    44.4342  1141.4255 </r>
       <r>     2.3394    22.2565  1143.8482 </r>
       <r>     2.4483    61.5746  1150.5508 </r>
       <r>     2.5572    12.7581  1151.9396 </r>
       <r>     2.6660     0.5550  1152.0000 </r>
       <r>     2.7749     0.0000  1152.0000 </r>
       <r>     2.8837     0.0000  1152.0000 </r>
       <r>     2.9926     0.0000  1152.0000 </r>
       <r>     3.1014     0.0000  1152.0000 </r>
       <r>     3.2103     0.0000  1152.0000 </r>
       <r>     3.3191     0.0000  1152.0000 </r>
       <r>     3.4280     0.0000  1152.0000 </r>
       <r>     3.5368     0.0000  1152.0000 </r>
       <r>     3.6457     0.0000  1152.0000 </r>
       <r>     3.7545     0.0000  1152.0000 </r>
       <r>     3.8634     0.0000  1152.0000 </r>
       <r>     3.9723     0.0000  1152.0000 </r>
       <r>     4.0811     0.0000  1152.0000 </r>
       <r>     4.1900     0.0000  1152.0000 </r>
       <r>     4.2988     0.0000  1152.0000 </r>
       <r>     4.4077     0.0000  1152.0000 </r>
       <r>     4.5165     0.0000  1152.0000 </r>
       <r>     4.6254     0.0000  1152.0000 </r>
       <r>     4.7342     0.0000  1152.0000 </r>
       <r>     4.8431     0.0000  1152.0000 </r>
       <r>     4.9519     0.0000  1152.0000 </r>
       <r>     5.0608     0.0000  1152.0000 </r>
       <r>     5.1696     0.0000  1152.0000 </r>
       <r>     5.2785     0.0000  1152.0000 </r>
       <r>     5.3874     0.0000  1152.0000 </r>
       <r>     5.4962     1.2111  1152.1318 </r>
       <r>     5.6051    16.0660  1153.8807 </r>
       <r>     5.7139     1.0961  1154.0000 </r>
       <r>     5.8228     0.0000  1154.0000 </r>
       <r>     5.9316     0.0000  1154.0000 </r>
       <r>     6.0405     0.0000  1154.0000 </r>
       <r>     6.1493     0.0000  1154.0000 </r>
       <r>     6.2582     0.0000  1154.0000 </r>
       <r>     6.3670     0.0000  1154.0000 </r>
       <r>     6.4759     0.8179  1154.0890 </r>
       <r>     6.5847     8.2308  1154.9850 </r>
       <r>     6.6936    30.3887  1158.2929 </r>
       <r>     6.8025    34.9282  1162.0950 </r>
       <r>     6.9113    23.7107  1164.6760 </r>
       <r>     7.0202    36.6213  1168.6623 </r>
       <r>     7.1290    71.0666  1176.3982 </r>
       <r>     7.2379    63.8057  1183.3437 </r>
       <r>     7.3467   102.4009  1194.4904 </r>
       <r>     7.4556    92.4107  1204.5497 </r>
       <r>     7.5644    51.0303  1210.1046 </r>
       <r>     7.6733    65.3137  1217.2142 </r>
       <r>     7.7821    92.9795  1227.3354 </r>
       <r>     7.8910    87.5895  1236.8698 </r>
       <r>     7.9998    82.5153  1245.8519 </r>
       <r>     8.1087    49.1680  1251.2041 </r>
       <r>     8.2176    73.0232  1259.1529 </r>
       <r>     8.3264    77.8517  1267.6274 </r>
       <r>     8.4353    54.9092  1273.6044 </r>
       <r>     8.5441    84.8910  1282.8452 </r>
       <r>     8.6530    66.9924  1290.1375 </r>
       <r>     8.7618    45.5696  1295.0980 </r>
       <r>     8.8707    19.5178  1297.2226 </r>
       <r>     8.9795    45.2539  1302.1486 </r>
       <r>     9.0884    71.2840  1309.9081 </r>
       <r>     9.1972    71.7926  1317.7230 </r>
       <r>     9.3061    90.9909  1327.6278 </r>
       <r>     9.4149    70.8506  1335.3401 </r>
       <r>     9.5238    47.3229  1340.4914 </r>
       <r>     9.6327    59.6931  1346.9892 </r>
       <r>     9.7415    77.7631  1355.4540 </r>
       <r>     9.8504    43.8420  1360.2264 </r>
       <r>     9.9592    39.9299  1364.5729 </r>
       <r>    10.0681    43.5648  1369.3151 </r>
       <r>    10.1769    86.3439  1378.7140 </r>
       <r>    10.2858    62.2920  1385.4947 </r>
       <r>    10.3946    59.7277  1391.9963 </r>
       <r>    10.5035    71.8406  1399.8165 </r>
       <r>    10.6123    65.5863  1406.9558 </r>
       <r>    10.7212    43.4602  1411.6866 </r>
       <r>    10.8300    72.5467  1419.5836 </r>
       <r>    10.9389    35.6326  1423.4623 </r>
       <r>    11.0478    15.7414  1425.1758 </r>
       <r>    11.1566     1.6640  1425.3570 </r>
       <r>    11.2655    22.4324  1427.7988 </r>
       <r>    11.3743    18.2898  1429.7897 </r>
       <r>    11.4832    35.5271  1433.6570 </r>
       <r>    11.5920    53.3552  1439.4649 </r>
       <r>    11.7009    48.6077  1444.7560 </r>
       <r>    11.8097    42.8151  1449.4166 </r>
       <r>    11.9186    26.0127  1452.2482 </r>
       <r>    12.0274    20.9412  1454.5278 </r>
       <r>    12.1363     6.5696  1455.2429 </r>
       <r>    12.2451     0.8376  1455.3341 </r>
       <r>    12.3540     4.1309  1455.7837 </r>
       <r>    12.4629     1.9480  1455.9958 </r>
       <r>    12.5717     0.0388  1456.0000 </r>
       <r>    12.6806     0.0000  1456.0000 </r>
       <r>    12.7894     0.0000  1456.0000 </r>
       <r>    12.8983     0.0000  1456.0000 </r>
       <r>    13.0071     0.0000  1456.0000 </r>
       <r>    13.1160     0.0000  1456.0000 </r>
       <r>    13.2248     0.0000  1456.0000 </r>
       <r>    13.3337     0.0000  1456.0000 </r>
       <r>    13.4425     0.0000  1456.0000 </r>
       <r>    13.5514     0.0000  1456.0000 </r>
       <r>    13.6602     0.0000  1456.0000 </r>
       <r>    13.7691     0.0000  1456.0000 </r>
       <r>    13.8780     0.0000  1456.0000 </r>
      </set>
     </set>
    </array>
   </total>
  </dos>
 </calculation>
 <structure name="finalpos" >
  <crystal>
   <varray name="basis" >
    <v>      14.93631415       0.00000000       0.00000000 </v>
    <v>      -7.46815707      12.93522749      -0.00000000 </v>
    <v>       0.00000000       0.00000000      13.34127628 </v>
   </varray>
   <i name="volume">   2577.59623255 </i>
   <varray name="rec_basis" >
    <v>       0.06695092       0.03865413      -0.00000000 </v>
    <v>       0.00000000       0.07730827      -0.00000000 </v>
    <v>       0.00000000       0.00000000       0.07495535 </v>
   </varray>
  </crystal>
  <varray name="positions" >
   <v>       0.44444444       0.38888889       0.37500000 </v>
   <v>       0.11110578       0.05553988       0.12514209 </v>
   <v>       0.61111893       0.55556454       0.12533815 </v>
   <v>       0.44443410       0.05553988       0.12514209 </v>
   <v>       0.94445577       0.55556472       0.12511237 </v>
   <v>       0.77777778       0.05555556       0.12508750 </v>
   <v>       0.11111111       0.72222222       0.62490204 </v>
   <v>       0.44443410       0.72222755       0.62485791 </v>
   <v>       0.27776879       0.22221440       0.62466185 </v>
   <v>       0.77779345       0.72222755       0.62485791 </v>
   <v>       0.61111409       0.22221925       0.62484996 </v>
   <v>       0.94444599       0.22222938       0.62490241 </v>
   <v>       0.27776861       0.72222439       0.12511237 </v>
   <v>       0.11110516       0.22221925       0.12515004 </v>
   <v>       0.44444561       0.22221440       0.12533815 </v>
   <v>       0.61111409       0.72222817       0.12515004 </v>
   <v>       0.94445577       0.72222439       0.12511237 </v>
   <v>       0.77778339       0.22222938       0.12509759 </v>
   <v>       0.11110895       0.88887756       0.62488763 </v>
   <v>       0.44443273       0.88888303       0.62489877 </v>
   <v>       0.27776879       0.38888773       0.62466185 </v>
   <v>       0.61111893       0.38888773       0.62466185 </v>
   <v>       0.77778339       0.88888734       0.62490241 </v>
   <v>       0.94445030       0.38890061       0.62489877 </v>
   <v>       0.11110578       0.38889924       0.12514209 </v>
   <v>       0.27776861       0.88887756       0.12511237 </v>
   <v>       0.61110395       0.88888734       0.12509759 </v>
   <v>       0.44444444       0.38888889       0.12572567 </v>
   <v>       0.94445030       0.88888303       0.12510123 </v>
   <v>       0.77779345       0.38889924       0.12514209 </v>
   <v>       0.27776995       0.55556338       0.62481384 </v>
   <v>       0.11110578       0.05553988       0.62485791 </v>
   <v>       0.61111893       0.55556454       0.62466185 </v>
   <v>       0.44443410       0.05553988       0.62485791 </v>
   <v>       0.94445577       0.55556472       0.62488763 </v>
   <v>       0.11110895       0.55556472       0.12511237 </v>
   <v>       0.77777778       0.05555556       0.62491250 </v>
   <v>       0.27776995       0.05553990       0.12518616 </v>
   <v>       0.44444561       0.55556454       0.12533815 </v>
   <v>       0.77779343       0.55556338       0.12518616 </v>
   <v>       0.61110395       0.05554994       0.12509759 </v>
   <v>       0.44444561       0.55556454       0.62466185 </v>
   <v>       0.94444599       0.05554994       0.12509759 </v>
   <v>       0.27776861       0.72222439       0.62488763 </v>
   <v>       0.11110516       0.22221925       0.62484996 </v>
   <v>       0.44444561       0.22221440       0.62466185 </v>
   <v>       0.61111409       0.72222817       0.62484996 </v>
   <v>       0.94445577       0.72222439       0.62488763 </v>
   <v>       0.77778339       0.22222938       0.62490241 </v>
   <v>       0.11111111       0.72222222       0.12509796 </v>
   <v>       0.44443410       0.72222755       0.12514209 </v>
   <v>       0.27776879       0.22221440       0.12533815 </v>
   <v>       0.77779345       0.72222755       0.12514209 </v>
   <v>       0.61111409       0.22221925       0.12515004 </v>
   <v>       0.94444599       0.22222938       0.12509759 </v>
   <v>       0.11110578       0.38889924       0.62485791 </v>
   <v>       0.27776861       0.88887756       0.62488763 </v>
   <v>       0.61110395       0.88888734       0.62490241 </v>
   <v>       0.44444444       0.38888889       0.62427433 </v>
   <v>       0.94445030       0.88888303       0.62489877 </v>
   <v>       0.11110895       0.88887756       0.12511237 </v>
   <v>       0.77779345       0.38889924       0.62485791 </v>
   <v>       0.44443273       0.88888303       0.12510123 </v>
   <v>       0.27776879       0.38888773       0.12533815 </v>
   <v>       0.27776995       0.55556338       0.12518616 </v>
   <v>       0.61111893       0.38888773       0.12533815 </v>
   <v>       0.77778339       0.88888734       0.12509759 </v>
   <v>       0.94445030       0.38890061       0.12510123 </v>
   <v>       0.11110895       0.55556472       0.62488763 </v>
   <v>       0.27776995       0.05553990       0.62481384 </v>
   <v>       0.77779343       0.55556338       0.62481384 </v>
   <v>       0.61110395       0.05554994       0.62490241 </v>
   <v>       0.94444599       0.05554994       0.62490241 </v>
   <v>       0.05492459       0.11067225       0.37500000 </v>
   <v>       0.55597948       0.61195895       0.37500000 </v>
   <v>       0.38821178       0.10798614       0.37500000 </v>
   <v>       0.88997050       0.61165191       0.37500000 </v>
   <v>       0.72233166       0.11100168       0.37500000 </v>
   <v>       0.05555347       0.77777986       0.87500000 </v>
   <v>       0.38889499       0.77778040       0.87500000 </v>
   <v>       0.22222211       0.27777772       0.87500000 </v>
   <v>       0.72222208       0.77778036       0.87500000 </v>
   <v>       0.55555561       0.27777772       0.87500000 </v>
   <v>       0.88888780       0.27777560       0.87500000 </v>
   <v>       0.22203010       0.77768172       0.37500000 </v>
   <v>       0.05492459       0.27758567       0.37500000 </v>
   <v>       0.38321436       0.26642872       0.37500000 </v>
   <v>       0.55574766       0.77840874       0.37500000 </v>
   <v>       0.88973042       0.77847773       0.37500000 </v>
   <v>       0.72266108       0.27758567       0.37500000 </v>
   <v>       0.05555294       0.94444793       0.87500000 </v>
   <v>       0.38889499       0.94444793       0.87500000 </v>
   <v>       0.22222295       0.44443974       0.87500000 </v>
   <v>       0.55555250       0.44444291       0.87500000 </v>
   <v>       0.72222259       0.94444517       0.87500000 </v>
   <v>       0.88888540       0.44443834       0.87500000 </v>
   <v>       0.05485561       0.44458602       0.37500000 </v>
   <v>       0.22168142       0.94336284       0.37500000 </v>
   <v>       0.55571596       0.94452465       0.37500000 </v>
   <v>       0.38321436       0.45011897       0.37500000 </v>
   <v>       0.88880868       0.94452465       0.37500000 </v>
   <v>       0.72534720       0.44512155       0.37500000 </v>
   <v>       0.22222502       0.61110832       0.87500000 </v>
   <v>       0.05555297       0.11111126       0.87500000 </v>
   <v>       0.55555561       0.61111123       0.87500000 </v>
   <v>       0.38889360       0.11111654       0.87500000 </v>
   <v>       0.88888330       0.61110832       0.87500000 </v>
   <v>       0.05565162       0.61130323       0.37500000 </v>
   <v>       0.72222259       0.11111075       0.87500000 </v>
   <v>       0.21977436       0.10798614       0.37500000 </v>
   <v>       0.38821178       0.61355898       0.37500000 </v>
   <v>       0.72534720       0.61355898       0.37500000 </v>
   <v>       0.55574766       0.11067225       0.37500000 </v>
   <v>       0.38889360       0.61111039       0.87500000 </v>
   <v>       0.88867002       0.11100168       0.37500000 </v>
   <v>       0.22222639       0.77777986       0.87500000 </v>
   <v>       0.05555297       0.27777505       0.87500000 </v>
   <v>       0.38889042       0.27778084       0.87500000 </v>
   <v>       0.55555829       0.77778036       0.87500000 </v>
   <v>       0.88888540       0.77778040       0.87500000 </v>
   <v>       0.72222208       0.27777505       0.87500000 </v>
   <v>       0.05565162       0.77768172       0.37500000 </v>
   <v>       0.38874731       0.77847773       0.37500000 </v>
   <v>       0.22137438       0.27735386       0.37500000 </v>
   <v>       0.72266108       0.77840874       0.37500000 </v>
   <v>       0.55597948       0.27735386       0.37500000 </v>
   <v>       0.88880868       0.27761737       0.37500000 </v>
   <v>       0.05555294       0.44443834       0.87500000 </v>
   <v>       0.22222502       0.94445003       0.87500000 </v>
   <v>       0.55555773       0.94444553       0.87500000 </v>
   <v>       0.38889042       0.44444291       0.87500000 </v>
   <v>       0.88888780       0.94444553       0.87500000 </v>
   <v>       0.05485561       0.94360291       0.37500000 </v>
   <v>       0.72221679       0.44443974       0.87500000 </v>
   <v>       0.38874731       0.94360291       0.37500000 </v>
   <v>       0.21977436       0.44512155       0.37500000 </v>
   <v>       0.22168142       0.61165191       0.37500000 </v>
   <v>       0.56690462       0.45011897       0.37500000 </v>
   <v>       0.72233166       0.94466331       0.37500000 </v>
   <v>       0.88973042       0.44458602       0.37500000 </v>
   <v>       0.05555347       0.61110694       0.87500000 </v>
   <v>       0.22222295       0.11111654       0.87500000 </v>
   <v>       0.72221679       0.61111039       0.87500000 </v>
   <v>       0.55555829       0.11111126       0.87500000 </v>
   <v>       0.88888816       0.11111075       0.87500000 </v>
   <v>       0.10888702       0.05363429       0.37500000 </v>
   <v>       0.61662821       0.56151023       0.37500000 </v>
   <v>       0.44474727       0.05363429       0.37500000 </v>
   <v>       0.94505350       0.55569452       0.37500000 </v>
   <v>       0.77777778       0.05555556       0.37500000 </v>
   <v>       0.11111111       0.72222222       0.87500000 </v>
   <v>       0.44445789       0.72225917       0.87500000 </v>
   <v>       0.27773656       0.22218886       0.87500000 </v>
   <v>       0.77780129       0.72225917       0.87500000 </v>
   <v>       0.61113701       0.22219632       0.87500000 </v>
   <v>       0.94441891       0.22220602       0.87500000 </v>
   <v>       0.27763881       0.72269232       0.37500000 </v>
   <v>       0.10939752       0.22136543       0.37500000 </v>
   <v>       0.44488202       0.21670513       0.37500000 </v>
   <v>       0.61196791       0.72393582       0.37500000 </v>
   <v>       0.94505350       0.72269232       0.37500000 </v>
   <v>       0.77798832       0.22181380       0.37500000 </v>
   <v>       0.11109976       0.88887925       0.87500000 </v>
   <v>       0.44445802       0.88889568       0.87500000 </v>
   <v>       0.27773656       0.38888103       0.87500000 </v>
   <v>       0.61114447       0.38888103       0.87500000 </v>
   <v>       0.77778711       0.88891442       0.87500000 </v>
   <v>       0.94443766       0.38887531       0.87500000 </v>
   <v>       0.10888702       0.38858606       0.37500000 </v>
   <v>       0.27763881       0.88827983       0.37500000 </v>
   <v>       0.61151953       0.88950785       0.37500000 </v>
   <v>       0.94428960       0.88904373       0.37500000 </v>
   <v>       0.77969904       0.38858606       0.37500000 </v>
   <v>       0.27776270       0.55557063       0.87500000 </v>
   <v>       0.11107416       0.05553205       0.87500000 </v>
   <v>       0.61114447       0.55559678       0.87500000 </v>
   <v>       0.44445789       0.05553205       0.87500000 </v>
   <v>       0.94445408       0.55555385       0.87500000 </v>
   <v>       0.11064101       0.55569452       0.37500000 </v>
   <v>       0.77777778       0.05555556       0.87500000 </v>
   <v>       0.27665444       0.05330889       0.37500000 </v>
   <v>       0.44488202       0.56151023       0.37500000 </v>
   <v>       0.78002445       0.55667889       0.37500000 </v>
   <v>       0.61151953       0.05534502       0.37500000 </v>
   <v>       0.44445231       0.55559678       0.87500000 </v>
   <v>       0.94382548       0.05534502       0.37500000 </v>
   <v>       0.27777949       0.72223357       0.87500000 </v>
   <v>       0.11105932       0.22219632       0.87500000 </v>
   <v>       0.44445231       0.22218886       0.87500000 </v>
   <v>       0.61113701       0.72227402       0.87500000 </v>
   <v>       0.94445408       0.72223357       0.87500000 </v>
   <v>       0.77778711       0.22220602       0.87500000 </v>
   <v>       0.11161044       0.72222222       0.37549932 </v>
   <v>       0.44474727       0.72444631       0.37500000 </v>
   <v>       0.27182310       0.21670513       0.37500000 </v>
   <v>       0.77969904       0.72444631       0.37500000 </v>
   <v>       0.61196791       0.22136543       0.37500000 </v>
   <v>       0.94382548       0.22181380       0.37500000 </v>
   <v>       0.11107416       0.38887545       0.87500000 </v>
   <v>       0.27777949       0.88887925       0.87500000 </v>
   <v>       0.61112731       0.88891442       0.87500000 </v>
   <v>       0.44444444       0.38888889       0.87500000 </v>
   <v>       0.94443766       0.88889568       0.87500000 </v>
   <v>       0.11064101       0.88827983       0.37500000 </v>
   <v>       0.77780129       0.38887545       0.87500000 </v>
   <v>       0.44475413       0.88904373       0.37500000 </v>
   <v>       0.27182310       0.38845131       0.37500000 </v>
   <v>       0.27665444       0.55667889       0.37500000 </v>
   <v>       0.61662821       0.38845131       0.37500000 </v>
   <v>       0.77798832       0.88950785       0.37500000 </v>
   <v>       0.94428960       0.38857921       0.37500000 </v>
   <v>       0.11109976       0.55555385       0.87500000 </v>
   <v>       0.27776270       0.05552540       0.87500000 </v>
   <v>       0.77780793       0.55557063       0.87500000 </v>
   <v>       0.61112731       0.05554622       0.87500000 </v>
   <v>       0.94441891       0.05554622       0.87500000 </v>
   <v>       0.05546928       0.11103632       0.12487403 </v>
   <v>       0.55563492       0.61126984       0.12476730 </v>
   <v>       0.38882801       0.11092619       0.12483104 </v>
   <v>       0.88900701       0.61117017       0.12488859 </v>
   <v>       0.72223458       0.11109875       0.12491481 </v>
   <v>       0.05557215       0.77776118       0.62509033 </v>
   <v>       0.38885004       0.77781495       0.62510653 </v>
   <v>       0.22206349       0.27769841       0.62523270 </v>
   <v>       0.72229702       0.77786405       0.62512597 </v>
   <v>       0.55563492       0.27769841       0.62523270 </v>
   <v>       0.88889259       0.27778519       0.62508998 </v>
   <v>       0.22218903       0.77776118       0.12490967 </v>
   <v>       0.05546928       0.27776630       0.12487403 </v>
   <v>       0.38878395       0.27756790       0.12459556 </v>
   <v>       0.55556704       0.77786405       0.12487403 </v>
   <v>       0.88896491       0.77781495       0.12489347 </v>
   <v>       0.72229702       0.27776630       0.12487403 </v>
   <v>       0.05551838       0.94436842       0.62510653 </v>
   <v>       0.38885004       0.94436842       0.62510653 </v>
   <v>       0.22209818       0.44450532       0.62516896 </v>
   <v>       0.55576543       0.44454938       0.62540444 </v>
   <v>       0.72223458       0.94446917       0.62508519 </v>
   <v>       0.88896491       0.44448330       0.62510653 </v>
   <v>       0.05551838       0.44448330       0.12489347 </v>
   <v>       0.22216316       0.94432633       0.12488859 </v>
   <v>       0.55554814       0.94444074       0.12491002 </v>
   <v>       0.38878395       0.44454938       0.12459556 </v>
   <v>       0.88889259       0.94444074       0.12491002 </v>
   <v>       0.72240714       0.44450532       0.12483104 </v>
   <v>       0.22216316       0.61117017       0.62511141 </v>
   <v>       0.05546928       0.11103632       0.62512597 </v>
   <v>       0.55563492       0.61126984       0.62523270 </v>
   <v>       0.38882801       0.11092619       0.62516896 </v>
   <v>       0.88900701       0.61117017       0.62511141 </v>
   <v>       0.05557215       0.61114430       0.12490967 </v>
   <v>       0.72223458       0.11109875       0.62508519 </v>
   <v>       0.22209818       0.11092619       0.12483104 </v>
   <v>       0.38882801       0.61123515       0.12483104 </v>
   <v>       0.72240714       0.61123515       0.12483104 </v>
   <v>       0.55556704       0.11103632       0.12487403 </v>
   <v>       0.38882801       0.61123515       0.62516896 </v>
   <v>       0.88886417       0.11109875       0.12491481 </v>
   <v>       0.22218903       0.77776118       0.62509033 </v>
   <v>       0.05546928       0.27776630       0.62512597 </v>
   <v>       0.38878395       0.27756790       0.62540444 </v>
   <v>       0.55556704       0.77786405       0.62512597 </v>
   <v>       0.88896491       0.77781495       0.62510653 </v>
   <v>       0.72229702       0.27776630       0.62512597 </v>
   <v>       0.05557215       0.77776118       0.12490967 </v>
   <v>       0.38885004       0.77781495       0.12489347 </v>
   <v>       0.22206349       0.27769841       0.12476730 </v>
   <v>       0.72229702       0.77786405       0.12487403 </v>
   <v>       0.55563492       0.27769841       0.12476730 </v>
   <v>       0.88889259       0.27778519       0.12491002 </v>
   <v>       0.05551838       0.44448330       0.62510653 </v>
   <v>       0.22216316       0.94432633       0.62511141 </v>
   <v>       0.55554814       0.94444074       0.62508998 </v>
   <v>       0.38878395       0.44454938       0.62540444 </v>
   <v>       0.88889259       0.94444074       0.62508998 </v>
   <v>       0.05551838       0.94436842       0.12489347 </v>
   <v>       0.72240714       0.44450532       0.62516896 </v>
   <v>       0.38885004       0.94436842       0.12489347 </v>
   <v>       0.22209818       0.44450532       0.12483104 </v>
   <v>       0.22216316       0.61117017       0.12488859 </v>
   <v>       0.55576543       0.44454938       0.12459556 </v>
   <v>       0.72223458       0.94446917       0.12491481 </v>
   <v>       0.88896491       0.44448330       0.12489347 </v>
   <v>       0.05557215       0.61114430       0.62509033 </v>
   <v>       0.22209818       0.11092619       0.62516896 </v>
   <v>       0.72240714       0.61123515       0.62516896 </v>
   <v>       0.55556704       0.11103632       0.62512597 </v>
   <v>       0.88886417       0.11109875       0.62508519 </v>
  </varray>
 </structure>
</modeling>
